! 4/13/2026 10:55:09 AM
! C:\ANRITSUVNA\DATA\SARA\2026-04-13 T5 MZDRV\DEEMB STRUCTURES\OPEN_3.S4P
! CHANNEL.1
! TR.MEASUREMENT
! CORRECTED.DATA
! RF.CORRECTION: FULL.FOUR.PORT.CAL.PORT.1.2.3.4
! AVERAGING.OFF
! IF.BANDWIDTH: 1KHZ
! SWEEPTYPE:  FREQ.SWEEP(Linear)
! Reference Plane Port Info
! PORT:              PORT1              PORT2              PORT3              PORT4             
! DISTANCE:          0  m               0  m               0  m               0  m              
! TIME:              0  s               0  s               0  s               0  s              
! PHASE.OFFSET:      0 °                0 °                0 °                0 °               
! LOSS:              0  dB              0  dB              0  dB              0  dB             
! REF.LOSS:          0  dB              0  dB              0  dB              0  dB             
! REF.FREQ:          0  Hz              0  Hz              0  Hz              0  Hz             
! Power Info
! POWER:             -20  dBm           -20  dBm           -20  dBm           -20  dBm          
! EFF.POWER:         -20  dBm           -20  dBm           -20  dBm           -20  dBm          
! SOURCE.ATTEN:      0  dB              0  dB              0  dB              0  dB             
! TEST.ATTEN:        0  dB              0  dB              0  dB              0  dB             
# HZ S DB R 50.0
! FREQ.HZ         S11DB        S11A          S12DB        S12A          S13DB        S13A          S14DB        S14A 
!		      S21DB        S21A          S22DB        S22A          S23DB        S23A          S24DB        S24A 
!		      S31DB        S31A          S32DB        S32A          S33DB        S33A          S34DB        S34A 
!		      S41DB        S41A          S42DB        S42A          S43DB        S43A          S44DB        S44A 
!; PortSelection: Port_1234
      10000000     0.0021640   -0.0313684   -76.1486100   40.6091100   -92.8712000 -125.8736000   -84.0904400   75.1941700 
 		     -83.4404700   18.0436900     0.0604891    0.0611347   -86.5245100 -133.9495000   -91.0455200 -130.5645000
 		     -78.4328500 -177.3912000   -84.4227200  105.1497000     0.0299928    0.0589714   -78.9019200  135.0125000
 		     -76.5788700   45.1870500   -73.8025700  -39.2013400   -97.7969400 -102.2510000     0.0094588    0.0121304
      79990000    -0.0036929   -0.1445717   -67.3580600   93.7362100   -79.6316600  120.8920000   -85.4681400  123.2122000 
 		     -68.3325700   96.3655400     0.0526071   -0.1803785  -101.6553000   13.5421500   -84.3197300 -166.5088000
 		     -87.4448200 -176.1721000   -83.0586400  144.7488000     0.0196269   -0.2478985   -67.7641900   92.0534700
 		     -79.9452600 -135.3454000   -85.0505400   29.1707500   -67.6194100   86.5216100     0.0060035   -0.2607615
     149980000     0.0033525   -0.2950542   -62.3655000   82.5691500   -80.4089300   65.0372500   -75.1854200   37.7293800 
 		     -62.7030100   91.7297800     0.0445206   -0.3374444   -81.6432500  104.5090000   -85.1056000  -75.2023000
 		     -83.8594500  -94.6867600   -90.3386800 -148.4352000     0.0142496   -0.5348280   -62.0742800   83.5673900
 		     -92.7419700  123.3064000   -83.8199200  -65.6775100   -62.4436500   84.4511700     0.0060908   -0.5398331
     219970000    -0.0003459   -0.4302695   -60.4664000   81.1669200   -72.8321600   22.2734500   -92.3317000  178.9732000 
 		     -59.9177400   84.9498400     0.0119233   -0.4652773   -80.0572800  -95.3877700   -84.8951600 -107.1411000
 		     -88.9307300   -7.1189080   -77.3470200 -112.2926000     0.0178706   -0.8327619   -58.4617600   91.1763900
 		     -86.0252200  163.9538000   -81.0298200  151.9047000   -59.2450300   88.6220800     0.0055438   -0.8252524
     289960000    -0.0005040   -0.6589656   -57.9184900   88.7285300   -77.3494900   33.1955100   -77.1349600  111.3023000 
 		     -57.2605900   88.4192100     0.0013241   -0.6255386   -78.0474900 -163.7664000   -97.2000000  -49.9976400
 		     -76.4444800  -15.2095900   -82.5057200  -29.8885700     0.0101324   -1.1015920   -56.5476600   90.2863500
 		     -78.3190300 -131.7530000   -79.4141200  150.3888000   -56.7872700   85.6862300     0.0032418   -1.0938920
     359950000     0.0004991   -0.7629880   -55.6953600   84.6500900   -74.4937700   21.9577200   -88.6103700   76.1703900 
 		     -55.6601100   87.4770500     0.0020192   -0.7205054   -79.1399800 -179.0720000   -83.7112600 -100.2122000
 		     -84.4453300  -71.0992600   -75.2204400 -123.2834000     0.0053360   -1.3459400   -54.4596600   87.7154400
 		    -101.7079000  -46.7536900   -78.9497900  146.3894000   -55.0185900   89.3700300     0.0032459   -1.3693570
     429940000    -0.0013023   -0.8744954   -53.6618700   91.1037100   -96.6612400  107.5209000   -69.4640600  116.6573000 
 		     -53.1444900   88.0889000     0.0046068   -0.9154760   -89.5029400  -13.2338900   -75.0207100 -110.7840000
 		     -81.6492900  160.7317000   -83.0947400  171.5879000     0.0062795   -1.5650980   -53.4529500   89.0515100
 		     -81.6271400  -32.7801700   -72.8255800   50.7654700   -52.9390400   87.3250800     0.0067422   -1.6740590
     499930000    -0.0015521   -1.0512110   -52.4183800   87.2051800   -74.2825600   47.1455800   -76.4075000   19.4393300 
 		     -53.6409400   96.2588200    -0.0032398   -1.0581860   -79.8072000   13.9934800   -71.9575000  165.2169000
 		     -72.7057800   30.2769500   -73.5736800 -179.3541000     0.0019627   -1.9045330   -51.8145500   89.1173600
 		     -75.3530700   38.8292000   -69.9843100  172.4246000   -51.9481200   88.6863900     0.0002661   -1.9506190
     569920000     0.0001020   -1.1822580   -50.8820400   88.2972500   -77.2288400 -107.6301000   -70.8539400  -67.0273800 
 		     -51.1689100   92.9222300    -0.0135141   -1.2124250   -76.9106100  144.8412000   -71.2206900  -79.3996600
 		     -69.6689600 -173.1206000   -73.1694000   58.5193800    -0.0003738   -2.1024000   -50.9351200   93.8164000
 		     -72.4864500  -84.2890900   -62.9343400 -154.7209000   -51.0832300   90.0265300     0.0038786   -2.0977030
     639910000     0.0081692   -1.3924400   -53.0135900   82.7927200   -94.5055100    2.5188680   -69.5958800  -74.5416900 
 		     -50.1555800   91.2330100    -0.0000865   -1.2919750   -84.8697600   96.0863700   -82.2738600 -103.3875000
 		     -66.0232100  153.2063000   -62.7209300   96.5584600     0.0009634   -2.3945610   -49.0904800   91.5155700
 		     -78.7931700   68.5102000   -64.3094900  147.6772000   -49.8039400   86.8815100    -0.0002485   -2.3706910
     709900000     0.0017863   -1.5138870   -48.8067600   98.3834400   -71.7956600  109.4724000   -69.7039000 -172.1767000 
 		     -49.5556300  102.0457000    -0.0078837   -1.5546830   -84.4355500   58.1581100   -73.6611300 -151.0685000
 		     -66.9716300 -133.7349000   -68.3125400    3.4765350    -0.0071107   -2.6835890   -49.2580000   85.0659900
 		     -67.7821200 -174.3240000   -65.5661000   97.8714100   -49.2464000   87.1858300     0.0051115   -2.6392770
     779890000    -0.0022578   -1.6679090   -48.5648500   91.2088900   -68.2345100 -134.2573000   -78.3837000   62.4464100 
 		     -48.9275200   95.7428000    -0.0112192   -1.6576940   -73.1352300   69.3326000   -72.5501300  167.9645000
 		     -72.9162800 -157.1712000   -67.1611900  -75.6461000     0.0030023   -2.9745210   -48.1628000   87.3372000
 		     -72.4092500 -148.3282000   -69.9285200  128.0056000   -48.0704300   88.7119400    -0.0008745   -2.9791370
     849880000    -0.0032442   -1.7664690   -47.7937700   88.8031400   -80.0466200  165.0788000   -86.1727400 -170.4181000 
 		     -47.6706300   89.3676700    -0.0022762   -1.7678920   -80.3083000   52.0918200   -87.7060600  168.0276000
 		     -70.3704900  108.5432000   -72.3491200 -154.4736000    -0.0037266   -3.1891640   -47.3738900   86.5595600
 		     -71.1400400   82.3859900   -79.8121300  124.6190000   -47.6625700   88.2492600    -0.0021631   -3.1414180
     919870000    -0.0066334   -1.9499730   -47.4002300   89.4813900   -72.4994600   38.2293000   -69.0031400   62.9242700 
 		     -47.5468800   88.2620700     0.0024119   -1.9697680   -75.6936000   -6.4489880  -100.8401000    2.6957060
 		     -69.3263200 -135.0632000   -68.8111300  130.3631000    -0.0080450   -3.4417250   -46.9795100   86.8033500
 		     -78.7254900  -74.4447200   -79.1792100  150.9794000   -47.0668900   86.1651100    -0.0011596   -3.4137670
     989860000    -0.0011606   -2.0733010   -45.8445500   82.9655800   -68.3684400 -146.3304000   -85.3945100  106.6066000 
 		     -46.2715400   90.3110000    -0.0021387   -2.1374890   -77.7590200 -125.0815000   -70.0496100  -69.1020700
 		     -73.1680500 -126.8699000   -63.4353000  127.0302000    -0.0059843   -3.8065090   -46.1294800   86.8544100
 		     -79.4033200  -32.7987300   -72.7412000  150.5271000   -45.9949500   83.4136000    -0.0055421   -3.7606540
    1059850000    -0.0063913   -2.2436820   -45.7161800   89.3027800   -90.2542400   64.0300400   -82.7526200  -70.0853600 
 		     -45.5389800   90.8602400    -0.0078638   -2.2114120   -72.9733600  -11.8039200   -80.7629300  127.5552000
 		     -76.2626400    4.2491380   -72.4905000  -66.4858200    -0.0070171   -4.0375970   -45.5840700   87.0775000
 		     -73.5958600  -25.8646000   -89.9707600   24.0260600   -45.6187500   87.5544700    -0.0108642   -3.8862230
    1129840000    -0.0046537   -2.3189310   -45.7184200   88.0410800   -79.5591800 -138.6747000   -82.6739800   76.8766000 
 		     -45.2706700   87.3776400    -0.0054457   -2.3219160   -99.3330200  135.7915000   -78.6232100  141.4524000
 		     -84.4254400  161.9799000   -74.0133400   45.3145500    -0.0075399   -4.2087740   -44.9328200   87.3236000
 		     -73.4121900  112.1670000   -74.9019300   -1.1895150   -44.9578000   86.5797900    -0.0073776   -4.2023660
    1199830000    -0.0067911   -2.5307620   -44.7349500   89.4378400   -82.0052300  -84.0846600   -76.1594800   62.7612000 
 		     -44.5826000   86.9926700    -0.0124213   -2.4890500   -88.2992900   50.0072400   -75.0536500   46.8779000
 		     -77.9263000 -103.7858000   -75.9206500   92.2310400    -0.0089736   -4.5382970   -44.5884300   87.1249800
 		     -85.9208500   -7.9346960   -81.3039100  130.4957000   -44.4700100   86.1186400    -0.0067431   -4.5321980
    1269820000    -0.0079195   -2.6317510   -43.9962200   88.9488400   -76.5634300  -36.6270900   -76.6146700 -138.7258000 
 		     -44.2296400   89.2929900    -0.0155160   -2.6540780   -76.2106500 -179.6766000   -83.2340900  -60.9122300
 		     -80.3112900 -104.6121000   -80.2135800  163.7642000    -0.0100710   -4.7595330   -44.1373800   87.4033700
 		     -74.6833300  146.0051000   -71.0162500  114.8419000   -43.8914000   85.5140800    -0.0086966   -4.6997040
    1339810000    -0.0075803   -2.7983370   -44.3582500   88.6082700   -79.1789600 -115.5620000   -78.9114100  109.3268000 
 		     -43.8495500   88.6923900    -0.0093352   -2.7722920   -77.1801500  106.5872000   -88.5107300 -166.4053000
 		     -77.6125800 -140.1574000   -66.1123400  -69.4762000    -0.0092921   -4.9746870   -43.5808800   86.2499900
 		     -78.8861600  -64.5189300   -83.8596800   92.8463700   -43.2537100   85.5500600    -0.0088841   -4.9866690
    1409800000    -0.0166785   -2.9798720   -43.5802800   86.0396400   -77.2826800   51.9305700   -85.2529600  167.0827000 
 		     -43.3747300   87.7994000    -0.0117466   -2.9587940   -81.5691800 -176.2782000   -73.2707100  123.2536000
 		     -75.2063100  -74.6284900   -68.4324600    9.7931740    -0.0116877   -5.2781050   -43.0033500   85.4917900
 		     -82.0664900 -162.9974000   -71.0058300  -72.7773400   -43.1415900   85.1180600    -0.0085835   -5.3157450
    1479790000    -0.0100102   -3.1256120   -43.5546000   89.9726300   -71.8415700 -121.8801000   -78.8671100   62.2930600 
 		     -42.9872900   84.3916500    -0.0160349   -3.0754300   -69.1056500 -179.0599000   -68.9572600  170.3312000
 		     -68.3122400  -66.1307500   -64.3945800 -146.3895000    -0.0191447   -5.5914690   -41.9919900   86.5564700
 		     -68.4020300  -91.4953200   -64.5684700   38.3561300   -42.5328000   85.4640300    -0.0111479   -5.4968630
    1549780000    -0.0117845   -3.2223870   -41.7414700   88.3235400   -76.2760400  148.6551000   -76.4875500  144.2297000 
 		     -42.3779200   86.4498600    -0.0118260   -3.1870420   -84.9004500  114.4650000   -72.2902700   35.8711400
 		     -75.8218800   60.7077700   -67.9370300  117.4682000    -0.0177388   -5.7685740   -42.4655100   84.7374000
 		     -64.8752400  -87.9191200   -64.1853300 -113.4523000   -42.3877000   84.7176800    -0.0109867   -5.7846940
    1619770000    -0.0157647   -3.3440470   -42.1021800   85.5304000   -79.9701900  121.3670000   -79.8101100  -65.5005700 
 		     -42.3697500   85.1125000    -0.0108118   -3.3839120   -80.4541600 -142.8316000   -73.6715400 -113.6047000
 		     -69.1005200  -99.3658900   -68.2412400   81.0079900    -0.0147360   -6.0422460   -41.7102500   84.9269800
 		     -64.1106300  173.6793000   -65.0664700 -173.7847000   -41.7889000   86.0449600    -0.0150625   -6.0317090
    1689760000    -0.0166673   -3.5827280   -42.4711600   89.2859100   -72.1489900   97.6386800   -69.1434400  -30.4497800 
 		     -42.4186600   88.2239300    -0.0165228   -3.5025990   -76.4543600 -138.2110000   -78.8406800  113.1576000
 		     -65.6104700 -134.5352000   -65.0519600 -148.4431000    -0.0157091   -6.3422650   -41.7313300   82.2135100
 		     -65.0292100  143.8843000   -67.9515200 -164.9232000   -41.2198600   85.3060400    -0.0152848   -6.3369660
    1759750000    -0.0177552   -3.6556740   -41.6773500   88.4181400   -76.4682200 -118.8977000   -75.8394000  146.2484000 
 		     -41.4055300   87.8753200    -0.0172403   -3.6494860   -75.5486900  -32.4154700   -84.3361200 -145.6088000
 		     -68.7473000   84.0261800   -61.7675000 -177.7651000    -0.0207076   -6.5836880   -41.1112800   84.6562800
 		     -69.0481200  118.9469000   -68.1566700  171.1299000   -41.2709500   87.3827100    -0.0188748   -6.5244410
    1829740000    -0.0151131   -3.7721570   -40.9629200   86.5805700   -78.6485100  144.6378000   -80.9903900  117.6498000 
 		     -41.0271600   86.3873500    -0.0157488   -3.7653880   -81.9783100   30.3194400   -83.2277700 -120.4788000
 		     -66.6546000 -117.3664000   -73.2577800   20.9947200    -0.0215553   -6.7924400   -40.8204800   85.2938900
 		     -70.2798900   26.2839800   -69.1499200  172.1672000   -40.8715400   84.8849800    -0.0154249   -6.7927340
    1899730000    -0.0156480   -3.9636660   -40.5326800   86.6575200   -90.4155900  135.4254000   -75.4212300   20.1922000 
 		     -40.7781400   87.6640900    -0.0135341   -3.9068670   -79.2541200  144.8257000   -71.9055900  -26.7335300
 		     -81.4001800 -141.3741000   -71.1509600  153.3352000    -0.0219583   -7.0816360   -40.5966000   84.8812400
 		     -73.2850900 -125.7336000   -68.7797200 -170.2204000   -40.3611800   84.2059100    -0.0114886   -7.0830010
    1969720000    -0.0257699   -4.1754220   -40.4919900   85.0858800   -80.9226200   33.1649000   -69.4743300 -170.4643000 
 		     -40.6292100   87.1042800    -0.0177874   -4.0752280   -78.7007800   59.7173500   -75.6822000   34.0965200
 		     -86.1882500   59.0620700   -71.9071900   52.7965700    -0.0217840   -7.3903460   -40.3082100   84.5016800
 		     -80.3961100   34.5924900   -73.8568500   -7.0505700   -40.2044100   83.4859100    -0.0224605   -7.3522810
    2039710000    -0.0233171   -4.2554870   -40.1508900   85.5528400   -84.8627000   64.2318300   -73.0890700   52.3358900 
 		     -40.1362400   87.1716700    -0.0192570   -4.2030730   -83.0430800 -127.6258000   -77.5690200  119.7532000
 		     -70.7298100   74.5222100   -71.3325200  -47.0988700    -0.0246715   -7.6097170   -40.0531300   83.6140400
 		     -65.9698800  104.3987000   -76.3650600  -57.3591400   -40.2344200   83.1077800    -0.0175280   -7.5776640
    2109700000    -0.0284597   -4.3815970   -39.7755300   85.2879300   -84.6795700  -90.5217700   -71.3241900 -118.9376000 
 		     -39.8046000   87.1968700    -0.0226163   -4.3312440   -76.4842000 -123.2684000   -81.2235100 -149.5858000
 		     -70.8005400 -162.2672000   -67.5077600   30.8312800    -0.0235319   -7.8581760   -39.5256600   84.1003600
 		     -70.8919400   72.3261700   -68.2153800  -75.3491800   -39.7644000   83.9456300    -0.0199081   -7.8207890
    2179690000    -0.0160367   -4.5382420   -39.3182900   88.5426300   -82.2703700   61.3066900   -84.6579100  127.4993000 
 		     -39.3835500   86.2636100    -0.0144742   -4.5621030   -81.7680200  -88.7113300   -74.3298600  -66.7858400
 		     -75.2064800  118.9105000   -66.2691700   60.6771000    -0.0206785   -8.1535650   -39.5403300   83.2440500
 		     -68.1510800  130.4719000   -67.9857300   28.3582100   -39.2396100   83.4993300    -0.0192770   -8.1505990
    2249680000    -0.0300340   -4.7419590   -39.1838600   85.8110300   -73.1582300  151.9993000   -76.5972000  110.8359000 
 		     -39.3022700   87.8767700    -0.0253445   -4.6683950   -74.0052700   74.3589400   -78.0482400 -120.8322000
 		     -71.5955300  139.8406000   -67.4504500 -127.8525000    -0.0320624   -8.4822360   -39.1719100   83.5702700
 		     -64.9879000 -165.0876000   -73.3924400 -175.5810000   -39.1142500   84.0028700    -0.0263603   -8.3945380
    2319670000    -0.0331194   -4.8055570   -38.9175300   86.7826000   -77.6907800 -144.1670000   -79.3297600 -162.5832000 
 		     -38.8866000   83.8386600    -0.0175603   -4.7679020   -79.0017500  121.7974000   -74.7015200 -124.3926000
 		     -70.6521700   78.4266700   -62.6062100  -32.9045200    -0.0353544   -8.6558070   -38.7703600   81.9339200
 		     -69.5217200 -137.9359000   -68.3042800 -107.5375000   -38.9319200   83.3354900    -0.0264603   -8.5916230
    2389660000    -0.0242734   -5.0123190   -38.8039300   82.1011500   -73.4722300    4.1767680   -78.5183300 -101.5627000 
 		     -38.9360400   86.9106700    -0.0285066   -4.9954440   -69.8272000 -175.0347000   -87.7582200  130.6082000
 		     -70.3721300 -179.8695000   -73.2820900 -104.9784000    -0.0303846   -8.8828500   -38.6152600   82.3447800
 		     -67.9809700  -13.0143900   -66.5982400   14.3913500   -38.5224100   81.5234900    -0.0139244   -8.9282640
    2459650000    -0.0287023   -5.2994230   -38.1123400   86.1778400   -82.5164300  -99.1506100   -69.1937300  157.9223000 
 		     -38.3589600   84.0697700    -0.0314021   -5.2062230   -78.8792600   51.8031800   -81.2894400   -4.0074040
 		     -83.8909000  -46.0851000   -68.6573600 -126.2423000    -0.0321852   -9.2916960   -38.0778300   80.9603800
 		     -71.1396500 -149.2857000   -67.6156500 -124.7433000   -38.2063700   82.1009100    -0.0339615   -9.2864120
    2529640000    -0.0117443   -5.3861520   -37.7835200   86.2213700   -79.2124900   84.7968000   -70.0634800  -69.0121100 
 		     -38.0670500   85.7899800    -0.0069217   -5.3472020   -75.1771200   48.0888900   -79.1530800  -16.0375600
 		     -71.0105000  -85.7668900   -68.1174700   -5.5842850    -0.0255051   -9.4617370   -38.3562000   81.0140100
 		     -71.0184900  -76.0285000   -73.5829600   92.5549900   -38.0239900   82.6480200    -0.0253997   -9.4520590
    2599630000    -0.0174760   -5.4877960   -38.1072100   86.9142800   -79.6936900 -132.4130000   -90.1293900  106.2097000 
 		     -38.0773700   87.3346700    -0.0284433   -5.4472580   -96.6601300 -152.9857000   -76.5282600  -95.8717500
 		     -78.7191900  -36.1726200   -64.3194900  127.6395000    -0.0231238   -9.6848600   -37.7835000   82.1501300
 		     -69.5719800 -113.2395000   -65.1873300  -72.6126400   -37.8883200   81.8347800    -0.0218644   -9.7184130
    2669620000    -0.0121175   -5.5258940   -37.9388600   86.0487400   -83.8565900   66.3555400   -80.7961000   -1.3478140 
 		     -37.8245900   87.3848300    -0.0234189   -5.5092070   -72.4181900   88.6566800   -70.6658600  146.8412000
 		     -69.3945000  172.3829000   -72.0607100  -53.4392900    -0.0296209   -9.9383910   -37.4864800   82.2100700
 		     -66.3080700   12.2616900   -64.1500300   11.4340900   -37.6313800   81.5345900    -0.0250695   -9.9569900
    2739610000    -0.0203453   -5.5857500   -37.4318000   86.5400100   -71.9851200  137.1865000   -70.5989700   65.0440400 
 		     -37.6143900   83.8679700    -0.0262462   -5.5793700   -70.1754800  -84.0895700   -77.2975500 -105.0341000
 		     -67.8985100  168.8678000   -68.6474000  -83.0827700    -0.0209037  -10.1342600   -37.3926600   80.8081700
 		     -71.3372200  -76.7388300   -79.1423400   71.6751500   -37.4715600   81.8618500    -0.0283914  -10.1655000
    2809600000    -0.0290504   -5.8126220   -37.3248400   87.6291700   -76.2970300 -160.7690000   -70.0302800  104.2572000 
 		     -37.4550400   86.6782700    -0.0320467   -5.7418810   -73.0199300  114.3239000   -74.2681700   35.2222200
 		     -74.6157200  -50.5389600   -68.1805000 -113.7439000    -0.0360956  -10.3656000   -37.1704100   81.8190800
 		     -71.6117600  -13.6596900   -65.5939600  139.0556000   -37.3466500   80.7370800    -0.0346412  -10.4023400
    2879590000    -0.0255273   -5.8501120   -37.2674900   86.7942700   -74.1635200  -89.5728700   -78.1494400   83.3402400 
 		     -37.1049800   85.6041100    -0.0301870   -5.8686080   -68.5869000  -59.7191100   -71.5956400 -165.7768000
 		     -71.5271700  151.6714000   -71.1829800 -143.9138000    -0.0344956  -10.7026500   -36.9961700   81.9325400
 		     -78.8840800 -141.1881000   -74.5859000 -167.8386000   -37.1427100   81.9862200    -0.0337700  -10.7040300
    2949580000    -0.0282760   -6.0982820   -37.1521100   85.1669100   -76.9496500   98.0461000   -77.2973200  179.5313000 
 		     -36.8863400   86.0748400    -0.0290118   -6.0197560   -71.5169700  -59.8177800   -82.4773400  -71.3912800
 		     -67.1232900  -81.5221600   -77.4559000  165.4695000    -0.0239707  -10.8935100   -36.8717600   80.5253400
 		     -83.7283300   97.2476300   -72.0984600   62.8822800   -36.7650000   81.5531800    -0.0305752  -10.9582100
    3019570000    -0.0227613   -6.2515670   -36.6559400   85.0794400   -71.0230800  159.9148000   -88.4381700   69.1213000 
 		     -36.7889600   86.1592600    -0.0319372   -6.1712660   -73.8861900   82.3435900   -77.3646500  -52.0310400
 		     -73.6363600   39.3387200   -69.0557700  -69.0482300    -0.0349350  -11.2292600   -36.6927700   81.5318000
 		     -74.3533200  136.0068000   -67.0868200   37.5358500   -36.7097800   80.5689900    -0.0310212  -11.2358100
    3089560000    -0.0328091   -6.3280200   -36.3405700   85.6021700   -74.6815200   -7.5748630   -72.4189700   73.5764900 
 		     -36.5817700   85.4898500    -0.0369344   -6.3234160   -71.9644500   76.0040100   -82.4782200 -160.9778000
 		     -72.9020200  -98.3683800   -62.1553400  -47.2081000    -0.0378234  -11.4853500   -36.4250900   80.3334500
 		     -76.3488300  -18.9159200   -81.3272700   95.0671500   -36.3981400   80.5265000    -0.0324551  -11.4534800
    3159550000    -0.0339464   -6.5233390   -36.1281600   86.0235400   -67.7693200   31.6693000   -74.8700000  -23.6970000 
 		     -36.1550300   84.4525000    -0.0361833   -6.4412800   -76.8248700   15.8938300   -75.8738000  151.5904000
 		     -72.9886900  -91.4765400   -71.6583800 -110.6797000    -0.0338660  -11.6884900   -36.3709900   79.9264200
 		     -75.9361200  -11.7183500   -71.8280600  110.2103000   -36.1491000   80.3193100    -0.0418975  -11.7459200
    3229540000    -0.0360528   -6.5925480   -35.8939800   84.8193100   -78.5847900 -121.4476000   -73.5491100   51.3451400 
 		     -36.1298900   85.3690000    -0.0326573   -6.5824660   -77.2236600   59.6707900   -77.0398300   -1.5032030
 		     -71.1839600  -78.5276300   -72.5219900 -133.0155000    -0.0351811  -11.9162600   -36.1408400   79.9894200
 		     -71.6609700 -126.2403000   -72.8999300 -113.6859000   -36.0364600   79.4319200    -0.0320608  -11.9357100
    3299530000    -0.0416521   -6.7399130   -35.8556100   85.2094500   -71.5420100  -59.9571600   -78.1901700   99.8308600 
 		     -35.9707200   85.4291600    -0.0441310   -6.6733250   -80.5455200  108.0266000   -77.4409000   87.0594400
 		     -73.6983200  -16.2829000   -67.0956500  -32.6797800    -0.0394962  -12.1981500   -35.9890100   79.5618700
 		     -77.6839800  -52.6294100   -74.5980900   76.9267000   -35.9999200   79.6069200    -0.0470103  -12.2082900
    3369520000    -0.0340774   -6.8608480   -35.8831400   84.8665500   -81.3293100  -72.8964800   -75.5148400  148.2541000 
 		     -35.9421800   85.3571500    -0.0420849   -6.8446310   -82.0663400  107.8295000   -79.2270700   98.1367100
 		     -72.1392100  -99.2566500   -63.4063900    4.9306650    -0.0461892  -12.4304300   -35.7864600   79.7083800
 		     -72.4743500   43.7594300   -78.1116900  -43.6082500   -35.7934600   79.9876600    -0.0468392  -12.4558900
    3439510000    -0.0361925   -7.0615220   -35.7076100   84.5737500   -80.9569100  141.3555000   -75.2935300  -56.6649600 
 		     -35.6881300   85.7831600    -0.0414917   -7.0142350   -78.5333700 -119.5676000   -77.4646600  110.6964000
 		     -80.6456400   16.5113500   -69.5937000   37.5547600    -0.0410837  -12.6955500   -35.6827400   79.3904400
 		     -73.5050800  154.3855000   -75.1869900  -41.0847900   -35.6958000   79.1093800    -0.0585189  -12.7461900
    3509500000    -0.0383183   -7.1692130   -35.3524100   84.9093600   -87.7031100  -30.8661700   -89.7000500   49.8395800 
 		     -35.4368200   84.2162700    -0.0427549   -7.1194220   -68.3407700 -138.1698000   -69.1556600   35.7272600
 		     -73.6216300   44.8655200   -78.9058500  -72.4270300    -0.0461947  -12.9262500   -35.4349500   79.7687800
 		     -74.5174300  -76.1999400   -74.4484400   13.3757300   -35.4071300   79.3452100    -0.0464982  -12.9294500
    3579490000    -0.0452990   -7.2819940   -35.2760400   84.8743200   -78.9164400   -3.9970720   -75.2286200 -178.5851000 
 		     -35.2731700   84.8743700    -0.0402280   -7.3179140   -75.4836000 -125.9168000   -69.2320200   -7.1306230
 		     -72.1377100   23.4430900   -62.4187800  153.5547000    -0.0509231  -13.2144200   -35.4023500   79.1149700
 		     -80.8748900   97.0943900   -74.5032200  139.8359000   -35.4207200   78.6976400    -0.0431761  -13.1995300
    3649480000    -0.0508194   -7.4699540   -34.9436900   84.3189000   -79.9739400   55.8120700   -68.1498800  170.4382000 
 		     -35.2803100   84.4507500    -0.0486995   -7.4196390   -83.4363600 -157.9490000   -84.7720300 -130.3526000
 		     -72.5768300 -126.1703000   -66.7936800 -119.1000000    -0.0450320  -13.4032500   -35.1041100   79.3302200
 		     -76.1330800   30.4178500   -75.2080400   60.4345100   -35.1524600   79.2409000    -0.0428723  -13.4556100
    3719470000    -0.0657795   -7.5769580   -34.9330400   85.9275600   -79.1734000  -26.9002100   -72.5768900  -12.7423900 
 		     -34.9163300   85.3880200    -0.0629075   -7.4521060   -84.1928000 -121.1763000   -71.8343300 -160.5070000
 		     -73.0365900  -38.3602000   -63.8550400 -122.0040000    -0.0500892  -13.7326000   -34.9000700   77.7319700
 		     -72.4133600   14.4393800   -86.8350500   -4.5294910   -35.0065300   78.5205100    -0.0477488  -13.7185600
    3789460000    -0.0560803   -7.5498040   -34.6539900   84.2704100   -71.8407200  149.0880000   -80.8359100  -24.8116900 
 		     -34.8941900   83.1681600    -0.0651667   -7.5116080   -87.0804700   63.3694900   -76.5872700  -87.0132000
 		     -79.4411200 -157.7635000   -67.2232100    6.3501700    -0.0502555  -13.9934500   -34.9387700   78.5620800
 		     -74.7563800  -25.9405900   -66.4012400 -115.9688000   -34.8936900   77.4116500    -0.0571548  -13.9638300
    3859450000    -0.0412912   -7.6332290   -34.7571800   84.1017600   -85.4715300  -25.1222000   -80.6358800  -96.9325300 
 		     -34.6197000   83.0112000    -0.0363311   -7.5801310   -66.6088900  -11.2846700   -69.7079400  150.6754000
 		     -71.6729200  -11.4356800   -70.2858400   32.8178700    -0.0423134  -14.2115600   -34.8468100   78.4410700
 		     -73.4540800 -153.1553000   -66.7200000   41.3379700   -34.7009300   77.7409900    -0.0445005  -14.1924900
    3929440000    -0.0301286   -7.9474970   -34.3749800   83.2340500   -68.8320600  -74.3146800   -73.3581400   82.5298500 
 		     -34.5484000   84.2143900    -0.0352521   -7.8763690   -74.8106800  149.8307000   -77.7160200   57.1918800
 		     -78.7383700  100.4276000   -86.0118100   46.4978100    -0.0549587  -14.4957200   -34.6004600   77.5709800
 		     -71.2606500  -87.7278400   -69.6271600  127.1793000   -34.5447200   77.8678400    -0.0600213  -14.4906100
    3999430000    -0.0362026   -8.1454440   -34.3461200   82.5341900   -76.0248200   18.7517100   -73.5524200 -120.4038000 
 		     -34.3897600   83.7408800    -0.0410239   -8.0712040   -89.3120400 -114.8414000   -71.4628500   29.6590300
 		     -71.7803800 -156.1872000   -68.7385700 -111.3591000    -0.0439299  -14.6917600   -34.5048900   77.9965700
 		     -85.5969800   37.6665500   -70.3395400  111.5426000   -34.4978900   77.1298200    -0.0395660  -14.6917400
    4069420000    -0.0417985   -8.2722730   -34.2081900   84.2390100   -69.7068300   77.3947100   -71.1035700   82.6383700 
 		     -34.2697700   83.2353200    -0.0390966   -8.2284720   -70.1723800  157.9637000   -79.3972600  159.4331000
 		     -70.4985900   59.3164300   -75.7979600 -103.2594000    -0.0536932  -14.9709400   -34.3831000   77.6609800
 		     -65.4305400  132.2360000   -70.0961200  -54.8427700   -34.3535800   77.2079600    -0.0590495  -15.0402000
    4139410000    -0.0421848   -8.4141750   -33.8995900   82.8066300   -68.6818900   67.4646100   -83.6368600 -139.7609000 
 		     -34.2023100   84.5596700    -0.0493611   -8.3504490   -73.6346100  -37.2089900   -75.6838900  -10.9776200
 		     -74.5735300 -165.5612000   -70.9983500  -57.8957000    -0.0608402  -15.2259600   -34.2073100   77.5172300
 		     -91.4303500   81.8475300   -69.4660600   71.8613300   -34.3637400   77.0260200    -0.0566887  -15.1473100
    4209400000    -0.0481660   -8.5944830   -33.8910600   83.2275500   -76.4097500   52.2645100   -87.6230500   26.3706700 
 		     -33.7511200   83.2404600    -0.0474102   -8.4934360   -82.8444200  177.6453000   -77.6464400  122.2318000
 		     -75.3692800  130.4261000   -65.3747900  -76.0951700    -0.0670504  -15.4578400   -34.1791000   77.1826700
 		     -81.7770100   -8.8561710   -68.6345100  147.0039000   -34.0512400   76.9656200    -0.0632129  -15.5337500
    4279390000    -0.0485430   -8.6962750   -33.7720200   83.5064000   -79.9821400  161.8853000   -76.4370900   -2.0198310 
 		     -33.7605000   83.0024300    -0.0518952   -8.6907380   -69.7727800   31.3642000   -71.2363900 -130.3089000
 		     -69.2058900  179.8774000   -62.8022400  134.6870000    -0.0626863  -15.7343000   -34.0840000   76.9344700
 		     -64.6029400   96.3296700   -72.4966000    1.2636420   -34.0111800   76.6598800    -0.0616536  -15.8414500
    4349380000    -0.0510226   -8.8213010   -33.7399300   82.9609200   -75.2879900   -6.6882740   -70.7823800  177.7181000 
 		     -33.6733200   82.2446400    -0.0593292   -8.7227040   -66.0685100   74.1953700   -71.2152200 -140.1324000
 		     -73.8710900  115.9390000   -67.7111400  -88.6371500    -0.0584045  -15.9387600   -33.8633300   76.7278700
 		     -71.6799900  115.6608000   -65.3695800   10.6364200   -33.7658500   75.7395200    -0.0576437  -16.0367500
    4419370000    -0.0630327   -8.9866180   -33.5179900   83.4196100   -73.9414100  -22.3623200   -76.0397000  -13.0182800 
 		     -33.3744500   83.5349400    -0.0588243   -8.9318450   -74.0986500   12.8732200   -71.3823500   13.9397100
 		     -71.2640000  102.9525000   -70.0028800  139.2974000    -0.0666477  -16.2611000   -33.7377400   75.7649700
 		     -82.8462400  -47.2763900   -64.2328600   46.9921700   -33.7165100   76.4235500    -0.0666516  -16.3213500
    4489360000    -0.0574465   -9.0845330   -33.3653000   82.9341000   -82.4650400 -157.1611000   -75.1058300  105.2159000 
 		     -33.2500600   83.3123900    -0.0588351   -9.0750360   -81.9489700   43.2238000   -86.5899500  134.2467000
 		     -85.2589800   14.2436800   -64.3590500  -24.0251300    -0.0684566  -16.4852700   -33.6630900   75.7460500
 		     -74.5269300   39.5629700   -65.8143000  -89.5986300   -33.5429100   75.7515800    -0.0648096  -16.4605300
    4559350000    -0.0526183   -9.2268510   -33.2437100   82.7741900   -73.6446500 -153.3110000   -73.9438000  -27.3656900 
 		     -33.2300000   83.2746400    -0.0609297   -9.1377980   -78.1087200  -70.6170300   -70.6337100  133.8041000
 		     -68.3667100  119.4280000   -66.1970100 -125.1315000    -0.0753906  -16.7057400   -33.5612400   75.2478600
 		     -67.3045700   -2.9689760   -70.0973300  164.8372000   -33.5246400   75.4351300    -0.0748144  -16.7858800
    4629340000    -0.0646609   -9.3721500   -33.0877300   83.1682400   -73.6041600  171.3098000   -83.9370300  -78.4014500 
 		     -33.2479900   82.9116000    -0.0587963   -9.3311540   -80.5754000  -44.4556400   -76.6334700   -7.8068280
 		     -67.5818100  148.6037000   -70.3815200  -52.2505000    -0.0733382  -16.9527200   -33.3201300   75.3309100
 		     -66.5081300 -134.4458000   -72.5512900  154.1521000   -33.3332300   75.8275900    -0.0683272  -16.9403000
    4699330000    -0.0623956   -9.4963320   -33.0470800   82.9377400   -83.2350500  -29.4278100   -69.0920900   93.8812600 
 		     -33.0765700   82.1800400    -0.0601039   -9.4426450   -79.5735600  121.8194000   -82.2521700  -90.8541600
 		     -81.9948700  -13.5284300   -70.8931400   83.8021600    -0.0780214  -17.2375400   -33.2955600   74.9309800
 		     -70.3882800  -77.1378600   -68.0463000   95.2538500   -33.2704900   75.7410400    -0.0683243  -17.2666400
    4769320000    -0.0688429   -9.6380360   -32.8436700   81.3283500   -74.0704000 -103.0058000   -71.4286700   33.5643800 
 		     -32.8761900   82.3997000    -0.0642999   -9.5757140   -77.4568500 -163.8493000   -70.5585700   20.2686800
 		     -64.7483100  -60.4413100   -68.9323000   72.0658100    -0.0762009  -17.5556700   -33.2230000   74.8018300
 		     -61.1479400  -19.3770400   -62.0796200  -66.5350400   -33.2222400   74.0197500    -0.0803793  -17.5357600
    4839310000    -0.0632392   -9.7479670   -32.8715600   82.5044900   -70.7859000   70.5475400   -72.8009600   24.4069600 
 		     -32.8024100   83.3431900    -0.0543104   -9.7707090   -72.5957500   68.2219600   -69.9197400   14.1210600
 		     -70.7729300  -11.2477100   -67.9308500 -110.3899000    -0.0754868  -17.7802700   -33.1217200   74.5217200
 		     -91.0177000  -38.6359500   -76.7804300   39.4266400   -33.0949800   74.9738500    -0.0800568  -17.7280100
    4909300000    -0.0667074   -9.9375680   -32.6740900   83.3539400   -70.0555600  115.4219000   -75.1132400   43.5916500 
 		     -32.6938300   82.7058900    -0.0759222   -9.8462270   -74.8307500   58.9918900   -77.1103700  -17.0682300
 		     -67.8829300  118.4803000   -66.3871400   12.3799600    -0.0763229  -18.0113500   -32.9658700   75.3531300
 		     -68.8407900   19.3155800   -75.2666100 -173.9315000   -33.0399100   75.0028500    -0.0726349  -18.0086700
    4979290000    -0.0715881   -9.9997790   -32.4897700   82.0351500   -70.9925600   83.7336300   -69.8025100   64.8190700 
 		     -32.5496700   82.2492600    -0.0683198   -9.9891720   -73.8794500 -169.7099000   -72.0949400   -3.8741700
 		     -69.7503300  133.2984000   -67.8340300   93.5165600    -0.0763930  -18.3045300   -32.8879200   74.7134800
 		     -81.8235100 -114.1571000   -81.8466900  131.0391000   -32.8541000   73.7275400    -0.0824450  -18.2398000
    5049280000    -0.0710053  -10.2016300   -32.3220500   83.5118600   -80.7577100 -106.9743000   -67.4689800 -176.4319000 
 		     -32.3459300   82.9536700    -0.0598176  -10.1159100   -76.0434000   27.4650100   -77.4759700   78.5911500
 		     -70.5140100  103.4674000   -68.0582700  103.3831000    -0.0802266  -18.5943100   -32.5914500   73.9210100
 		     -72.5626100  171.9728000   -62.6177000  160.8909000   -32.7106100   74.2392000    -0.0767096  -18.4654600
    5119270000    -0.0761406  -10.3913500   -32.1165500   82.1397200   -74.8036300 -125.6574000   -72.5467600  -67.4907200 
 		     -32.1500100   82.5474900    -0.0588868  -10.2228000   -81.1506200   82.6940800   -71.4989300   -1.9197170
 		     -66.1247900 -162.5922000   -66.1058700 -145.7792000    -0.0787265  -18.8304500   -32.7205500   74.7156400
 		     -76.5043500  -46.3902200   -64.5079000  -20.1760900   -32.7331600   74.5424700    -0.0759040  -18.7988900
    5189260000    -0.0701094  -10.4906000   -32.0997400   81.6769100   -91.7658200  -72.5917300   -78.1344700 -134.6998000 
 		     -32.2542500   82.1490400    -0.0766548  -10.4038700   -73.3900700   35.6844700   -80.5104100   81.6804900
 		     -70.7224000   -1.2105310   -63.3590100 -137.5295000    -0.0883211  -19.1025000   -32.7216200   73.8233300
 		     -76.3360400  -26.0247500   -81.7524900 -106.2484000   -32.6629100   73.2983500    -0.0850790  -19.0530200
    5259250000    -0.0686330  -10.6277000   -32.1932500   82.4613300   -75.6425800 -124.7615000   -79.0426000  -59.7220000 
 		     -32.0225400   82.0583700    -0.0801343  -10.6059200   -71.8045800  116.8843000   -76.1338400   98.2570400
 		     -67.5457800  105.4117000   -69.9443600  -36.0587100    -0.0916830  -19.3043400   -32.5329200   73.8969100
 		     -73.4074900  171.7881000   -69.4253600 -167.9251000   -32.4111900   73.8764800    -0.0783443  -19.3172100
    5329240000    -0.0788873  -10.7562400   -31.7738200   82.1587800   -78.6931800 -145.3220000   -73.2823900  -49.6920700 
 		     -32.0563200   81.6815200    -0.0796257  -10.6945800   -76.4163400 -173.3937000   -82.1096000  146.0787000
 		     -98.3852700 -113.5313000   -64.5597200 -108.0194000    -0.0843695  -19.5210200   -32.5171800   73.5677200
 		     -79.3578600  -46.1548800   -63.5464100  120.6551000   -32.4036900   73.7153000    -0.0853802  -19.6149900
    5399230000    -0.0814946  -10.9058800   -31.8537400   81.7448500   -78.3207300 -147.8424000   -73.2735100 -158.5642000 
 		     -31.8160100   81.1835700    -0.0735141  -10.7490800   -75.5277900  -62.9366200   -72.0650500  176.4107000
 		     -74.8422000 -154.9158000   -71.9306900   70.8302400    -0.0929702  -19.8146700   -32.3759400   72.7140100
 		     -73.9821900   28.3250500   -67.9362900 -131.2315000   -32.3864300   73.0426900    -0.0905569  -19.7478300
    5469220000    -0.0774206  -10.9964000   -31.7399700   81.1305400   -67.8876000 -103.8516000   -78.9862700  153.4978000 
 		     -31.6357800   82.2992000    -0.0844006  -10.9755500   -67.9351600   92.1810200   -69.0476200  132.5475000
 		     -73.0658100 -140.0274000   -84.7398500  -35.6496200    -0.0925579  -20.0899500   -32.0990300   73.0359700
 		     -70.8603500  166.4148000   -63.8263900  105.7620000   -32.0877800   72.5817000    -0.0764723  -20.0441700
    5539210000    -0.0808112  -11.1068100   -31.7275000   80.6846500   -71.2581200   49.9082600   -70.8649400  150.0145000 
 		     -31.5241300   81.3400700    -0.0705490  -11.1109400   -72.1192300   10.1403500   -72.6150300  157.1781000
 		     -71.3232000   59.3150400   -71.0197000   34.5569200    -0.0827666  -20.3103400   -32.1367300   73.1909300
 		     -71.2614000  -36.9615900   -64.5817100  133.2711000   -32.1366300   73.7450600    -0.0928523  -20.3236000
    5609200000    -0.0754280  -11.3360000   -31.4048700   81.1809300   -71.0365700  -21.0220300   -78.0103100  -47.5425100 
 		     -31.4509400   81.1900300    -0.0738137  -11.2549400   -84.4992800  -65.6364400   -70.7506600   -2.6826570
 		     -74.0787200  135.0348000   -66.6358300  120.0142000    -0.0863434  -20.5805300   -32.1398100   72.8231400
 		     -69.5156900    9.9524500   -76.5311300   89.6739900   -32.0530700   72.0794800    -0.0978634  -20.5521500
    5679190000    -0.0779576  -11.3289400   -31.4533800   82.0266600   -68.0365100  -46.6466800   -75.7648500   19.1112500 
 		     -31.3795700   81.6506700    -0.0845326  -11.3132400   -76.1411300   45.8971700   -70.8618600  -51.6422500
 		     -63.0010600  -34.8614000   -62.2894300   53.6887900    -0.0903967  -20.7498800   -32.0143800   72.8601200
 		     -66.1419700  -24.6392100   -64.2174500   50.9607000   -32.0380500   73.2414100    -0.0965528  -20.7589900
    5749180000    -0.0827402  -11.5303400   -31.1857000   79.8774000   -76.7340900   67.3253700   -68.9352400  153.3338000 
 		     -31.1574700   80.9230300    -0.0907824  -11.4368200   -83.7420800 -136.1809000   -78.9947600  145.1626000
 		     -71.4624200   85.2019800   -71.5722000 -166.8475000    -0.1033436  -21.0167600   -32.0619800   71.8146400
 		     -74.1394000   91.8734700   -64.8719900  133.4461000   -31.8629200   73.0839700    -0.0907469  -21.0759700
    5819170000    -0.0872796  -11.6696000   -31.2398200   79.6435100   -78.3737900  102.4828000   -67.9165200   85.0054200 
 		     -31.1717400   80.7796600    -0.0848781  -11.6359900   -92.7205700  178.9564000   -80.4750800  -82.4979700
 		     -70.7364500   50.8943200   -69.5394600  165.0807000    -0.0988966  -21.2788400   -31.9842500   71.7551400
 		     -68.1387400   24.5557800   -70.2820200 -103.2925000   -32.0074300   71.6556500    -0.1008202  -21.3545500
    5889160000    -0.0934463  -11.8186500   -31.2753100   80.1543700   -76.1091900  145.0144000   -81.0913500  -14.9180300 
 		     -31.1167000   80.5743300    -0.0830505  -11.7595200   -78.5352500   58.4957100   -74.0353000 -167.2807000
 		     -84.5424700  160.0594000   -66.9716000   87.2099900    -0.1013766  -21.5467500   -31.8600100   71.3667900
 		     -72.2112400  143.9804000   -74.1063800 -106.8310000   -31.7966000   71.7736200    -0.1004604  -21.6110500
    5959150000    -0.0922695  -11.9140000   -30.8643200   80.8665200   -68.0567200  -91.0767500   -77.6344500  -85.7057400 
 		     -30.9106400   80.4939200    -0.0922613  -11.8800400   -73.8841700  -67.0548300   -92.9040500 -133.2419000
 		     -68.4154700  -57.0710700   -71.1142300  130.9935000    -0.0915326  -21.8308500   -31.6350600   71.5331300
 		     -67.4136200   11.7683800   -76.2002300   56.7239900   -31.6804500   71.9375800    -0.1034979  -21.8532100
    6029140000    -0.0940922  -12.0876500   -30.8217400   80.0578800   -76.8855100   28.6484900   -73.4608400  -21.7485600 
 		     -30.8676900   80.3306400    -0.0897783  -12.0018700   -69.3707500  175.8447000   -72.1036200   31.9781300
 		     -78.2387700  170.7858000   -61.4495500 -128.6977000    -0.0945488  -22.0433400   -31.6497000   71.4867200
 		     -77.2437500   95.7547800   -72.9994000  -82.3246500   -31.6629200   71.4118700    -0.1029444  -22.0816700
    6099130000    -0.0973911  -12.2322500   -30.9434900   79.6119900   -73.5364700  118.1047000   -73.1555900   82.4836900 
 		     -30.7547600   80.7099400    -0.0917533  -12.1602100   -72.2198000  171.4851000   -71.6223000  154.2763000
 		     -75.5492700  144.3557000   -66.3038000  141.0333000    -0.1054684  -22.2769100   -31.5020100   71.3334900
 		     -71.1468600    3.0419400   -69.9443100   83.9986400   -31.6325400   71.2412300    -0.1065206  -22.2905000
    6169120000    -0.0968654  -12.3556800   -30.8270300   79.9534500   -68.9692200   74.4849000   -76.7503600 -146.0923000 
 		     -30.7212300   79.9114200    -0.0890469  -12.2539500   -69.7754100    9.6412680   -76.0348400 -167.5247000
 		     -77.5693400  -47.4559000   -70.3394000   48.0077100    -0.1009558  -22.5835800   -31.4985000   71.5952300
 		     -69.2902300   73.5385600   -60.5170000   45.0630900   -31.6076900   70.3017900    -0.1042294  -22.6359800
    6239110000    -0.0934955  -12.4728300   -30.7197500   79.6041900   -81.0553100  176.7946000   -72.0140700  -68.9393200 
 		     -30.5413700   79.8581600    -0.0914832  -12.4175600   -84.4575800 -127.2215000   -67.6665600   92.9286800
 		     -71.8264900  -85.0272100   -66.6484100  -42.4301800    -0.0985015  -22.8658700   -31.5229000   70.8432000
 		     -78.2063900  140.4211000   -71.1602600   77.2282600   -31.4945200   70.2365600    -0.1057837  -22.7880000
    6309100000    -0.0932696  -12.6744600   -30.6604000   79.9551900   -76.8905000   38.1363600   -78.0195000 -111.0947000 
 		     -30.5471300   80.0615500    -0.1032177  -12.5518300   -76.4827900  -36.7250300   -72.7899100   88.4138200
 		     -67.7851000   44.6925200   -68.8545900   81.4395800    -0.1039375  -23.0499400   -31.4308500   70.4395400
 		     -69.2499800   25.5736300   -65.2895100 -168.1237000   -31.3330400   70.0456100    -0.1027401  -23.0805500
    6379090000    -0.0959472  -12.7555900   -30.4811200   80.8212800   -77.7854600 -127.5866000   -80.1842400  -12.3056900 
 		     -30.4967300   79.9723700    -0.0976418  -12.7158200   -84.7259600  152.6906000   -77.1335800  -25.9900300
 		     -68.0051300  127.3670000   -67.9785900 -158.5622000    -0.1033975  -23.3558500   -31.2647900   70.2401400
 		     -73.1822800  142.8605000   -76.4192700  102.7744000   -31.3134700   70.5300200    -0.1144961  -23.2816200
    6449080000    -0.1034478  -12.9348400   -30.4100700   80.5328200   -79.1988200  142.1273000   -77.6134600 -122.5646000 
 		     -30.3891800   80.0621500    -0.0924456  -12.9277700   -84.8122000  -98.5209700   -70.1199000   93.8414800
 		     -82.2110900  111.4511000   -80.6370100   -1.6799700    -0.1024854  -23.5218200   -31.3853400   69.8440700
 		     -82.1653100    3.0999640   -65.7432300  111.1703000   -31.2606700   69.6976700    -0.1113401  -23.5394100
    6519070000    -0.0991546  -13.0231500   -30.4194500   78.8940200   -68.8179100   54.0170800   -75.9359800 -153.1619000 
 		     -30.4004400   78.8412200    -0.1011121  -12.9694900   -73.3601000   26.4168100   -75.0531800  174.3710000
 		     -79.9099200  -14.2461800   -66.0053300 -100.1877000    -0.1047648  -23.7786600   -31.1876600   70.1017600
 		     -73.6328200 -134.6782000   -73.9227800   68.8873500   -31.1996800   69.7268000    -0.1137451  -23.8151500
    6589060000    -0.1011389  -13.1938800   -30.2737200   79.2351800   -83.6070600 -138.9172000   -71.3588600  129.3797000 
 		     -30.2854000   79.6036700    -0.0966960  -13.1132700   -75.1454200  -64.8519400   -70.2166000  -91.7300300
 		     -68.6882900 -101.3261000   -71.9614900   53.6655500    -0.1101016  -24.0929200   -31.2605500   69.6847600
 		     -68.1907500  -22.4588700   -67.1340000  -50.2852900   -31.1755600   69.4623200    -0.1187506  -24.0522100
    6659050000    -0.1040295  -13.3093700   -30.2564800   79.6900200   -83.4885900   62.1939100   -70.5057100   11.6641000 
 		     -30.0904900   79.2889400    -0.1089282  -13.1954200   -73.6640100   50.0530500   -71.6474000   76.1751300
 		     -85.9091100 -177.3493000   -69.0910400    7.9018880    -0.1189664  -24.3151800   -31.1724600   69.3509000
 		     -69.3494200 -135.8911000   -64.3600800 -119.9945000   -31.1578800   68.9248000    -0.1212574  -24.3205700
    6729040000    -0.1056675  -13.4466500   -30.0764500   79.5006800   -70.9951700   66.9249100   -72.6537000  -80.0100100 
 		     -30.0284800   79.4635300    -0.1030544  -13.3771400   -90.3869500   -3.5976980   -79.7749600   38.9893200
 		     -86.6395500   46.0627100   -66.8606700 -112.2431000    -0.1185029  -24.5603200   -31.0243300   69.3428300
 		     -69.4294800  136.5145000   -69.8971200    5.8390180   -31.0618000   70.2330800    -0.1253445  -24.6321700
    6799030000    -0.1023621  -13.5536500   -29.9025900   79.1143400   -88.4236500 -129.3539000   -77.0305700  -46.6908000 
 		     -29.9868900   78.8710200    -0.1032190  -13.4601100   -74.6371800   -6.1318540   -73.0168500   75.8262300
 		     -68.2418400 -179.5902000   -70.5310100 -173.3490000    -0.1154262  -24.8639900   -31.0967100   68.7983500
 		     -69.4229400   -6.4908810   -65.5563600   30.5785800   -31.0992900   69.2893800    -0.1166130  -24.8442700
    6869020000    -0.1103626  -13.6826400   -29.8043700   79.3293200   -73.4455500   -3.3000670   -69.3577000 -125.1385000 
 		     -29.9408800   79.4091100    -0.1136098  -13.6726800   -71.0269100   95.4551000   -71.7772200   99.8034000
 		     -76.5626200  -77.9973100   -77.3949200 -135.4123000    -0.1296646  -25.1218100   -31.0295900   68.8256300
 		     -82.7147300   53.5705500   -70.4133000  101.1300000   -30.9672100   69.2189000    -0.1297022  -25.0919200
    6939010000    -0.1007354  -13.8073900   -29.8662000   78.9113500   -68.7060100  -56.0925800   -81.1043500  -18.7893300 
 		     -29.7787100   78.8903700    -0.1112251  -13.7400300   -75.2593200 -162.7589000   -81.5478100  -10.6159400
 		     -75.8997300  149.5774000   -72.0135500   76.3768500    -0.1142463  -25.3695000   -30.9291200   68.5727200
 		     -72.9303900  -16.7062700   -68.0702400  110.5541000   -30.9541800   68.3404600    -0.1258492  -25.3670000
    7009000000    -0.1140247  -13.9403300   -29.7766300   78.7543100   -77.2709000 -132.4823000   -71.8894300  -67.2259800 
 		     -29.7708000   78.2759000    -0.1083475  -13.8610800   -71.6832800   66.2059600   -85.6358300   80.0334100
 		     -76.0881000  159.5001000   -74.0456300 -172.8602000    -0.1222802  -25.5935800   -30.8513300   68.5677100
 		     -70.7387200  -70.1868100   -80.1973400  -15.7079000   -30.9277400   69.2356200    -0.1288093  -25.5823900
    7078990000    -0.1117943  -14.0705000   -29.7789900   79.3838300   -70.6084200   39.0069800   -90.4325400  -28.7072800 
 		     -29.8427000   78.7796800    -0.1026499  -13.9321100   -74.7683300  103.8489000   -71.3507100   -4.8856490
 		     -71.6707900   -0.5281050   -67.3178200  -31.6829200    -0.1233059  -25.8372900   -30.7812400   68.5199100
 		     -63.2932700    5.6175190   -70.3150100  -45.4095300   -30.7122800   68.8832000    -0.1237755  -25.8750700
    7148980000    -0.1101367  -14.2130300   -29.4128400   79.3832500   -68.5703700   70.4326600   -79.8559600  -70.1963600 
 		     -29.5248200   78.3193900    -0.1101122  -14.2178400   -69.8820200  -74.6365700   -69.1418000   31.5915100
 		     -65.9801600  -14.7139900   -64.3813900   44.4229200    -0.1299257  -26.1098100   -30.7588600   67.8634600
 		     -74.4257200  156.8478000   -74.6079700 -147.4904000   -30.8318700   67.9836600    -0.1303060  -26.1027500
    7218970000    -0.1149583  -14.3741500   -29.3958600   78.6799100   -69.6916400   54.9353600   -83.3267300 -146.4201000 
 		     -29.5396100   78.7841700    -0.1105190  -14.2510000   -75.2495900   11.7650400   -72.1583000  -96.6230200
 		     -71.1980600  -32.8969300   -71.0182900   62.6322400    -0.1278815  -26.4022900   -30.7387200   67.5528600
 		     -84.1761500 -150.3755000   -68.0304800   56.0083700   -30.7398800   67.5808200    -0.1316682  -26.3470000
    7288960000    -0.1155583  -14.4734700   -29.5614100   78.2836500   -77.6148100   27.1790100   -68.1504400   43.2225400 
 		     -29.5383300   77.9359300    -0.1204301  -14.4768700   -68.3504000   50.0744100   -82.1883200  166.2638000
 		     -72.6490800  -37.0949900   -77.2695700  -43.2996100    -0.1344735  -26.5712900   -30.5844700   68.1204100
 		     -82.0128600  -17.9561600   -69.6654500   57.3247800   -30.6530500   67.5621300    -0.1355903  -26.5957100
    7358950000    -0.1116429  -14.6544200   -29.4528900   77.9251600   -76.7471600 -105.8970000   -73.2448300  -80.7601900 
 		     -29.3848100   78.2060000    -0.1163179  -14.5175200   -75.0172300   71.2305200   -75.4426300  -48.3838100
 		     -69.1305200 -109.8239000   -79.9988400   17.2652800    -0.1275832  -26.8554100   -30.7741700   67.8892600
 		     -68.1095700   26.1951400   -68.5872200   -3.7585230   -30.6391300   67.4150900    -0.1388767  -26.8373800
    7428940000    -0.1273648  -14.7673100   -29.3526400   78.3356400   -74.9556300   60.4582300   -77.7008800 -176.0064000 
 		     -29.3663300   77.9401200    -0.1194642  -14.7434000   -70.1417400 -151.1568000   -76.9289600  -69.8484000
 		     -65.1855900  -45.7900800   -68.4534300 -112.5914000    -0.1395083  -27.0765600   -30.7297700   67.1968300
 		     -78.2174100    7.0132050   -74.3426200  -63.9378400   -30.5912900   67.0844200    -0.1380613  -27.0805000
    7498930000    -0.1193319  -14.9181000   -29.2588000   77.5314000   -72.2055500   29.6130200   -71.4034700 -102.3731000 
 		     -29.2670200   77.3655900    -0.1240141  -14.8232300   -97.7018300 -151.9319000   -73.3003900  -24.0573300
 		     -72.6666400   95.2883900   -72.6063500  -34.4787500    -0.1369603  -27.3377800   -30.6506300   67.2561000
 		     -67.4525900   36.6366900   -68.5973000  -28.0366200   -30.5436000   66.6812800    -0.1432322  -27.3748200
    7568920000    -0.1264576  -15.0963300   -29.0558300   77.3676500   -71.8953800   41.9833800   -86.0721500  -58.4775000 
 		     -29.1495300   77.6403400    -0.1211993  -15.0038100   -76.4161800 -161.5957000   -70.6329000  114.9731000
 		     -72.4606900   70.1568800   -67.0310700   20.6271300    -0.1442238  -27.6463100   -30.5533600   66.3573800
 		     -66.0283600   35.1444900   -63.7572200   45.5315200   -30.5586400   67.2835200    -0.1399029  -27.6340600
    7638910000    -0.1269496  -15.2283000   -29.1664800   77.0817500   -74.3711900  -99.6807400   -84.9548300  -18.1118200 
 		     -29.1009500   77.6086700    -0.1212398  -15.1390100   -70.7521400 -165.9375000   -74.6952400  -25.8703200
 		     -74.8588500 -114.4989000   -62.0533900   43.2947100    -0.1415960  -27.9275800   -30.4918000   66.5574700
 		     -78.1987200 -167.3042000   -67.3518000  -69.6437000   -30.4684300   66.5858500    -0.1459609  -27.8533200
    7708900000    -0.1325950  -15.3550400   -28.9973700   77.5980900   -78.4477100  -97.0857800   -72.0850200 -147.1556000 
 		     -29.0125100   77.5334800    -0.1215023  -15.2356500   -68.3758500  104.0157000   -73.3735400  -22.6562300
 		     -82.1848700   91.0431200   -77.9075200 -175.9850000    -0.1426610  -28.1230500   -30.4399600   66.4658500
 		     -72.9658800  -68.0754500   -69.2154000  -40.6859500   -30.5187700   66.3976400    -0.1431067  -28.1240100
    7778890000    -0.1270831  -15.5010300   -29.0513600   77.0054100   -88.6389800   35.5318900   -75.2932400  -16.7870200 
 		     -28.9792500   77.2847400    -0.1279988  -15.3760800   -90.7999600  171.3080000   -81.1382200  100.9590000
 		     -70.5871700  178.9734000   -82.6058300  -91.5810200    -0.1441917  -28.4057500   -30.4919000   66.7730900
 		     -65.7056400   37.8351100   -72.9428900   94.4210700   -30.4671600   66.3337500    -0.1515028  -28.3448900
    7848880000    -0.1315973  -15.5530500   -28.9574600   78.1001400   -80.2210700 -104.8578000   -80.0513000   93.9449800 
 		     -28.9197600   77.1289200    -0.1319396  -15.5696000   -72.7691000   45.5154400   -65.4051300  -17.8982900
 		     -72.0012400   21.1018500   -74.9605100   17.4912000    -0.1458479  -28.6111300   -30.5094500   66.8565100
 		     -69.8499400  151.9981000   -76.9374500  150.4976000   -30.4342000   66.7656100    -0.1484534  -28.5847000
    7918870000    -0.1344305  -15.7672100   -28.8615000   77.2438000   -75.8447600  -20.1045700   -77.7044100  -19.3341300 
 		     -28.8626600   77.7337600    -0.1284291  -15.6867100   -76.7272600  133.5148000   -93.1155000  115.4706000
 		     -80.7277800   13.4029800   -75.9390700  101.4116000    -0.1489613  -28.8506200   -30.4369000   65.9951800
 		     -78.5895000  -34.2198600   -67.2840400  -96.9316400   -30.4195600   66.3607600    -0.1544716  -28.8182900
    7988860000    -0.1322911  -15.8485300   -28.7200500   77.0506300   -66.8144900  -20.5976800   -83.5072800   11.9989000 
 		     -28.8820400   77.1738700    -0.1313884  -15.8007100   -71.3997700   58.2989700   -68.2495600  -29.3683700
 		     -76.1611000   68.6133700   -75.4266300    5.7444860    -0.1502016  -29.0821400   -30.4686900   65.8112300
 		     -70.4299700 -131.3912000   -76.0347300   58.3182700   -30.4744700   65.6081100    -0.1413858  -29.1049500
    8058850000    -0.1344185  -16.0161700   -28.8210000   77.2924500   -70.9663300   82.4554000   -74.1857100  -53.2013700 
 		     -28.6525600   77.2069400    -0.1251026  -15.9482900   -85.0042300  -53.5633200   -67.2029300  -51.4155500
 		     -68.8985700   54.2474500   -62.0793300  -79.2028500    -0.1532178  -29.3960500   -30.3599800   65.6343200
 		     -64.9128600  -38.4479600   -67.0930300    5.1069970   -30.3886200   65.3589500    -0.1558275  -29.2946600
    8128840000    -0.1336104  -16.1659300   -28.6386100   76.9310200   -75.8270600   55.2376400   -83.1580300  -18.5965300 
 		     -28.7902900   76.3051300    -0.1307358  -16.0764200   -77.1137200  -24.4285100   -69.3198000  -20.8668400
 		     -78.2402000   48.8155700   -62.0434300   68.3324300    -0.1522585  -29.5910800   -30.2741600   65.3798400
 		     -69.6947200   88.5696600   -66.4533200  -75.4693400   -30.3986200   65.4580500    -0.1585410  -29.5549200
    8198830000    -0.1354319  -16.2762800   -28.5675800   76.7428900   -71.4402700  -13.0132600   -74.3160100  178.7380000 
 		     -28.6498300   76.5900900    -0.1243993  -16.1828000   -66.2661400  132.0751000   -79.4375000 -107.4259000
 		     -78.3194500   18.5831500   -65.0496600  166.0670000    -0.1453166  -29.8425300   -30.3192400   65.5862000
 		     -82.1917700  170.6127000   -66.6484400   74.9869100   -30.2610500   64.9564600    -0.1554341  -29.8214300
    8268820000    -0.1385253  -16.4116800   -28.5952900   76.5321300   -76.3216300  136.2449000   -73.6589300 -170.5684000 
 		     -28.5302400   76.3454100    -0.1281201  -16.3318900   -78.3031700   40.5139300   -69.7935400   73.2824200
 		     -75.9182600 -176.4442000   -72.7101100  -57.5329500    -0.1551216  -30.1384100   -30.2654600   64.9191400
 		     -65.8824200  -44.1544700   -68.0455100   59.4808300   -30.3588700   64.8159500    -0.1630455  -30.1380400
    8338810000    -0.1398922  -16.5037800   -28.4959900   76.6660400   -82.6429400   21.2484400   -72.8705000    2.7933600 
 		     -28.5724700   76.2415800    -0.1258113  -16.4105900   -77.0362900 -152.6198000   -76.8363800  -45.4636000
 		     -75.0815000  -12.6019100   -68.3164800  -59.7518300    -0.1570031  -30.3014400   -30.1555100   65.2642100
 		     -66.2043700   22.1873500   -75.9054500 -149.9507000   -30.2903900   64.5855800    -0.1645138  -30.3606100
    8408800000    -0.1466203  -16.6027400   -28.3990400   76.4005200   -66.0907900  -32.0960300   -76.1767700  -40.3907700 
 		     -28.5113600   75.9955100    -0.1409141  -16.5690700   -70.2448000   15.4878700   -69.7725200 -123.7918000
 		     -76.2901200   66.8270600   -84.9192700  119.2388000    -0.1628881  -30.5454800   -30.2221300   64.9081800
 		     -73.8913300  166.9417000   -64.1010700  -57.5277200   -30.2974500   64.5202600    -0.1697531  -30.6468000
    8478790000    -0.1347371  -16.7982400   -28.3901100   76.1963800   -81.8990700  -58.0811300   -71.5850800  -37.8040400 
 		     -28.3889100   76.4481400    -0.1432100  -16.7476600   -75.1044400  168.7704000   -71.4921300  -64.3018600
 		     -67.7320900   68.0624400   -74.2163200   39.5773800    -0.1588570  -30.8510300   -30.2949600   64.6504500
 		     -80.8729600  144.0195000   -75.7089800 -138.2265000   -30.2043300   64.5163400    -0.1685646  -30.8868800
    8548780000    -0.1448163  -16.8912300   -28.3343100   76.8036000   -76.0662900   -2.2496930   -74.3060800  -85.8937800 
 		     -28.3228500   75.9031600    -0.1342602  -16.8578700   -73.1491500   87.9879500   -80.8518500   39.7241000
 		     -76.9638100   71.9742000   -67.3342400 -175.0444000    -0.1599365  -31.0874600   -30.2996400   63.5714600
 		     -69.8340300  -11.3088100   -73.4867500  -35.5885300   -30.2703600   64.2997100    -0.1731946  -31.1008400
    8618770000    -0.1322724  -17.0279400   -28.4082400   76.2462700   -70.2181700   44.9766000   -74.9141800  -12.3740600 
 		     -28.3858600   75.7313300    -0.1339649  -16.9583300   -68.0448100   47.9195100   -71.2529400 -121.7959000
 		     -70.0720400  105.3698000   -76.0489700  -71.3106300    -0.1693023  -31.4624500   -30.2119300   62.9719000
 		     -71.3582500  -23.2734800   -65.9594300    1.3450710   -30.2514700   64.4246100    -0.1730742  -31.3797500
    8688760000    -0.1324939  -17.2409700   -28.0343000   76.3724400   -77.1906000  141.3361000   -72.2319200  -67.8187000 
 		     -28.2655200   76.3096300    -0.1383820  -17.1243600   -72.8624900    5.7146160   -80.3262300  -58.4114300
 		     -82.4794600   81.7870500   -76.3381000  144.2457000    -0.1652126  -31.6211700   -30.1680200   64.0948600
 		     -65.7982000  -23.1837100   -63.6307600   23.7607700   -30.1684800   63.9278700    -0.1617898  -31.6725700
    8758750000    -0.1352559  -17.3034700   -28.2351900   75.4317200   -71.7296800  -18.2016400   -74.9109600  -66.3482900 
 		     -28.2072100   76.0005700    -0.1403814  -17.2880300   -66.8649100   -5.9013040   -74.7064000   51.0318600
 		     -67.2637100 -168.5000000   -69.6752100 -143.0419000    -0.1659798  -31.8863100   -30.1853700   63.3060600
 		     -71.9313400  168.5446000   -74.4414600   19.5358200   -30.2254900   64.2059100    -0.1815386  -31.8829400
    8828740000    -0.1492614  -17.4779300   -28.0439000   75.7437100   -71.8510400  -80.0553700   -71.2785300   14.1357000 
 		     -28.0775600   75.7251100    -0.1516253  -17.3830400   -72.1947600 -132.5909000   -78.4383200  176.9111000
 		     -66.2091800   79.4297800   -69.1508200 -100.9185000    -0.1820707  -32.2319400   -30.1944900   63.4662800
 		     -78.3954500    9.1933410   -65.8956300   45.7804500   -30.1839200   63.4778000    -0.1804405  -32.1616700
    8898730000    -0.1509238  -17.5951300   -28.0031400   75.4899000   -67.2114000   28.7281400   -75.7207900  133.4280000 
 		     -28.1502900   75.8388500    -0.1534313  -17.4463700   -78.0665500   23.7298900   -76.1610100  171.2479000
 		     -71.8460200   79.0608400   -82.8046300  -23.9833700    -0.1734901  -32.3567400   -30.1943500   63.1066700
 		     -63.5733300  -32.5550800   -76.1003300  -24.6760600   -30.2028300   63.2147600    -0.1778460  -32.4202100
    8968720000    -0.1615724  -17.7520100   -28.0212200   76.4446000   -74.9678500 -140.9924000   -70.5438200  -38.4274600 
 		     -27.9279200   75.3081800    -0.1496019  -17.6734100   -71.8788700   39.8637100   -64.4793000   -0.2593338
 		     -76.8187700  -54.9221600   -75.2450300  -51.2895100    -0.1825331  -32.6364800   -30.2047300   63.8506600
 		     -71.5764500   39.3978400   -65.7208400 -143.1728000   -30.2534500   63.1125100    -0.1867067  -32.6572500
    9038710000    -0.1594123  -17.8610600   -27.9323400   75.4731100   -73.5393900  -85.9576200   -83.4455800  -55.2482400 
 		     -27.9478200   75.3163000    -0.1513578  -17.8217900   -79.2256000  112.5663000   -66.5432500 -166.6333000
 		     -75.5065500  117.2762000   -74.5726300 -130.8127000    -0.1705610  -32.9245700   -30.1917600   63.5735300
 		     -75.7153300  -14.5069300   -67.6097800  -82.8889800   -30.1776800   62.9437000    -0.1909660  -32.8483600
    9108700000    -0.1509166  -18.0078300   -27.9468600   75.5462000   -71.9528300  -35.7926900   -77.6185900  -33.8185800 
 		     -27.9573600   74.9535300    -0.1387126  -17.9259800   -62.6525900   22.9867500   -71.2128100    2.0534880
 		     -65.3459600  100.3224000   -68.7240000  112.3395000    -0.1741147  -33.1065400   -30.2742200   62.9674100
 		     -68.9922000  173.4577000   -68.8546600   20.2322800   -30.2224300   62.6523100    -0.1941650  -33.1379700
    9178690000    -0.1597397  -18.0990900   -27.8445800   74.8043700   -77.4962200  -92.0670000   -67.6172200 -143.3409000 
 		     -27.7996400   74.8054700    -0.1538110  -18.0086400   -81.5805800  114.0818000   -69.1135100  -65.2397000
 		     -67.3572300   63.6751700   -77.2753300  -16.6561500    -0.1822326  -33.3937300   -30.1295200   62.8377300
 		     -60.6358600 -139.9264000   -60.7177900 -128.8115000   -30.1445700   62.7245100    -0.1885693  -33.3011400
    9248680000    -0.1519263  -18.2755000   -27.7312500   74.9600900   -77.3466800 -149.9884000   -70.0255700    1.3774840 
 		     -27.7609400   74.9886600    -0.1489453  -18.2834100   -69.2352400  -84.6223900   -69.9718600  -79.6580500
 		     -70.0867300    0.4422962   -63.8475200   15.0148600    -0.1871572  -33.6764700   -30.2107500   62.7019700
 		     -76.1189600 -172.6842000   -66.4701800 -101.4943000   -30.1457800   62.7863900    -0.1862922  -33.6390900
    9318670000    -0.1525802  -18.4581100   -27.8555900   74.7925900   -71.6646900  101.6665000   -71.5436300   23.1216000 
 		     -27.8264500   74.3184800    -0.1513044  -18.3409700   -72.9690200   26.5643500   -82.9206900  -89.3967100
 		     -67.1873900  101.1916000   -63.6704000 -152.4396000    -0.1827677  -33.8492300   -30.1691600   62.1033900
 		     -74.2671400 -139.7843000   -68.0169500  -35.9381200   -30.1708300   62.6184000    -0.1949793  -33.9195100
    9388660000    -0.1588355  -18.5687800   -27.6675400   74.5079500   -70.8542700    0.0487979   -75.9882300 -111.1284000 
 		     -27.7413900   74.4897700    -0.1590404  -18.4233200   -76.8114200  -29.5841800   -73.2580300   48.4702200
 		     -72.1651200  -22.0316500   -66.7689400  137.0798000    -0.1915374  -34.1293700   -30.1759100   61.9401300
 		     -66.7585300  -57.7151900   -70.5951200   73.2347300   -30.1548800   62.4958600    -0.1811019  -34.1173000
    9458650000    -0.1602972  -18.6370800   -27.6834500   74.5989200   -77.5001800  -22.7612400   -74.4966400  -36.4115800 
 		     -27.6533200   74.8482700    -0.1596016  -18.5630700   -68.6114300   48.6285500   -74.6157700  -81.9973600
 		     -71.7677900   70.2495600   -67.3473100  108.5221000    -0.1916291  -34.4475000   -30.2229700   62.5581900
 		     -68.0196500   87.8515600   -71.9864300   33.0280600   -30.1256300   62.4247900    -0.1994170  -34.4053800
    9528640000    -0.1557902  -18.7940100   -27.6149800   73.8394400   -67.0472600  -62.9222300   -73.1339500   25.8729800 
 		     -27.6084100   74.9619700    -0.1574922  -18.6776800   -70.3325300   93.9527900   -70.6007900   41.6217600
 		     -69.2192600  -40.2115600   -61.6200700  -39.2080500    -0.1929425  -34.6767600   -30.3449100   61.6117300
 		     -63.1587400   37.6919300   -64.4507900 -167.8508000   -30.1583100   62.5477800    -0.1987598  -34.6309200
    9598630000    -0.1622329  -18.8943500   -27.5372700   74.3552600   -75.6026600   15.4234500   -70.9950900   -7.6926930 
 		     -27.5798700   74.5279300    -0.1587679  -18.8372000   -78.3095000    6.7059370   -77.0012100  150.5875000
 		     -75.5275400  -42.9138900   -65.6382900 -115.4939000    -0.1919204  -34.8699900   -30.1467500   61.7231900
 		     -79.0319800    7.4691460   -69.3326900 -177.6605000   -30.1338800   62.6549800    -0.1979876  -34.8786800
    9668620000    -0.1610429  -19.0229700   -27.5131200   74.3366800   -68.3262700   58.3579600   -67.3050500 -122.0615000 
 		     -27.4818400   74.6311800    -0.1648727  -19.0390500   -72.2329900  118.7112000   -66.9135700  -51.5203800
 		     -76.5321700  102.8136000   -67.2551700  -55.8010300    -0.1943526  -35.1079000   -30.2970300   61.6965000
 		     -73.5854000   -8.1405930   -63.5578300 -158.5858000   -30.2040500   61.9176200    -0.1950684  -35.1917100
    9738610000    -0.1671219  -19.1925100   -27.6729800   74.6539200   -71.3909300  -24.5932700   -74.0932900   -9.0823560 
 		     -27.5026800   74.1787000    -0.1556104  -19.0963000   -69.8894500  -34.7556200   -69.5334700   84.4892300
 		     -78.2898900  119.3455000   -61.7634900   87.8657000    -0.1832162  -35.4281600   -30.2238600   61.0691400
 		     -70.8173400  -44.4987400   -70.1107400  113.2454000   -30.2170300   61.6095900    -0.2032357  -35.3760600
    9808600000    -0.1695922  -19.3412500   -27.4815700   74.1918600   -71.5708100  -54.2420000   -73.7985200   -3.9784730 
 		     -27.5170000   73.8153200    -0.1593310  -19.2553800   -77.6586300  -52.8723400   -72.8390200  -57.8678600
 		     -71.5243100  163.2476000   -70.1911800   38.9037700    -0.1952347  -35.6331600   -30.1942000   61.2311900
 		     -68.4914100  107.2091000   -71.6832200   67.3913000   -30.2472400   61.9979200    -0.2071342  -35.6127300
    9878590000    -0.1780574  -19.3785100   -27.3359300   74.5859800   -79.9071000  -44.0347500   -70.6249300  109.9680000 
 		     -27.5177300   73.9662500    -0.1676215  -19.3115000   -80.8462400 -165.4777000   -69.7632300  -34.2636000
 		     -79.5375700    1.5116130   -69.9236100  129.2642000    -0.1936623  -35.9156700   -30.2625400   61.1841300
 		     -71.4274100  -82.3084600   -80.4557300   93.9564400   -30.1615600   61.7599400    -0.2106434  -35.9429900
    9948580000    -0.1705645  -19.5820000   -27.4236500   73.0874000   -74.6268800   86.0044600   -86.1946300   81.7604000 
 		     -27.4159300   73.6489600    -0.1693994  -19.5076900   -76.7982000   77.1767300   -77.5228500   80.6807300
 		     -65.9128200  -16.7045400   -61.7605700  -71.9376200    -0.1897563  -36.1824600   -30.1425400   61.2202500
 		     -89.7733800   14.8584900   -61.7454800   -0.3166267   -30.2665800   61.3005800    -0.2091570  -36.1283600
   10018570000    -0.1659481  -19.7644000   -27.4013800   73.1418800   -63.0526900   67.3018500   -67.1385000  -50.0376600 
 		     -27.2320100   73.7035700    -0.1647216  -19.6977300   -70.9214200  -38.6643600   -63.2552400  -24.7628800
 		     -60.5684600  -16.1221200   -70.1522200   31.1052400    -0.1904956  -36.4419600   -30.2059000   61.0013200
 		     -68.3553600 -174.2190000   -67.1175900  -77.5563900   -30.3802100   60.8004100    -0.2072096  -36.4822500
   10088560000    -0.1836585  -19.7963600   -27.4239200   73.3514900   -68.5190900    4.5508970   -70.3881200   11.3610000 
 		     -27.2568900   72.7201300    -0.1744968  -19.7528300   -67.9599200  -48.7547900   -81.9390000 -127.8308000
 		     -60.5383600 -155.5372000   -72.0875100   38.9025800    -0.2008241  -36.7454100   -30.2272600   61.1544700
 		     -66.1675400 -170.4351000   -59.8909400  -15.6507900   -30.3113500   60.1600000    -0.2055212  -36.6942200
   10158550000    -0.1741300  -19.9648600   -27.3210100   73.0345200   -76.5051100   72.4111800   -69.0924800   -3.7603350 
 		     -27.3116500   72.9503900    -0.1838619  -19.9027600   -67.2405500  -57.1551900   -76.6688700   22.5741000
 		     -62.2510600   -1.4016310   -62.4345000  173.5397000    -0.2039742  -36.9112100   -30.3456100   61.2835100
 		     -71.6360000   78.6001100   -61.0767800   26.0876200   -30.4066500   60.9690700    -0.2189525  -36.9275400
   10228540000    -0.1754282  -20.0898100   -27.1321100   73.0341000   -76.6582000  119.7307000   -72.6438400   25.6206600 
 		     -27.3158700   73.4463200    -0.1711113  -20.1413500   -62.3674000   76.8052900   -69.8674200   31.1702500
 		     -72.1200100  173.2044000   -77.5767700  -10.7007400    -0.2054088  -37.2332100   -30.2341700   60.1492800
 		     -71.7488800  -40.9060700   -67.0074800  179.8666000   -30.3417300   60.1941100    -0.2183324  -37.1698100
   10298530000    -0.1735109  -20.3259000   -27.0694700   72.6330500   -63.9924800   18.1430400   -83.2491700  130.7285000 
 		     -27.1736000   73.0297500    -0.1839566  -20.1471200   -85.8565800  172.2060000   -68.4045600 -172.1449000
 		     -62.6995300  -76.2071600   -76.2937800  -37.2633900    -0.2051377  -37.3764600   -30.3635300   61.0039600
 		     -63.1724500  153.0552000   -64.2480800 -118.8335000   -30.1949800   60.6853700    -0.2307852  -37.4246400
   10368520000    -0.1747875  -20.4126900   -27.2072300   71.5067400   -87.9912200 -176.7740000   -71.5149500  -42.2381700 
 		     -27.0602700   73.3747400    -0.1768270  -20.2831500   -80.4308400  -50.4966600   -66.3721900  -68.6733600
 		     -67.7688400 -144.0863000   -70.8043500   -9.3302970    -0.2123545  -37.6574200   -30.3906000   60.1062200
 		     -61.2016900    0.1669708   -73.4095800  -92.9489600   -30.3576100   61.1912700    -0.2193871  -37.6388300
   10438510000    -0.1855640  -20.5293200   -27.1344200   73.8763600   -72.1618700   67.8206400   -72.3956100  -10.8219400 
 		     -27.1948400   72.7339800    -0.1785307  -20.4300300   -64.4732100    7.4060270   -66.6727500   61.1285400
 		     -67.9066800   43.0014600   -66.2849600  144.2873000    -0.2202598  -37.9353400   -30.4141300   58.9698000
 		     -69.1391600 -133.5102000   -71.3176100   88.7528800   -30.4740400   60.5903800    -0.2314638  -37.8923100
   10508500000    -0.1830631  -20.8433600   -26.9383800   72.6036800   -66.1420100   31.5585800   -73.9112200  -73.2958600 
 		     -27.0926700   73.1190300    -0.1647399  -20.6035200   -76.3013100 -125.6797000   -81.1755000   68.5803200
 		     -66.1602700    8.0251670   -56.9718700   64.0323500    -0.2143219  -38.1505100   -30.2717800   59.6022600
 		     -60.2094300 -157.4405000   -62.6403500   12.8145000   -30.4649900   60.0596600    -0.2334009  -38.2103500
   10578490000    -0.1862411  -20.7099000   -26.9280200   72.4280300   -70.2560800   43.2972500   -68.9151600 -135.1515000 
 		     -26.8044800   73.0814100    -0.1846156  -20.7133500   -66.9687700   12.4754400   -69.4579800   39.7935400
 		     -68.6658500  -30.2513800   -67.7067800  -43.6913700    -0.2143258  -38.4402300   -30.4502800   60.0247000
 		     -78.5741600   41.2782700   -61.1542700  -97.9554900   -30.3799000   60.5914200    -0.2227147  -38.3473600
   10648480000    -0.1882305  -20.9286900   -26.9818600   72.2781600   -68.8723800  -60.2751200   -67.8626900  -23.3705700 
 		     -26.8446400   71.9152500    -0.1951973  -20.8349200   -74.8801100  -31.9742500   -77.1450200 -101.5590000
 		     -74.0920800   -3.9326700   -73.8754600  -35.7336400    -0.2171340  -38.6844800   -30.4121700   60.3887400
 		     -72.7365700  175.0215000   -64.8919100 -170.7260000   -30.4534000   60.4519400    -0.2290092  -38.6921600
   10718470000    -0.1892517  -21.1887000   -26.9596300   72.2317400   -82.4810800  -13.6722400   -69.8515500  -14.9603100 
 		     -26.9094100   71.5153300    -0.1878383  -20.9016500   -67.4272200  -20.9810100   -77.8531600 -164.3639000
 		     -70.3129000  -11.3997900   -64.1770700  -20.3802900    -0.2249109  -38.9381300   -30.5549500   60.1246900
 		     -80.5007600   69.1496700   -64.1642100   44.1914100   -30.5344000   59.6320600    -0.2224485  -38.9431800
   10788460000    -0.1901852  -21.2122600   -26.9161900   72.3649500   -73.1352200  -14.8803800   -73.9332300   25.9825600 
 		     -26.7779400   72.0559500    -0.1845867  -21.1599700   -65.9800600   30.2048000   -77.2620900  -85.2358000
 		     -61.3194500   30.1104800   -66.1905400  -16.5661800    -0.2197465  -39.2366900   -30.5992500   59.9078900
 		     -60.7910900    1.7399990   -57.8116000   47.7749000   -30.6793100   60.3355600    -0.2393118  -39.1331300
   10858450000    -0.1939054  -21.3570900   -26.9742200   72.4929200   -69.6049100  -73.7986900   -66.2425800    7.6648250 
 		     -26.8658900   71.6793500    -0.1926810  -21.2660200   -69.5418700  -14.4495500   -74.7394300    4.3330240
 		     -69.5692400  108.1718000   -67.1152400  -33.7627100    -0.2282752  -39.5162300   -30.6112700   60.0205400
 		     -67.3641000    3.6836350   -65.2858600  100.0161000   -30.5699900   60.1818500    -0.2423378  -39.4901200
   10928440000    -0.1974105  -21.5200700   -26.8120600   70.8311000   -86.3925200  169.8489000   -77.4220800 -107.4956000 
 		     -26.7592700   71.5876700    -0.1757591  -21.3373200   -64.0911500   46.9850800   -64.3555000    7.4227840
 		     -74.1387600    6.8133050   -67.0920700  -37.2394600    -0.2184045  -39.7148400   -30.5789200   59.7729700
 		     -66.2039400   33.1270200   -57.0860300   -7.7526450   -30.4610200   60.4151000    -0.2504026  -39.7895600
   10998430000    -0.1916569  -21.6519600   -26.7111400   71.1714900   -73.7070900   73.8290100   -62.2889300  -89.4834100 
 		     -26.8249700   71.2330400    -0.1916656  -21.6221100   -77.3660300  -24.6894100   -71.2749700  -20.8683200
 		     -79.1037700  -84.5147900   -69.6025400  -69.7779300    -0.2317164  -39.9750600   -30.5651700   59.7162400
 		     -62.6721400   21.0760400   -78.1281900  -17.2222600   -30.6327600   59.6019200    -0.2426991  -39.9637200
   11068420000    -0.1754953  -21.6681300   -26.8947000   71.4716900   -64.6747500  -64.6254100   -64.6704400  -52.9797600 
 		     -26.9441800   71.2540000    -0.1999853  -21.5971600   -66.0700100  -39.4865500   -80.2684900 -118.0460000
 		     -66.5939800 -144.3335000   -60.5422000  -77.2227600    -0.2413085  -40.1976000   -30.5361300   59.9273100
 		     -60.8883600  -54.3197200   -63.8492400 -153.6249000   -30.6826400   59.5899600    -0.2364861  -40.2051800
   11138410000    -0.1927094  -21.8066300   -26.8813600   71.0392400   -80.1991300  104.9478000   -76.5611100  -73.6564800 
 		     -26.6711000   71.1192900    -0.1912674  -21.7627900   -76.8388400  154.8122000   -69.0767700  -20.6424000
 		     -61.5039600  151.3956000   -63.7372200  120.5097000    -0.2346483  -40.4810000   -30.5717200   59.5778200
 		     -66.9901700   -2.0332830   -66.9523800  140.5396000   -30.5926000   60.5421700    -0.2417190  -40.4187700
   11208400000    -0.1910853  -21.9445700   -26.6226600   72.0445200   -76.2305500 -145.1389000   -68.8296600  117.4590000 
 		     -26.7155200   71.2289000    -0.1868253  -21.9876700   -79.5102200 -159.9906000   -68.9187300  -94.8393300
 		     -63.8239300  -66.7711200   -62.8932300  -50.1041800    -0.2318830  -40.7184400   -30.8063900   59.1784200
 		     -70.3243800 -154.7918000   -62.5174900   -5.6153720   -30.7228900   59.7222400    -0.2418421  -40.6808200
   11278390000    -0.1909517  -22.1233700   -26.7826700   70.1925000   -79.7012900 -141.4981000   -67.1829500  -59.4141500 
 		     -26.6499700   71.3467100    -0.2056816  -22.1038400   -64.8855400  -42.8309100   -81.2068500   55.2874300
 		     -59.8539700  -10.6226700   -71.7957800   -3.0354560    -0.2381799  -40.9159300   -30.7570400   59.8352300
 		     -72.2952000  -62.7395100   -69.1983700  -69.9971400   -30.8514800   59.5401200    -0.2525067  -40.9907600
   11348380000    -0.2034940  -22.2165000   -26.6402300   70.8253900   -77.2034300  -73.7115000   -79.3896500  -38.9465000 
 		     -26.5359000   71.2350000    -0.1944801  -22.1217700   -67.1899600   34.1687500   -74.9165500  -41.7991900
 		     -70.0327100   97.3380100   -65.2685100 -117.8482000    -0.2530305  -41.2229800   -30.8252200   58.9290800
 		     -69.2693300  -51.4235900   -60.0798200  -47.9378600   -30.7278700   59.9842800    -0.2512651  -41.2089000
   11418370000    -0.1953289  -22.3249300   -26.6995900   70.2703800   -78.6486200  112.9283000   -63.7070600  -32.8494800 
 		     -26.6973100   70.7909700    -0.1788501  -22.3147400   -59.5930600  -29.6944500   -62.5521300  -24.3497500
 		     -56.3169600  -68.4536500   -62.2992900  -28.9031000    -0.2411996  -41.4788900   -30.8732300   59.5518600
 		     -67.8476600   24.5372200   -62.6119400    4.4704060   -30.6818000   60.9664200    -0.2617885  -41.4524800
   11488360000    -0.1975560  -22.5767600   -26.5000900   70.7943800   -71.7328000  -33.0207700   -72.9935600  -66.7654800 
 		     -26.5943900   71.5176200    -0.2082656  -22.4186900   -87.9164200  142.8977000   -63.3229300  -56.2880400
 		     -65.0647600  -25.8389400   -59.6731300  -75.8023500    -0.2410783  -41.7323900   -30.8221500   59.9148400
 		     -57.7154800  -70.9953900   -67.4481800  -27.6062800   -30.8301500   59.9148800    -0.2539506  -41.8455100
   11558350000    -0.2072449  -22.6451600   -26.6559700   70.7882500   -71.1656100  -82.7627000   -67.4852600  -11.2232000 
 		     -26.6174600   70.8386700    -0.2089118  -22.5198800   -63.1517900  -13.1332600   -65.6985200  -38.5551100
 		     -67.6754400 -110.4143000   -62.7122500   15.4690400    -0.2414127  -41.9538300   -30.8933200   59.3817400
 		     -83.9026200  159.7820000   -67.3854100 -129.3431000   -30.9477800   59.4567900    -0.2661851  -41.9841900
   11628340000    -0.2046484  -22.8010800   -26.4342200   70.5749200   -67.2958700  -37.2523400   -74.8508800    5.0001290 
 		     -26.6632400   70.8677800    -0.1894315  -22.7903000   -62.9961500  -39.9713900   -69.7029500   55.1472100
 		     -61.7047900   -5.5407140   -63.1715900 -170.7631000    -0.2529676  -42.3083300   -31.2096200   59.6589700
 		     -62.0276900   -1.7715330   -64.4914900  -26.8733200   -31.0261400   59.8016400    -0.2624671  -42.2306600
   11698330000    -0.2106048  -22.9741400   -26.4821400   70.4811200   -66.7856800    8.5615020   -68.3807400  -26.4691300 
 		     -26.6221100   70.5923200    -0.2073421  -22.8283800   -68.8911400  -17.1639800   -70.4196300 -102.9174000
 		     -68.1604200   71.6406900   -68.8979200  163.1154000    -0.2527407  -42.5016600   -31.0078600   59.3053900
 		     -69.1103700 -154.2883000   -59.2461000  -89.5789600   -31.0907800   59.3111700    -0.2555957  -42.4730200
   11768320000    -0.2136214  -23.0915600   -26.5299500   70.1043500   -70.5109300  -11.8610400   -72.3514300  -23.7197500 
 		     -26.5250200   70.8847400    -0.1954472  -22.9170100   -68.6359900  -39.4213100   -66.1418800  -24.7009700
 		     -63.4036700  -88.0285300   -71.2623200 -178.9044000    -0.2468570  -42.7843300   -31.1448600   59.6806600
 		     -62.3297700  -11.3740000   -62.8675700   13.4573700   -31.1832300   59.4375800    -0.2622521  -42.7848700
   11838310000    -0.2160922  -23.1871900   -26.5056500   71.1435700   -68.2554900   -5.8788230   -67.0020800  -26.9279400 
 		     -26.4554400   70.5113800    -0.2034736  -22.9871600   -69.6702000  -36.4711500   -76.2151000 -144.7768000
 		     -67.7449100  -26.4951300   -55.5628400  -20.1602600    -0.2415788  -43.0402000   -31.3464600   59.4276900
 		     -66.5304500   -9.3089460   -64.3004800  -27.7106300   -31.2250000   58.2386200    -0.2746344  -42.9500900
   11908300000    -0.2157804  -23.4196000   -26.4608600   70.3372700   -65.3683900  -93.3255500   -62.1080300   -2.2571810 
 		     -26.4886200   70.1096700    -0.2098791  -23.2268400   -62.3999100  -25.0398500   -67.7043000  -58.7642200
 		     -71.3191600   11.5279700   -65.0467800  -67.7415400    -0.2592897  -43.2037400   -31.2492900   59.2946400
 		     -60.9658100  -38.0921300   -64.0999800  -78.9252500   -31.2302100   60.1190700    -0.2641501  -43.2679400
   11978290000    -0.2115856  -23.4919400   -26.6029000   70.5149400   -69.8753700  -25.9798900   -83.2688400   85.8512300 
 		     -26.3516700   70.3521800    -0.2070565  -23.3975900   -82.8108100  -84.2585700   -67.0210600  -58.4307500
 		     -71.8461300  -31.1988800   -68.9928400  -17.2681300    -0.2586094  -43.4547000   -31.2307900   58.8546100
 		     -70.4358700  -49.9108100   -67.1821300  -31.0222600   -31.2256800   59.2661000    -0.2632558  -43.4785900
   12048280000    -0.2261288  -23.6802400   -26.4650400   69.7166300   -72.1610600   -7.7803680   -66.8456600  -66.4353100 
 		     -26.4891200   69.8822700    -0.2064535  -23.5027100   -61.1016300   29.1053800   -71.0252500    6.0212470
 		     -62.0292100   -9.7472720   -56.4287300    8.8206840    -0.2512196  -43.7186700   -31.3377200   58.8784100
 		     -69.6217300 -109.8662000   -60.2699600   -3.9811030   -31.2591300   59.0490000    -0.2767591  -43.7196500
   12118270000    -0.2255584  -23.8041000   -26.2714400   70.3270600   -72.0620700  -30.4365100   -65.9446300  -17.5354200 
 		     -26.4768600   70.2042800    -0.2256069  -23.5650500   -67.8049400  -43.8911400   -72.1797600  -41.5724400
 		     -58.9430600   34.6246300   -58.7231600  -94.9665600    -0.2546046  -44.0012900   -31.3873600   59.5535200
 		     -74.8844800  -93.7969600   -63.7458300   96.9248000   -31.3534500   59.1854900    -0.2720973  -43.9135400
   12188260000    -0.2176830  -23.8504200   -26.2661700   68.9413000   -66.6691700  -42.8929200   -65.5237700  -53.0966600 
 		     -26.3134700   70.4257000    -0.2180267  -23.7467900   -66.7083800  -65.7374300   -86.3863300 -109.7823000
 		     -66.6851900  -54.6460500   -64.9218900  -47.4118800    -0.2632063  -44.2581500   -31.3812400   59.3936000
 		     -75.0908600 -113.4756000   -67.7341900  -24.8638400   -31.3627300   59.9357600    -0.2724611  -44.1722800
   12258250000    -0.2349065  -24.0074900   -26.3500400   70.3188600   -74.7974900  -97.2766300   -74.9252400 -138.9352000 
 		     -26.3503200   69.8477900    -0.2155862  -23.8569600   -61.5254100  -43.9769400   -71.8369000  137.4996000
 		     -64.2875800  -34.0438300   -58.2842800   92.9398000    -0.2660863  -44.5013200   -31.5935200   59.7951000
 		     -79.5502200   84.6356400   -64.4011600  -30.4107400   -31.4408200   59.4430500    -0.2872814  -44.5107800
   12328240000    -0.2331308  -24.1050400   -26.2957700   70.1818800   -73.1706100 -129.9238000   -66.1717500  -16.9569800 
 		     -26.2243900   69.8530100    -0.2202233  -23.9509300   -60.8171300   -9.3973480   -68.9480700  -62.4325200
 		     -62.7726200   -5.5611170   -59.0064600  -41.2435300    -0.2573636  -44.7024800   -31.5257000   60.0766600
 		     -62.9588100  -36.8945600   -75.4976000   95.4980500   -31.5697600   60.8493200    -0.2776536  -44.6127800
   12398230000    -0.2257667  -24.3019500   -26.4026500   70.5296500   -70.1441800  -49.9975000   -64.2367700    9.8072680 
 		     -26.2348500   70.0627200    -0.2341253  -24.1852300   -67.7151300  -22.7640000   -61.8654600  -23.2875800
 		     -65.9861700    8.0371180   -60.6625100  -86.5012400    -0.2743247  -45.0669400   -31.6474300   60.1745800
 		     -63.0814000  -51.8070400   -68.4105500  124.3744000   -31.5730500   60.7155200    -0.2719173  -44.9211200
   12468220000    -0.2339721  -24.3880300   -26.3013500   70.3781100   -63.2112100  -79.1500500   -62.3876400  -89.2731200 
 		     -26.3360800   69.7286900    -0.2170219  -24.3126200   -62.6232200  -32.8124700   -75.7858500  -42.8307300
 		     -65.9576400  -59.3915800   -57.4559400  -20.3050700    -0.2781509  -45.2127800   -31.7177500   59.9540900
 		     -61.0421300  -71.7108500   -65.5723300  -76.1843700   -31.7188600   60.4129300    -0.2783590  -45.3079500
   12538210000    -0.2194641  -24.5094400   -26.2178600   69.5549900   -65.1468000  -64.0827300   -80.0847500   54.6800300 
 		     -26.3633900   68.8486400    -0.2246846  -24.4034100   -65.6411400 -104.1285000   -68.8266400  -22.5920200
 		     -79.0650800 -123.1708000   -59.0689000 -103.4470000    -0.2610814  -45.5187800   -31.7904000   59.3451500
 		     -64.8735400  -85.7620400   -64.8764500  108.3238000   -31.8336300   60.1651300    -0.2863083  -45.5180800
   12608200000    -0.2147008  -24.6983900   -26.3959800   69.0952400   -62.1132700  -60.4070300   -65.0739900   -6.4606160 
 		     -26.3571200   68.7781100    -0.2332132  -24.6265200   -59.7196400  -62.0243500   -68.1550700  -33.5175700
 		     -61.2281500  -57.5986700   -62.6923000  -32.6831100    -0.2803353  -45.8083200   -31.8244300   60.0107800
 		     -59.9547000  -90.6805600   -66.4389300   -2.2019770   -31.8919600   60.2617600    -0.2866860  -45.7561900
   12678190000    -0.2227447  -24.7454200   -26.1631400   70.1899500   -64.8467100  -49.8797700   -65.3947000  -41.8054200 
 		     -26.3980800   69.5188200    -0.2136307  -24.6072400   -68.5564300  -94.0478700   -70.2342800 -104.3965000
 		     -66.7025300  -92.6175700   -75.8281100   39.2803700    -0.2823163  -46.0098000   -31.8883200   60.1828700
 		     -63.4098200  -95.4244800   -67.0710400  -29.8928700   -31.8077000   60.7361100    -0.2981650  -46.0610300
   12748180000    -0.2337352  -24.8199700   -26.1910200   69.6143400   -68.7211500  -59.5216800   -64.2554300  -41.4658400 
 		     -26.3322500   69.6715000    -0.2048880  -24.8640400   -65.1445700  -10.3810900   -60.5590100  -71.2275700
 		     -63.9617200  -21.3115100   -59.7295100  -20.1513200    -0.2647525  -46.2713100   -31.8957700   61.2146500
 		     -62.0072900 -136.2196000   -71.9651200  -66.7167600   -32.0204900   60.2487900    -0.2876340  -46.2037800
   12818170000    -0.2328705  -25.0752900   -26.1195000   68.5110900   -66.0267600  -62.5793000   -69.7354000  -55.1562800 
 		     -26.0441700   69.0687300    -0.2296980  -24.9409100   -62.0996800  -39.1662800   -61.7480500  -26.8642500
 		     -66.8116900 -138.0569000   -64.3486400    8.5427230    -0.2858167  -46.5909300   -32.1110500   60.7808200
 		     -55.7211100  -64.6754200   -62.0688200   49.4837200   -32.0460200   60.8191000    -0.2896688  -46.6233500
   12888160000    -0.2318423  -25.1487200   -26.0806800   69.2744500   -59.1682600  -70.3794800   -80.0588300  -27.8256000 
 		     -26.1452500   69.3051800    -0.2393974  -25.0706700   -63.9315600  -66.3083600   -64.2422900  -55.2463600
 		     -66.1780500  -35.9743900   -60.7064100  -17.1262600    -0.2801428  -46.7155400   -32.1752600   61.7109000
 		     -62.6840400 -115.7611000   -63.6190300  -58.3618100   -32.2416300   61.0431100    -0.3025509  -46.7757900
   12958150000    -0.2402485  -25.2759500   -26.1902800   69.2014800   -66.1630800  -92.0194900   -69.5875100  -22.1118700 
 		     -26.0712600   70.0822300    -0.2048896  -25.2516400   -69.1769800   35.6007300   -60.5113700  -64.7467100
 		     -69.4005100  -74.7305700   -57.8129100  -40.0533000    -0.2742814  -46.9852800   -32.1662200   61.9952800
 		     -62.5257300  -72.2781100   -68.4541200   14.6570100   -32.1425100   60.4643400    -0.3009673  -46.9824900
   13028140000    -0.2413958  -25.5095900   -26.3704100   69.5870400   -65.4891200  -10.8079500   -76.2841300  -23.5282100 
 		     -26.1155700   68.0332000    -0.2434618  -25.4213700   -64.0310800  -57.7564500   -62.9678600  -53.7459800
 		     -62.4926600 -102.9162000   -54.7044000  -28.1814000    -0.2894396  -47.3028800   -32.3966900   61.0523600
 		     -60.6849700  -49.8293300   -83.1973400   78.1925400   -32.1741300   61.3313400    -0.3064229  -47.2538800
   13098130000    -0.2382258  -25.6090000   -26.0727600   69.3522000   -62.8643100  -78.4021200   -65.2740200  -90.4678000 
 		     -26.0596800   69.8223900    -0.2209510  -25.4123800   -64.2097200  -92.6947600   -67.1480200  -36.7933600
 		     -62.8998600  -46.6847200   -66.7862000 -117.2436000    -0.2885203  -47.4789200   -32.3539500   61.2392100
 		     -60.6953100  -59.2613100   -63.3942100 -147.8030000   -32.5001500   60.6276100    -0.3123053  -47.5650000
   13168120000    -0.2413265  -25.6394700   -26.0248200   68.9373200   -63.6997200 -104.5669000   -62.2042700  -55.6193300 
 		     -26.1147800   68.4425700    -0.2308231  -25.6982700   -62.0451400  -82.2821400   -66.3290300  -81.4681900
 		     -62.8335000  -65.5965600   -69.0937300  -29.1374500    -0.2861061  -47.7925500   -32.4478200   61.3855200
 		     -61.5436800  -48.8225400   -61.6323300 -100.4730000   -32.4540900   61.3479400    -0.2955624  -47.7208100
   13238110000    -0.2492987  -25.9010300   -25.8862200   68.1450200   -70.6381800  -43.1618200   -60.5090500  -73.8994300 
 		     -26.1225800   68.2672800    -0.2371403  -25.8258000   -60.8911600  -54.5199000   -68.2390400 -123.4153000
 		     -57.1535900  -88.7567600   -83.2477300  151.7684000    -0.2860182  -48.0597800   -32.5445700   61.3061900
 		     -61.1766600 -111.3717000   -59.9106100   10.6696900   -32.4255600   62.0322000    -0.3045324  -48.0141300
   13308100000    -0.2438939  -26.0399500   -26.0459300   68.2702300   -68.3549300  -64.6826500   -63.3839800  -54.4411400 
 		     -26.0423000   68.7661300    -0.2411678  -25.8579400   -63.3231700  -58.0719300   -63.7962300  -77.3245200
 		     -63.6241700  -36.7704700   -60.5627500  -41.0286400    -0.2932922  -48.2846300   -32.5645900   61.7888900
 		     -66.2692100 -113.5771000   -60.0725500  -39.5093700   -32.5408100   62.7430400    -0.3091174  -48.3333400
   13378090000    -0.2388491  -26.1741100   -26.0822100   69.7327900   -63.0881700  -59.7161800   -63.6153600  -80.4634500 
 		     -26.0275300   68.5969800    -0.2452590  -26.0357700   -69.1533400  -55.8264200   -62.4025900  -75.9464900
 		     -60.8511500  -79.0824000   -65.5643500  -83.8674800    -0.2886644  -48.5736800   -32.6720000   62.6342500
 		     -65.0607100  -52.3415800   -58.4420200  -41.3578100   -32.7226000   62.3198900    -0.3074772  -48.5113500
   13448080000    -0.2508065  -26.2978900   -25.9967600   67.4857900   -64.6432300  -68.2663200   -63.3974300  -62.6637700 
 		     -26.0572700   68.2166800    -0.2446283  -26.1497100   -64.0955100  -57.2899200   -64.1262800  -75.2478800
 		     -75.8107400  -29.6851500   -58.2395000 -112.0170000    -0.2953734  -48.8353500   -32.8407900   62.5684900
 		     -69.5760100  -78.6725000   -54.5736100  -87.7350200   -32.9583900   62.2510800    -0.3056290  -48.7409900
   13518070000    -0.2442476  -26.4694400   -25.9992000   67.6587400   -60.6615600  -89.9402200   -64.4919100  -89.7538600 
 		     -25.8851400   68.8862200    -0.2475842  -26.3033100   -59.0717900  -74.8692900   -58.0549200  -63.6992400
 		     -76.7524000   55.8939400   -65.2379100 -127.2159000    -0.3089078  -49.0783800   -32.8913700   63.4911300
 		     -56.9514900 -100.1162000   -59.1554100  -63.5322800   -32.9937300   61.6346900    -0.3257981  -49.1023400
   13588060000    -0.2458912  -26.6209300   -25.9518600   67.6149400   -64.2512400  -84.5710200   -61.0307600  -56.5310400 
 		     -25.9206700   68.5788900    -0.2264730  -26.4900200   -64.5505300  -89.8101400   -65.7836900  -62.6654400
 		     -66.3165700 -100.2952000   -63.1459700  -49.4462100    -0.2995568  -49.3921700   -33.0909700   62.9292000
 		     -62.0421900 -160.5445000   -61.1483200  -95.5212200   -33.0343600   62.8873800    -0.2955017  -49.2740200
   13658050000    -0.2451911  -26.6616000   -26.0397500   67.2742900   -78.4405400  -54.1811400   -61.1364800  -93.3705400 
 		     -26.1306700   68.0700500    -0.2606226  -26.5854300   -58.9346700  -87.0823500   -65.6699200  -78.8966100
 		     -68.3803900  -13.1940500   -63.7427600  -29.7520500    -0.3105847  -49.7045700   -32.9935600   63.0351900
 		     -58.7361900  -55.1891700   -60.5807900  -82.4693100   -32.9987200   63.6229200    -0.3242475  -49.5602100
   13728040000    -0.2575756  -26.8730300   -26.0428700   67.3976200   -63.1325800 -122.3938000   -61.7652700 -113.1658000 
 		     -25.8841300   67.8548100    -0.2469866  -26.6744400   -61.1179800  -84.3899800   -60.7127100  -94.5414600
 		     -74.2992700 -155.1999000   -54.8318400  -90.6905500    -0.3116812  -49.9080500   -33.2983900   62.5614200
 		     -60.1155300  -55.3197500   -75.7085300  -21.2369500   -33.1510100   64.2447600    -0.3290807  -49.8194200
   13798030000    -0.2448027  -26.9179100   -25.9410800   68.1351200   -60.8028200  -95.7399600   -59.9047100  -85.9572100 
 		     -25.9164300   68.4739000    -0.2425866  -26.8314000   -61.2304400  -86.1671300   -63.3182900  -92.5450600
 		     -70.8693000 -125.8972000   -64.1076500 -108.2583000    -0.2981750  -50.1574700   -33.2330600   64.0672700
 		     -59.4086300 -104.0096000   -58.0288000 -112.9957000   -33.4771200   63.4848800    -0.3160805  -50.1022100
   13868020000    -0.2451067  -27.0591800   -25.8200100   68.2090100   -65.6133400 -104.3318000   -59.5658500  -90.1076300 
 		     -25.9255800   68.5310700    -0.2500741  -26.9631500   -58.6386100  -97.3946200   -59.5136800 -104.1768000
 		     -61.8601600  -65.4973600   -58.8471400  -90.1521500    -0.3105080  -50.4870100   -33.3172800   63.9084900
 		     -60.0197800  -49.9506300   -62.1621100 -178.1922000   -33.5092500   64.0846800    -0.3174972  -50.3312900
   13938010000    -0.2538367  -27.2203400   -25.8312700   67.0460100   -60.6633800  -61.0027100   -61.1365700  -81.5133100 
 		     -25.8333200   67.9125600    -0.2373639  -27.1474600   -71.5707800 -125.4579000   -58.2715600  -69.9914500
 		     -63.8253700  -84.6207000   -58.6798700  -80.1042400    -0.3175679  -50.6016900   -33.5099500   63.9796000
 		     -57.2160800  -52.8851200   -60.1185900 -163.1591000   -33.4846300   64.1169800    -0.3383073  -50.5920900
   14008000000    -0.2539240  -27.2629000   -25.7400500   68.0209400   -63.9180000 -108.3382000   -65.3666500  -83.1139700 
 		     -25.9756500   67.3180000    -0.2442172  -27.1802000   -62.7764900 -129.7352000   -64.3648600 -103.5322000
 		     -63.8643300  -61.6587200   -60.1526600  -67.3698800    -0.3089584  -50.8698400   -33.6628000   65.2043900
 		     -66.8391000  139.4408000   -55.6162300  -57.5720000   -33.5042300   64.2692300    -0.3218603  -50.7793100
   14077990000    -0.2539909  -27.4739400   -25.8721100   67.3120200   -60.1901600  -89.1092800   -66.7971800  -91.1814400 
 		     -25.8450100   68.2456200    -0.2707102  -27.2359700   -62.4777800 -128.9167000   -62.2544500  -59.0852300
 		     -61.4352600  -58.3401900   -60.6634600  -72.2679100    -0.3226086  -51.1911200   -33.7972300   65.7116400
 		     -59.3092500  -63.5764800   -58.6895900 -108.1998000   -33.6815500   66.3904000    -0.3305438  -51.1080700
   14147980000    -0.2736892  -27.5479300   -25.9816300   68.4467900   -59.0234700  -85.6983500   -60.8283400 -122.0021000 
 		     -25.8691600   67.6354400    -0.2650194  -27.4047900   -65.8070400  -75.5185400   -63.0055500  -64.7625400
 		     -61.3095600  -90.3562500   -68.1423100  -41.9448400    -0.3138165  -51.3877400   -33.9958600   65.1706900
 		     -59.7977400 -119.0154000   -55.4673700 -128.0004000   -33.7450800   65.7466000    -0.3408769  -51.3587100
   14217970000    -0.2625562  -27.7026300   -25.7124400   67.0799600   -60.7700000 -112.2186000   -62.9715200 -160.0356000 
 		     -25.8418200   67.0823000    -0.2404394  -27.5839600   -60.5037800  -98.8575500   -61.3427500 -109.0060000
 		     -64.3823900  -89.0839900   -56.8119900  -69.8686800    -0.3119365  -51.6755800   -33.9968900   66.4274200
 		     -55.4395600  -93.4803400   -67.7742900  159.8122000   -34.0748300   65.0884200    -0.3329496  -51.6311800
   14287960000    -0.2541361  -27.8874900   -25.6935400   67.4971900   -61.3740500 -115.2172000   -65.4248000 -107.4070000 
 		     -25.8439600   67.0488100    -0.2593988  -27.7996700   -61.7966200 -127.3909000   -58.5178000 -105.4456000
 		     -64.1614800 -114.4981000   -55.1815000 -105.2110000    -0.3280194  -51.8995200   -34.0824100   66.1743100
 		     -62.8952600  -73.3686300   -66.5817100  145.5774000   -34.1080400   66.2708600    -0.3280560  -51.8621500
   14357950000    -0.2771426  -28.0009500   -25.7463500   67.7366600   -62.5675500 -123.8548000   -63.4460800  -99.6611000 
 		     -25.9048700   66.9528700    -0.2508578  -27.9085800   -63.2323300  -98.8556200   -65.4760300 -109.7613000
 		     -57.4411900 -118.1834000   -57.4564800 -158.6964000    -0.3243974  -52.1931000   -34.2621200   68.2346100
 		     -64.1821000 -144.7853000   -73.2883400 -174.8444000   -34.2739900   67.3180200    -0.3463352  -52.2195300
   14427940000    -0.2567929  -28.1834000   -25.7320900   67.1964300   -58.9733100 -147.1887000   -64.1282400  -85.4598900 
 		     -25.8002300   68.1074500    -0.2585083  -27.9725600   -60.9134100  -74.1121200   -58.3772300  -93.6673000
 		     -61.6456400 -136.5169000   -60.1977100  -57.0632700    -0.3343374  -52.4091300   -34.3936500   67.5273000
 		     -57.1487000 -122.4996000   -67.3155600 -133.3557000   -34.7408700   67.7008700    -0.3458648  -52.4272600
   14497930000    -0.2605802  -28.2329000   -26.0218500   66.5618400   -61.2151100 -109.0237000   -64.2242500 -111.3151000 
 		     -25.8168600   67.3860000    -0.2560256  -28.2250500   -61.6083900 -107.7069000   -63.1413700 -144.7686000
 		     -60.1187900 -127.6125000   -59.3946900 -122.2777000    -0.3326893  -52.6838100   -34.6151800   68.6048700
 		     -66.2619700  -66.0340000   -63.6432500 -165.6558000   -34.5720800   68.3914900    -0.3486927  -52.6498800
   14567920000    -0.2707466  -28.3574700   -25.8954000   66.7646300   -61.2912200 -122.2976000   -60.8534000 -112.9207000 
 		     -25.7899900   67.3643500    -0.2698474  -28.2494400   -61.7497600 -128.3122000   -62.5082600  -78.3319500
 		     -65.2186700 -119.4970000   -60.1959700  -91.4441900    -0.3281267  -52.8542000   -34.6460600   69.0414900
 		     -60.6249600 -161.2048000   -60.0398600 -125.8949000   -34.6341900   68.8357700    -0.3486893  -52.8749200
   14637910000    -0.2773316  -28.5016200   -25.7149200   67.6156300   -66.2279100 -136.3172000   -59.7598800 -135.8680000 
 		     -25.8060000   66.3224000    -0.2705807  -28.4122800   -63.1126700 -125.1228000   -58.1048000 -122.1337000
 		     -59.0882800 -103.6713000   -67.1040600  130.2057000    -0.3290307  -53.1332400   -34.7834000   70.0942100
 		     -61.9283100 -179.1510000   -53.7563300 -114.2714000   -34.8967300   70.8969000    -0.3391239  -53.1569700
   14707900000    -0.2578402  -28.7282000   -25.6776700   67.2338400   -64.3204200 -100.2686000   -61.0975300 -106.1241000 
 		     -25.7534800   66.7582600    -0.2660395  -28.5930400   -61.5024600 -140.3326000   -63.6467600 -108.6423000
 		     -64.0426100 -132.5698000   -57.5283900 -144.2949000    -0.3284377  -53.3651900   -34.9319300   70.9115200
 		     -65.1307000 -139.4378000   -64.6250000  -90.5754500   -35.0027700   70.5094600    -0.3397635  -53.4184000
   14777890000    -0.2598382  -28.7516500   -25.7257000   67.2680200   -63.8150000 -104.4233000   -62.0444000 -128.1344000 
 		     -25.7662700   67.4934600    -0.2635581  -28.7390700   -64.6912700 -111.3457000   -57.9368600 -133.8622000
 		     -70.1576900   -6.8579530   -63.0730400  -82.2534200    -0.3308570  -53.7286000   -35.1537900   70.3321500
 		     -63.8802300 -121.8323000   -61.2534800 -162.4311000   -35.2557000   71.7399800    -0.3510613  -53.7155500
   14847880000    -0.2753122  -28.8992700   -25.8839300   67.0317600   -60.8993600 -133.5666000   -59.4416600 -131.5651000 
 		     -25.7193500   67.0405300    -0.2661510  -28.7003500   -60.6792400 -125.1867000   -58.8336000 -128.4658000
 		     -62.3372900 -109.1486000   -63.4544600 -112.4883000    -0.3368571  -53.9253000   -35.2228400   72.3211400
 		     -59.1005200 -110.9205000   -55.7241400 -125.3861000   -35.2583000   71.1293300    -0.3495637  -53.8983000
   14917870000    -0.2727337  -29.0715900   -25.8130900   66.7038200   -60.9249300 -149.5945000   -66.2859300 -140.0202000 
 		     -25.6945000   67.3159300    -0.2698441  -29.0156100   -66.5601500 -139.2706000   -59.8767100 -141.6559000
 		     -65.4628600 -112.3674000   -68.1572900  -30.7925100    -0.3279544  -54.1688600   -35.3598600   72.4840400
 		     -59.8342000 -148.4822000   -65.1155200   13.4110700   -35.4783200   72.6813000    -0.3586512  -54.2278100
   14987860000    -0.2712910  -29.1413200   -25.7128300   67.2977500   -62.3411700 -121.3826000   -63.7802500 -125.7811000 
 		     -25.6585000   66.7497000    -0.2750265  -29.0338900   -64.3871400 -122.7056000   -65.0892200 -131.4860000
 		     -59.7892600 -113.8527000   -62.3348800 -109.9823000    -0.3398178  -54.4338500   -35.5872200   73.4528000
 		     -62.6132600 -126.2803000   -71.5113800 -136.1333000   -35.6358300   73.0649900    -0.3467810  -54.4325900
   15057850000    -0.2719524  -29.2726200   -25.7191400   65.8808900   -61.6398500 -114.6269000   -64.9911400 -102.6510000 
 		     -25.6810900   67.6996500    -0.2799868  -29.2494800   -59.7415000 -138.8405000   -61.4673000 -102.6713000
 		     -65.8033900 -112.5693000   -66.6834900  170.6503000    -0.3309179  -54.6791800   -35.6056900   74.3094900
 		     -66.7880300 -134.3222000   -63.3478600 -101.6011000   -35.7963000   73.3321200    -0.3512982  -54.6228500
   15127840000    -0.2760178  -29.3954300   -25.7487000   65.7794700   -59.8838700 -131.5778000   -61.3160400 -122.2300000 
 		     -25.7340800   66.8149600    -0.2736081  -29.3266500   -63.0123500 -115.4086000   -66.3493400 -142.5001000
 		     -59.7823800 -143.1214000   -59.0315900 -109.6181000    -0.3348642  -55.0131500   -35.9119600   76.3807700
 		     -59.2790300 -137.2403000   -57.1579000 -131.0134000   -35.9138600   75.4406100    -0.3505525  -54.8789000
   15197830000    -0.2692976  -29.6040100   -25.4743100   66.0810600   -64.2117900 -124.3561000   -63.5466300 -141.9048000 
 		     -25.6609200   66.3373000    -0.2988202  -29.5297800   -61.7516400 -134.4857000   -61.2741400 -151.7713000
 		     -65.6363800 -129.8555000   -63.5137400   82.9189900    -0.3456795  -55.2489900   -35.9304800   76.8176500
 		     -63.4721800 -160.1291000   -59.5897400  169.5776000   -36.0240200   76.9154900    -0.3567412  -55.2355100
   15267820000    -0.2952354  -29.7207200   -25.6687100   66.0711100   -65.1653200 -116.6021000   -62.1951400 -136.0523000 
 		     -25.7172100   66.4713900    -0.2741816  -29.6435700   -60.7050700 -150.8017000   -60.9475400 -128.1114000
 		     -62.1615800 -155.8695000   -55.8457700 -117.5618000    -0.3382865  -55.4825800   -36.1763200   77.1286300
 		     -63.0907000 -141.4147000   -61.9148700 -162.0207000   -36.1600300   77.4910000    -0.3596966  -55.4837100
   15337810000    -0.2786930  -29.8824100   -25.7524300   66.8068400   -61.7380200 -112.7684000   -63.8800500 -130.2272000 
 		     -25.5747800   66.1621600    -0.2778931  -29.8636700   -69.4041900 -137.1781000   -61.1867900 -167.3806000
 		     -57.5113100 -110.8909000   -62.8608500 -115.0649000    -0.3508304  -55.8441400   -36.2752100   80.2059300
 		     -59.9929400 -139.5011000   -70.8970000  -42.8005000   -36.3001400   78.4247900    -0.3506564  -55.7736500
   15407800000    -0.2748007  -30.0609400   -25.6803100   66.2937100   -63.2030400 -149.0260000   -62.5785600 -171.3721000 
 		     -25.6511100   65.7751800    -0.2805203  -29.8874100   -63.2135200 -149.3328000   -61.2566200 -119.2037000
 		     -65.3853300 -163.5044000   -55.1019500 -141.6403000    -0.3412868  -56.0361400   -36.6687300   79.3271400
 		     -62.1700700 -140.7952000   -67.2986100 -173.1485000   -36.4662700   80.9526200    -0.3678730  -56.0764500
   15477790000    -0.2892808  -30.1008300   -25.7489400   67.2892000   -64.2334000 -155.3055000   -63.8695000 -155.4178000 
 		     -25.6963500   66.4509600    -0.2698890  -29.9466200   -67.8979400 -136.1135000   -61.0031400 -156.1824000
 		     -58.0699100  -90.7605100   -71.9425400  -60.3667700    -0.3527638  -56.3215700   -36.6171700   81.8686800
 		     -65.6719700 -120.9967000   -58.1867100  -98.9475900   -36.8215900   81.5408400    -0.3656489  -56.2408600
   15547780000    -0.2987609  -30.3546400   -25.6549400   65.2121900   -64.8369400 -110.1943000   -61.9634900 -129.5917000 
 		     -25.6828200   65.0093900    -0.2775220  -30.2023200   -62.4825900 -104.3672000   -64.3446300 -158.5893000
 		     -62.3632600 -136.1326000   -61.6743500 -153.2762000    -0.3590415  -56.5626700   -36.7856500   83.3970900
 		     -59.5859700 -122.7116000   -58.4722100 -140.0002000   -36.7711900   83.5404700    -0.3602867  -56.4963600
   15617770000    -0.3170931  -30.5208800   -25.7175900   65.3140000   -61.5833700 -159.2334000   -63.3888200 -155.6278000 
 		     -25.7412200   66.2593100    -0.2942517  -30.3731500   -62.3206700 -126.3608000   -63.0986000  -99.0859100
 		     -64.3000900  -99.0638400   -59.8679700 -142.2276000    -0.3620856  -56.8523800   -37.1332800   84.4715900
 		     -58.0316200 -146.1277000   -67.0573600 -133.0013000   -37.1655500   84.2089800    -0.3730001  -56.8234400
   15687760000    -0.3217525  -30.5511700   -25.5574300   66.4461300   -65.1853100 -133.1051000   -60.4488000 -140.1527000 
 		     -25.6747700   65.6585800    -0.2754855  -30.4639800   -62.0637000 -149.9853000   -66.3533600 -150.2620000
 		     -66.6881600 -138.8875000   -66.1984200  143.2493000    -0.3680981  -57.1093100   -37.1064600   86.5020400
 		     -58.4505400 -155.4471000   -55.8271400 -150.0197000   -37.2358700   87.3214300    -0.3901966  -57.0446200
   15757750000    -0.2981284  -30.6313900   -25.4941900   66.7486600   -65.0828900 -139.5153000   -64.8711400 -133.9024000 
 		     -25.7056100   65.2096500    -0.2636687  -30.6204400   -66.1143800 -136.2550000   -64.6336100 -166.5573000
 		     -63.7352800 -142.2686000   -64.4295200 -149.3799000    -0.3572348  -57.3188700   -37.4665100   88.8552500
 		     -70.0074200  173.2190000   -58.7619600  106.2253000   -37.4263000   87.0966800    -0.3680409  -57.3897500
   15827740000    -0.2844061  -30.8727800   -25.5880300   66.6526500   -62.3099500 -118.3952000   -65.2889300  -99.0763100 
 		     -25.5743000   65.3200300    -0.2971232  -30.7270700   -62.4046300 -152.7481000   -61.5119500 -149.0958000
 		     -70.1231500 -131.8035000   -59.8003800 -154.9394000    -0.3746059  -57.6047100   -37.5975800   89.5308100
 		     -63.5348700  170.0976000   -56.1989000  147.5198000   -37.4729400   89.0341200    -0.3852761  -57.5779800
   15897730000    -0.2945201  -30.8959000   -25.6516500   65.9405700   -65.4449500 -152.1507000   -67.5599400 -132.3958000 
 		     -25.7064700   64.7849000    -0.2895800  -30.8226000   -64.6105000 -142.8172000   -62.7691300 -121.6102000
 		     -64.0281000 -152.9845000   -61.2443300 -168.0306000    -0.3679961  -57.8597600   -37.6009300   91.1665600
 		     -64.4606300 -102.6077000   -62.8515900  103.3087000   -37.5520100   91.3290500    -0.3919290  -57.8770900
   15967720000    -0.2940159  -31.0236700   -25.6000100   65.5492800   -64.9143300 -134.3419000   -62.9641100 -147.3200000 
 		     -25.5642500   65.3377500    -0.2830169  -31.0016000   -63.2831000 -142.8830000   -65.8025200 -144.8720000
 		     -65.6812700 -174.8167000   -74.5613300   92.9646600    -0.3722174  -58.0846300   -37.5080500   93.3012900
 		     -65.0735300  151.3487000   -62.3468800  167.3408000   -37.7781900   93.8546100    -0.3784966  -58.0962600
   16037710000    -0.3076522  -31.2200800   -25.7016500   66.0688400   -64.1316300 -144.1630000   -69.0267900 -144.7039000 
 		     -25.5669300   64.2732200    -0.2974334  -31.1427200   -65.5382700 -123.1003000   -60.0192000  179.3283000
 		     -70.5561500 -149.5089000   -60.4545900 -124.0438000    -0.3801540  -58.3834700   -38.0909800   96.9249300
 		     -64.2232600 -149.9608000   -56.2713400 -140.6411000   -37.9153900   95.7163800    -0.4075778  -58.3957900
   16107700000    -0.3022140  -31.4522400   -25.7224000   65.5606000   -62.2045600 -134.1383000   -68.4255900 -110.8704000 
 		     -25.6516800   65.2009200    -0.3008835  -31.2543200   -66.8226500  153.6490000   -64.1182100 -162.5843000
 		     -71.9540100  -76.3887300   -59.2629900 -107.0018000    -0.3875462  -58.6131500   -37.8639500   99.2179700
 		     -61.6073800 -122.8248000   -64.7244200  163.9863000   -37.9302300   99.7158300    -0.4017990  -58.6010400
   16177690000    -0.2949079  -31.4951100   -25.5469700   66.4928700   -66.0921300 -134.2574000   -63.4975000 -113.1582000 
 		     -25.7636400   65.0462300    -0.3022287  -31.5157000   -67.2844800 -158.5374000   -62.5493300 -140.3147000
 		     -59.6102000 -136.0692000   -69.2945200 -117.7038000    -0.3790158  -58.8916500   -37.9883900  101.2565000
 		     -61.1892500 -119.0869000   -58.9434400  -77.4937200   -37.9400200  101.1186000    -0.3987978  -58.8738300
   16247680000    -0.2973840  -31.7128900   -25.6310400   64.1944000   -69.4268900 -151.0508000   -63.1008500 -137.0531000 
 		     -25.7623900   64.7530400    -0.2903938  -31.3921900   -60.7080700 -154.7801000   -66.1465300 -145.5925000
 		     -62.1944400 -110.4647000   -85.0111000  129.6698000    -0.3838116  -59.1611100   -37.8681300  102.6784000
 		     -64.8070800  150.6000000   -58.7680100 -116.4629000   -37.9359400  102.2401000    -0.3944466  -59.1505100
   16317670000    -0.3031424  -31.8467900   -25.6723200   65.3472300   -60.8472500 -138.7370000   -69.9998300 -143.4351000 
 		     -25.6712000   65.5839300    -0.3046210  -31.6300900   -69.3156400 -160.8442000   -64.0662700 -147.2046000
 		     -56.8001100 -131.6001000   -61.5466600  -70.0603500    -0.3860951  -59.3425600   -38.0568600  105.8588000
 		     -59.8627400 -133.1710000   -54.9508900  173.7528000   -37.8136400  106.9985000    -0.4113087  -59.3900600
   16387660000    -0.3060043  -31.9501700   -25.6218500   66.0570800   -64.2037300 -137.2425000   -65.1196000 -126.4193000 
 		     -25.7514400   64.9147800    -0.3009898  -31.7565900   -66.0453300 -124.7241000   -66.2484500 -168.4373000
 		     -65.3131900 -123.6570000   -67.0467700  177.5051000    -0.3844131  -59.6773700   -38.1538800  107.6207000
 		     -64.9546700 -110.2312000   -56.6196000 -106.4420000   -38.1135800  109.0773000    -0.4066758  -59.7348600
   16457650000    -0.3135088  -32.1026400   -25.5377300   64.0857900   -61.2848200 -104.7071000   -61.2140500 -134.9856000 
 		     -25.6891700   63.8378200    -0.3086129  -31.8939700   -66.3331900 -123.4834000   -69.5146600 -142.6052000
 		     -65.1065900  162.1111000   -67.2308200   79.5746300    -0.3855666  -59.9637700   -38.0877300  110.7699000
 		     -57.9716700 -166.6912000   -70.2193100 -105.5744000   -38.0414500  110.1983000    -0.3997771  -59.8548000
   16527640000    -0.3061751  -32.1514400   -25.6481600   64.3853500   -61.7769900 -156.9489000   -61.7686100 -170.7527000 
 		     -25.7490900   64.8486100    -0.3075739  -31.9598700   -62.2765300 -167.2181000   -63.6884200 -165.7969000
 		     -59.9738100 -163.6844000   -72.2801100 -136.4972000    -0.3949693  -60.1711300   -38.1212500  111.7734000
 		     -66.0400800 -172.2260000   -64.7277700   17.2982600   -38.1314800  112.3028000    -0.4220656  -60.0846800
   16597630000    -0.3126016  -32.2461900   -25.8874000   64.2502800   -62.3842500 -150.8885000   -63.0340500 -142.1308000 
 		     -25.6046100   64.0426400    -0.3085518  -32.2481500   -63.5975000 -154.6991000   -58.9413400 -141.7254000
 		     -67.4244500 -166.7723000   -58.7481900    8.2481690    -0.3966883  -60.4096200   -38.0242000  114.7438000
 		     -66.0176100 -101.8682000   -62.7041300 -118.1897000   -38.1466600  115.5079000    -0.4254069  -60.3604700
   16667620000    -0.3237623  -32.4120000   -25.7415600   64.4752800   -64.1134000 -149.1395000   -62.6283600 -158.0148000 
 		     -25.7440200   64.7297800    -0.3335172  -32.2519000   -64.7526300 -160.3599000   -63.3303300 -170.7790000
 		     -64.9753000 -164.8824000   -61.7859600 -139.1812000    -0.3949852  -60.6787800   -37.7536300  117.4882000
 		     -65.4980400    1.4855950   -56.6173100  171.1620000   -37.8817500  117.2150000    -0.4088768  -60.6064000
   16737610000    -0.3205799  -32.5426100   -25.5656500   64.3335100   -66.5557600 -127.3876000   -59.5763200 -131.6177000 
 		     -25.8721800   63.9225500    -0.3158391  -32.4614700   -64.9344800 -134.6408000   -64.0171700 -144.9088000
 		     -58.5118500 -163.4727000   -56.6572900 -145.6175000    -0.4063338  -60.8724100   -37.7615500  119.5976000
 		     -70.9604000 -157.7090000   -54.7959900 -152.6225000   -37.7324200  121.0968000    -0.4119886  -60.8216200
   16807600000    -0.3053019  -32.6453700   -25.6631500   64.6317400   -60.5640600 -136.7332000   -60.6574600 -136.2192000 
 		     -25.7682600   64.4653200    -0.3108486  -32.5512600   -61.4638400 -137.7831000   -62.8531300 -151.8644000
 		     -59.0788900 -155.1747000   -60.7875200 -178.3503000    -0.4013183  -61.1237700   -37.7360600  122.6054000
 		     -71.3224300 -149.7218000   -60.3278100 -115.5490000   -37.7485400  122.4891000    -0.4191610  -61.1347900
   16877590000    -0.3170639  -32.7850800   -25.7092900   64.8493700   -62.0168700 -141.5943000   -60.4724500 -131.1149000 
 		     -25.7557400   64.4528000    -0.3301542  -32.6528500   -67.1147300 -103.9588000   -62.7160300 -139.5006000
 		     -67.0562300 -141.5901000   -60.9920200 -148.9494000    -0.3958891  -61.4256900   -37.7096900  125.6261000
 		     -63.8838900  169.3568000   -56.0789200 -106.8741000   -37.5523000  124.4079000    -0.4064142  -61.3591100
   16947580000    -0.3310651  -32.8485300   -25.7854300   64.5258600   -61.3996800  179.2485000   -59.8573600 -121.4802000 
 		     -25.6806500   64.2945100    -0.3193198  -32.7623000   -64.6097300 -122.6526000   -63.0876000 -131.6222000
 		     -64.8209700  125.7869000   -61.4886900 -120.7413000    -0.4039098  -61.7188300   -37.4294100  127.5258000
 		     -59.1568500 -132.5996000   -65.6470200  168.6507000   -37.5295800  126.7388000    -0.4347865  -61.6390600
   17017570000    -0.3114214  -33.0419500   -25.6451200   64.5504200   -61.9384400 -144.4559000   -59.9147800 -145.2195000 
 		     -25.6967900   64.5294000    -0.3209714  -33.0233200   -61.2616000 -174.6672000   -58.5972600 -172.0278000
 		     -71.2888400  164.1865000   -58.1153700 -143.2149000    -0.4020148  -61.8426600   -37.2522500  128.6195000
 		     -65.5592300  149.1426000   -55.8861000 -165.6818000   -37.1905300  128.1154000    -0.4310852  -61.8294800
   17087560000    -0.3199673  -33.1725200   -25.7627700   63.6101600   -65.0120600 -140.5663000   -62.7333800 -127.7925000 
 		     -25.6960600   64.3222700    -0.3099903  -33.2322200   -61.3087100 -130.8054000   -65.8805800 -169.5132000
 		     -67.5040100  161.5273000   -64.1628200 -155.5266000    -0.3970562  -62.1910200   -37.1166000  131.8261000
 		     -59.6791100 -142.0112000   -74.8211900 -136.1164000   -37.5234900  130.3049000    -0.4248707  -62.1835200
   17157550000    -0.3354324  -33.4891000   -25.5828800   63.2603800   -58.6567500 -164.9653000   -61.1986100 -140.7227000 
 		     -25.5966500   64.7572300    -0.3209786  -33.2454200   -61.3023000 -132.7458000   -61.4993800 -146.5874000
 		     -66.6546900 -169.0908000   -70.7696500 -125.8714000    -0.4071881  -62.5514000   -36.6327900  134.3645000
 		     -64.2535600  107.6011000   -59.0713200 -143.1214000   -37.1167300  131.2439000    -0.4161113  -62.5136600
   17227540000    -0.3100350  -33.4128900   -25.9169300   63.9957800   -59.9041800 -165.4755000   -64.1012400  163.5158000 
 		     -25.6072100   64.2975800    -0.3026916  -33.1990100   -59.6300700 -175.9835000   -58.5241000 -128.7621000
 		     -60.2353500 -152.1855000   -75.8739200  -83.9144000    -0.4160395  -62.7414500   -36.6347800  134.5650000
 		     -60.2031600 -153.3399000   -65.4636700  141.8295000   -37.0049600  135.5281000    -0.4290214  -62.6380600
   17297530000    -0.3257141  -33.7037200   -25.7485100   65.4687300   -61.1018300 -147.8138000   -60.3482400 -155.0127000 
 		     -25.7803900   64.3553200    -0.3194293  -33.6177900   -60.1391600 -174.7234000   -56.4557000 -146.5961000
 		     -54.4490700 -131.2627000   -74.5493100  119.4522000    -0.4089878  -63.0046300   -36.5787400  137.3428000
 		     -68.6906300  166.0074000   -62.0156300  -56.4609700   -36.7813000  136.6853000    -0.4218305  -63.0318800
   17367520000    -0.3429392  -33.8528600   -25.9540500   65.3597600   -66.1649200 -167.1795000   -60.8680000 -154.0976000 
 		     -25.9309000   64.5308300    -0.3466494  -33.5990200   -60.8495800  165.5290000   -58.3453800 -172.2246000
 		     -55.8923800 -155.7928000   -81.7095600 -149.5524000    -0.4228450  -63.2973100   -36.4034400  140.9238000
 		     -60.7688700  125.5841000   -66.3779200  -72.4474900   -36.3337400  136.8674000    -0.4528902  -63.2583200
   17437510000    -0.3175579  -33.7575600   -25.6630400   64.1117800   -61.0219000 -168.6685000   -58.2023800 -173.7648000 
 		     -25.8280900   63.5456500    -0.3204550  -33.7841800   -67.6485100 -149.1746000   -64.1291900 -150.2515000
 		     -56.4141000  153.2747000   -60.8538600 -173.7820000    -0.4179016  -63.4722900   -36.0423200  140.8444000
 		     -61.3591900 -137.8110000   -61.2686400 -170.3201000   -36.1117700  141.4796000    -0.4306958  -63.4230000
   17507500000    -0.3366815  -34.0157500   -25.9004000   64.4688900   -62.2387000  171.6712000   -57.4106700 -165.2443000 
 		     -25.7200200   64.7467800    -0.3175023  -33.8487800   -59.1619700 -176.3241000   -60.8064300 -155.4965000
 		     -58.3352400 -178.6057000   -59.1752700 -179.1306000    -0.4044996  -63.8020500   -36.0466400  143.2524000
 		     -68.6652100 -140.7467000   -58.2842400  135.1632000   -36.1008900  143.9540000    -0.4353571  -63.8369700
   17577490000    -0.3280652  -34.1744800   -25.9554300   64.1428700   -59.7710200  157.9771000   -61.6017000  170.1048000 
 		     -25.8579700   64.4187100    -0.3194223  -34.1255500   -65.7201300 -162.7454000   -63.6437300  163.9953000
 		     -62.9851200  151.8681000   -68.6145600  153.7812000    -0.4172917  -64.1885400   -35.8258200  144.1620000
 		     -73.9557600 -139.9225000   -54.8820000  145.7064000   -35.6203300  144.0790000    -0.4390326  -63.9799200
   17647480000    -0.3266113  -34.3557100   -25.6955800   64.0054900   -64.7856900 -173.7471000   -63.2994100 -171.9312000 
 		     -25.7660700   64.8996400    -0.3263766  -34.2285900   -62.4268800 -175.4050000   -61.7555100 -169.5130000
 		     -57.3385200 -177.8139000   -58.9453900 -108.1651000    -0.4054237  -64.2986500   -35.4008700  145.7454000
 		     -60.1435700  170.3802000   -53.2452500 -155.4628000   -35.2389500  145.2786000    -0.4232922  -64.2114600
   17717470000    -0.3263052  -34.4343800   -25.6600400   63.4321800   -60.3900800 -178.1373000   -74.3743700 -160.2842000 
 		     -25.6998200   63.5563400    -0.3244414  -34.3536700   -58.0682700  177.6931000   -59.5561800  177.9151000
 		     -56.6018000 -148.8502000   -61.0580400  153.4787000    -0.4082677  -64.6351200   -35.2273200  147.1777000
 		     -55.8685700  143.1048000   -53.5404800 -154.6259000   -35.2814100  147.2495000    -0.4421136  -64.5930300
   17787460000    -0.3322451  -34.6173600   -25.7610400   64.4980200   -63.2974300 -164.9145000   -61.0720300 -166.7094000 
 		     -25.7945900   63.9258500    -0.3446296  -34.4998300   -60.6386600 -146.5520000   -66.9285200 -153.7341000
 		     -60.1527700 -143.1744000   -59.0354600 -165.2945000    -0.4344938  -64.9170100   -34.8428800  149.0031000
 		     -58.3929100  173.1187000   -55.9449200 -176.5309000   -34.8775500  148.4869000    -0.4516704  -64.7764300
   17857450000    -0.3331866  -34.6970700   -25.8025500   63.9894400   -61.9666700 -176.0368000   -60.0828000 -169.2713000 
 		     -25.8947400   62.7496200    -0.3282802  -34.6598200   -66.6825000  177.0851000   -58.4267000 -179.4797000
 		     -57.8554100 -114.8124000   -56.3752400 -159.7530000    -0.4292905  -65.1802400   -34.7913900  151.9188000
 		     -74.4229700  -40.7203800   -62.3511800  179.8332000   -34.7292600  151.6594000    -0.4483573  -65.0562400
   17927440000    -0.3216922  -34.7147600   -25.8922900   63.5433800   -57.1863600 -168.3970000   -61.5193600 -169.2709000 
 		     -25.6647700   63.9199100    -0.3352011  -34.9641000   -62.0167700 -153.1012000   -60.1788300 -175.5349000
 		     -68.6472500  144.4717000   -58.0687600   83.2961200    -0.4293832  -65.3988500   -34.4923000  150.4430000
 		     -61.8045600  115.1754000   -54.1964600 -107.9718000   -34.5996800  152.5066000    -0.4490982  -65.3650200
   17997430000    -0.3513314  -34.8880500   -25.9528900   64.7911800   -58.0846600  177.3638000   -59.8322600  157.8642000 
 		     -26.0280600   63.4249600    -0.3435054  -35.0303600   -61.9441800 -167.1566000   -65.0607400 -161.7013000
 		     -56.3464200  159.1358000   -65.5444500 -122.9057000    -0.4445133  -65.7354400   -34.2092500  153.0847000
 		     -56.7517500 -171.2279000   -55.6080500  144.7480000   -34.2304000  151.7878000    -0.4404120  -65.4931900
   18067420000    -0.3311950  -35.1453100   -25.9259100   64.6097900   -62.3208200 -161.2435000   -58.4119600 -148.5383000 
 		     -25.9749000   63.4217300    -0.3397411  -34.9863000   -66.5997200  150.9117000   -65.5105700 -150.5740000
 		     -57.7327700  171.7025000   -72.7636300  144.7177000    -0.4404505  -65.8389200   -34.0396500  152.9705000
 		     -58.4024700  152.3544000   -59.9464200   24.3214300   -34.2261000  153.3511000    -0.4679654  -65.8464700
   18137410000    -0.3299110  -35.2584000   -25.8446700   63.8433400   -60.7703300  159.0000000   -62.5881200 -159.6840000 
 		     -25.8159200   65.3047800    -0.3813965  -35.1620400   -59.0691000  169.2022000   -59.2583100  152.1190000
 		     -56.7254500  170.3751000   -64.3278300 -125.0416000    -0.4332970  -66.2132600   -33.9327200  155.0586000
 		     -59.0117700  171.9822000   -55.1136000  112.5737000   -34.0395900  154.7645000    -0.4453709  -66.1168800
   18207400000    -0.3486366  -35.2502600   -25.7369100   62.9269300   -61.6741900  171.8661000   -64.3233800  178.0528000 
 		     -25.8543500   64.2740100    -0.3560477  -35.1395600   -68.9352600  174.5136000   -65.8680000  162.4362000
 		     -68.2209000 -130.3015000   -58.5556000  128.4662000    -0.4394573  -66.4734300   -33.7358800  155.3616000
 		     -55.9028200 -168.0968000   -67.4529600 -133.2639000   -33.4527700  156.4030000    -0.4665777  -66.3933000
   18277390000    -0.3425882  -35.3126100   -26.0238000   64.3641500   -62.6185100 -175.7717000   -62.5333600  173.4350000 
 		     -25.8488800   63.1611700    -0.3202655  -35.2683900   -64.8047700  173.8948000   -66.1781700 -150.6136000
 		     -63.6463600 -178.0027000   -53.1995800  145.4839000    -0.4491484  -66.6871700   -33.5049200  157.0170000
 		     -59.1950000  172.0385000   -69.4879300   -6.3555520   -33.1297400  156.4629000    -0.4527146  -66.6205800
   18347380000    -0.3509474  -35.5587700   -25.8635000   63.9320600   -67.2103300  162.6604000   -65.6334600  155.7587000 
 		     -25.9166200   63.9172700    -0.3423042  -35.4860700   -59.9511300 -163.6978000   -59.1642200  155.2542000
 		     -64.5302800 -166.1146000   -62.5063200   96.6825500    -0.4248254  -67.0022800   -32.9076300  157.5302000
 		     -68.6985800 -134.9142000   -58.1681300 -100.4086000   -33.2698000  157.8931000    -0.4626128  -67.0324300
   18417370000    -0.3423975  -35.6528700   -25.8618900   64.5507500   -60.7474700  162.0589000   -59.4787700  129.3472000 
 		     -25.9521100   63.7741700    -0.3696923  -35.6412400   -63.8373900  125.5295000   -67.7068900 -169.5949000
 		     -64.2941000 -124.6143000   -59.5596500  154.1016000    -0.4454586  -67.2613900   -32.7736500  158.3018000
 		     -60.8890200 -136.7087000   -59.1653700  121.5413000   -32.8264500  158.0868000    -0.4566082  -67.0993100
   18487360000    -0.3553122  -35.8154400   -26.0395800   61.2349300   -63.0271900  171.7817000   -59.8254500  164.2877000 
 		     -25.8414200   63.3295100    -0.3537135  -35.6095000   -62.7808400  157.5159000   -63.3827400  161.5838000
 		     -57.1359900 -172.4809000   -63.8122400 -119.8953000    -0.4652755  -67.4572400   -32.6438400  159.1133000
 		     -65.8906300 -148.2969000   -53.7951600 -157.9650000   -32.6903600  158.8003000    -0.4703169  -67.4461900
   18557350000    -0.3349637  -36.0550800   -25.7638100   63.8491600   -60.8761900  156.8252000   -63.0348400 -175.6181000 
 		     -25.7929300   64.0833800    -0.3199913  -36.0084600   -62.7904900  135.9105000   -62.2184700  154.7993000
 		     -62.8419500  166.3884000   -66.5816300  -34.8452600    -0.4451798  -67.6980800   -32.4793600  158.9299000
 		     -60.8767400 -152.0917000   -63.2416200  172.0990000   -32.4743700  159.2561000    -0.4782576  -67.8147100
   18627340000    -0.3609333  -36.2754400   -25.9736900   62.7842600   -57.8173800  167.2428000   -57.9386500  163.4536000 
 		     -26.0606300   65.0363800    -0.3533790  -36.2473100   -66.4960900  169.8476000   -59.1421400  143.6772000
 		     -84.5931100   49.1171300   -83.4850400   51.2881900    -0.4529620  -68.0225900   -32.1031600  161.1200000
 		     -64.0054400  152.6870000   -57.5277100   84.7706500   -32.2263600  161.5037000    -0.4638949  -67.9111600
   18697330000    -0.3468126  -36.3157300   -25.7197500   64.4897300   -59.1422700 -175.6351000   -60.4337900  142.3961000 
 		     -26.0775000   64.7418100    -0.3254775  -36.3255000   -63.7106800  157.0914000   -60.9170300  172.0683000
 		     -58.5902300  125.2521000   -64.8874500  119.3573000    -0.4637489  -68.2371400   -31.9779600  161.3388000
 		     -68.0770000  111.4559000   -58.5997900 -107.0223000   -32.0041400  161.1817000    -0.4798502  -68.2441600
   18767320000    -0.3534018  -36.3612900   -26.1681900   64.7346300   -60.6052800  172.9398000   -60.2699400  169.8396000 
 		     -25.9151600   63.2648700    -0.3449667  -36.3544800   -66.5102200  176.2316000   -60.6696900  168.1171000
 		     -61.9191900  150.8195000   -74.5335200  -15.6643100    -0.4387029  -68.5397100   -31.6503100  161.6833000
 		     -67.2104000 -112.0801000   -54.3938000 -131.4490000   -31.6299200  161.5306000    -0.4915584  -68.4984700
   18837310000    -0.3489715  -36.5262600   -26.0071400   63.7171700   -63.9680100  155.0600000   -66.0341500 -134.9629000 
 		     -25.8777000   63.3542600    -0.3640210  -36.3184100   -59.9464100 -122.0414000   -58.4736300 -158.1482000
 		     -60.0936800  179.3179000   -60.8635100 -123.4417000    -0.4504237  -68.7293100   -31.4291700  161.7695000
 		     -61.1224800 -176.6685000   -58.3084100  146.9523000   -31.4352300  161.5637000    -0.5086297  -68.7281300
   18907300000    -0.3573174  -36.7237900   -26.2219700   65.1329700   -67.4308900   95.8258100   -66.2745100 -124.3894000 
 		     -26.0127500   63.9570700    -0.3479679  -36.6213700   -64.2263600 -167.3659000   -62.7589100 -172.7871000
 		     -61.1322400  161.7675000   -61.4306100  112.6115000    -0.4744180  -69.0358000   -31.3533200  162.8885000
 		     -70.4639700  128.3891000   -56.1267900  129.2502000   -31.4278500  163.4885000    -0.4933187  -68.9921600
   18977290000    -0.3493786  -36.9380000   -26.0529800   64.3870900   -63.3668200  143.8602000   -63.3862500 -153.9137000 
 		     -26.0134700   62.1851800    -0.3693685  -36.7022400   -62.8156400  178.0410000   -59.8137500  150.0798000
 		     -64.2332800 -156.5397000   -64.9040500  122.9472000    -0.4724175  -69.3442600   -31.0668100  163.1716000
 		     -53.6714000  176.7565000   -70.4574100   62.8098600   -31.1181300  162.8366000    -0.4976107  -69.2088900
   19047280000    -0.3564378  -37.0405800   -25.9684400   63.5224800   -61.3712300  145.4992000   -60.9387400  169.7352000 
 		     -26.1186000   63.1960600    -0.3431928  -36.8594200   -59.5124100  170.6696000   -71.0875000  112.8484000
 		     -56.3242400  128.9219000   -62.1848000  111.7708000    -0.4835439  -69.6155200   -30.8498300  164.6379000
 		     -64.3893600 -175.3219000   -58.6609700   60.9020400   -30.8745400  164.4535000    -0.4932760  -69.4816700
   19117270000    -0.3614720  -37.1091000   -25.9532900   62.8358000   -62.0834200  156.7273000   -62.2339100  154.3199000 
 		     -25.8980200   62.8048300    -0.3744829  -37.0637300   -61.1340900  163.5468000   -62.2188000  165.0789000
 		     -58.0788900  121.2200000   -58.4511000  115.1649000    -0.4859138  -69.8182800   -30.7001100  164.0415000
 		     -66.1190100   74.9887600   -65.2650400  103.3548000   -30.6910300  165.1225000    -0.5101564  -69.7640600
   19187260000    -0.3828703  -37.2242900   -26.2007700   64.4507200   -60.6420900 -171.3083000   -61.9650700  142.5375000 
 		     -26.0656400   63.3807600    -0.3768236  -37.1429200   -66.1635100  127.4199000   -60.9851100  172.3823000
 		     -63.2486900  -22.8440200   -58.3469500  144.3025000    -0.4628550  -70.1338800   -30.3649400  164.7503000
 		     -58.3427600 -145.2914000   -77.8875900 -120.4484000   -30.4142300  164.8716000    -0.4976064  -69.9611400
   19257250000    -0.3281772  -37.3107600   -26.1356600   63.5789600   -64.3618900  179.6280000   -63.0246800  132.4267000 
 		     -26.1625700   63.9851700    -0.3591517  -37.3646000   -60.4373900 -167.9165000   -66.4866000  139.0552000
 		     -60.6089100 -178.3138000   -63.5586900 -168.3876000    -0.4798656  -70.3536800   -30.0880300  165.6961000
 		     -67.3749400   74.5379800   -55.6064500  141.4060000   -30.3570100  165.7300000    -0.4988896  -70.3872600
   19327240000    -0.3653910  -37.5742300   -26.0940700   64.9203300   -57.7994800  159.6081000   -72.2113700  141.4865000 
 		     -25.9096400   64.5290300    -0.3503690  -37.4223700   -62.6758500  152.5888000   -64.8169300 -152.2257000
 		     -59.6763300 -128.8629000   -56.8401900 -148.4037000    -0.4866118  -70.5668800   -30.1015100  165.3836000
 		     -68.3025300 -140.3104000   -59.7682000  -24.5762900   -30.0547800  165.7693000    -0.5046454  -70.4623800
   19397230000    -0.3739598  -37.6667300   -26.1995300   63.3297700   -71.2894500  126.8485000   -60.9014100  134.9898000 
 		     -26.0802200   64.1421100    -0.3637218  -37.4432200   -63.5969300  155.6575000   -68.8228000  127.7815000
 		     -59.3514300 -178.0351000   -59.5843800 -155.9343000    -0.4882330  -70.8388200   -29.7830700  165.4413000
 		     -62.6211500   57.6322300   -59.9837000  106.1965000   -29.7535300  165.6711000    -0.5071088  -70.7532500
   19467220000    -0.3704897  -37.8358900   -26.1875000   64.2766300   -59.1890900  168.3993000   -62.5199800 -139.2083000 
 		     -26.0822800   62.8258400    -0.3633652  -37.6286400   -65.7552200  128.9998000   -56.4670600  137.5742000
 		     -58.2022100  152.8954000   -66.7939100   86.7719400    -0.4782978  -71.1067000   -29.7159900  166.0052000
 		     -61.4451000  178.3874000   -61.2930900  144.7704000   -29.5690800  166.5478000    -0.5026681  -70.9856300
   19537210000    -0.3471295  -37.9050300   -26.1603700   62.7375300   -59.7610100  164.2077000   -60.1447900 -164.7290000 
 		     -26.1876900   63.0775500    -0.3758914  -37.8765400   -60.1163900  131.1583000   -64.8600800  136.4559000
 		     -64.1779300  110.8307000   -53.6205000  121.1901000    -0.5005878  -71.3669500   -29.3925000  166.6707000
 		     -63.1448900  158.0445000   -74.7098200  136.9505000   -29.3107600  166.7361000    -0.5039189  -71.2531800
   19607200000    -0.3771999  -37.9865000   -26.3033300   63.6424400   -61.6265400  157.0953000   -62.9901700  161.4173000 
 		     -26.2231100   63.1499700    -0.4047267  -37.8859700   -66.0441100  119.8305000   -62.5273500  169.5615000
 		     -60.8422600  176.4665000   -60.0425000   90.1069900    -0.4919921  -71.6477700   -29.3106800  167.5334000
 		     -57.3394100  153.2556000   -57.3675900  140.1726000   -29.3488100  166.8535000    -0.5135525  -71.5591000
   19677190000    -0.3662615  -38.1236200   -26.2052600   62.7410700   -69.2721500 -175.7269000   -65.5602400  132.2323000 
 		     -26.1823500   63.3258800    -0.3583167  -38.2257500   -64.0295300  152.8292000   -59.1575500  155.1999000
 		     -57.0633700 -169.0767000   -61.5946100  174.2001000    -0.4692575  -71.9596900   -28.9947200  167.5473000
 		     -63.5228800  123.8940000   -57.2128600  168.1898000   -29.0026700  167.3791000    -0.5029442  -71.8205800
   19747180000    -0.3744056  -38.3042700   -26.3781300   63.4095700   -69.7102200 -173.2654000   -62.7441600  157.1731000 
 		     -26.3412400   62.9239800    -0.4107732  -38.3261000   -67.0241100 -159.5871000   -68.5067700  153.1857000
 		     -60.3590700  171.0610000   -60.3772900 -103.4749000    -0.4993769  -72.1603900   -28.7308800  166.3405000
 		     -58.5867100  122.9436000   -77.0611300   63.5386000   -28.9233500  167.2592000    -0.5013521  -72.1669200
   19817170000    -0.3822773  -38.3654200   -26.4101000   61.9807700   -64.4968700  166.1211000   -68.2332500  162.7914000 
 		     -26.2914800   63.8173100    -0.3741917  -38.3887700   -59.7970800  150.3969000   -70.0049900  108.8169000
 		     -64.7195400   86.8074300   -67.5445900   13.5055800    -0.5006740  -72.4964400   -28.4483300  167.3788000
 		     -68.1726400  152.9075000   -58.4836700  110.6063000   -28.6216000  167.3767000    -0.4992631  -72.3682500
   19887160000    -0.3848911  -38.4760300   -26.3568100   64.4507900   -59.6016100  139.1768000   -61.4592800  118.1494000 
 		     -26.3482100   63.3663700    -0.3834316  -38.4496000   -56.0576900  145.0347000   -60.7832500  143.0937000
 		     -58.9645300  173.4948000   -60.4099600  117.1794000    -0.4831892  -72.7421400   -28.4965000  167.7276000
 		     -61.7944000 -159.7189000   -64.4912900  -86.5534100   -28.2947600  167.7005000    -0.5036218  -72.6456700
   19957150000    -0.3840780  -38.7762900   -26.3279800   62.9879500   -65.5645600  171.7925000   -64.2971900 -158.4223000 
 		     -26.2868100   63.5140300    -0.3990444  -38.5751000   -72.1199800   84.7905100   -72.5394800  137.4306000
 		     -57.2306600  178.7689000   -53.5159000  118.9704000    -0.4939732  -73.0169100   -28.2922600  167.5585000
 		     -59.3115200  137.2307000   -64.6338000   79.7348300   -28.1563700  167.9180000    -0.5114142  -72.9313300
   20027140000    -0.3976848  -38.8569000   -26.2481100   63.3492000   -56.6699800  134.9482000   -61.1863000  138.4046000 
 		     -26.3079700   63.2155900    -0.3757316  -38.6216000   -61.7698400  130.9944000   -60.2047800  119.2489000
 		     -64.0449400 -168.4278000   -56.1275400  174.0501000    -0.4942149  -73.3231100   -28.0871200  167.4449000
 		     -55.5581900  147.8506000   -55.8248300   66.8042000   -28.1746900  167.5467000    -0.5182129  -73.1712300
   20097130000    -0.3530446  -38.9203200   -26.1866600   62.4455000   -60.5472000  150.5636000   -62.3914800   66.2352500 
 		     -26.2348900   63.7705800    -0.3542785  -39.0596500   -63.5580400  101.3132000   -56.8079900  174.0616000
 		     -58.2786700  100.3942000   -64.6711300 -148.6685000    -0.4863252  -73.5754900   -27.9987900  167.6792000
 		     -59.2236400   92.2186100   -56.7152600  -58.8218800   -27.9202000  167.0579000    -0.5081542  -73.5863600
   20167120000    -0.3914176  -39.0791300   -26.2468800   62.8264400   -56.1718600  171.4782000   -58.7155200  124.2227000 
 		     -26.4653200   64.0979600    -0.3995541  -39.2125000   -62.6002300  123.5701000   -58.3742100  121.7770000
 		     -54.4539300  114.6905000   -58.5676100   94.8392600    -0.5092770  -73.6980400   -27.7596400  168.1013000
 		     -72.5938300  114.8824000   -60.9778300    6.5382480   -27.7688500  168.0342000    -0.5147397  -73.7202700
   20237110000    -0.3991446  -39.2052100   -26.3377800   61.6534400   -58.3487300  121.4869000   -59.9671200  145.7807000 
 		     -26.4894300   64.1508700    -0.3932154  -39.2465700   -63.3510500   98.5412900   -58.0119900  146.7075000
 		     -54.8695700  162.4737000   -56.3591800  107.8777000    -0.5087068  -74.0146500   -27.7261800  168.6463000
 		     -54.4483000  127.7062000   -62.8821500  139.7414000   -27.6679900  168.7341000    -0.5227720  -73.9644000
   20307100000    -0.3876812  -39.4716800   -26.6866300   62.4556700   -57.0262500  136.0068000   -61.8377300  140.2346000 
 		     -26.2129400   62.3172000    -0.3821523  -39.3337400   -62.2612500 -179.4658000   -60.4753200  141.1821000
 		     -57.7932500  170.5093000   -62.0611500   84.0255400    -0.5142894  -74.3259700   -27.3696400  168.1219000
 		     -68.1220600 -152.2369000   -58.1899800   -2.0147630   -27.3768700  168.1005000    -0.5198687  -74.3052100
   20377090000    -0.3822046  -39.6350200   -26.3670000   65.3600800   -56.5509100  132.8007000   -61.9654900 -177.4139000 
 		     -26.3741200   63.9326600    -0.3913287  -39.6393800   -64.9425600  137.6387000   -72.8161600  171.0829000
 		     -63.3987300  108.0702000   -53.1822200  168.6165000    -0.5106362  -74.4847300   -27.1282400  168.6046000
 		     -61.6917400   59.7417000   -70.8745000   79.1099500   -27.2880300  168.5689000    -0.5558958  -74.6047100
   20447080000    -0.3985927  -39.7866600   -26.4181600   64.0878500   -62.3338300  106.4620000   -63.5974600   48.3411100 
 		     -26.3544900   63.6477900    -0.3908180  -39.4499000   -58.2103700  129.7692000   -67.2305900  122.0009000
 		     -57.8825100  136.9316000   -56.2937200  161.2422000    -0.5219306  -74.8400500   -27.0424700  168.7689000
 		     -55.7851900   75.3494400   -55.1235400   92.8541800   -27.1291400  168.7756000    -0.5228724  -74.7040300
   20517070000    -0.3768967  -39.8628000   -26.4646800   66.4777000   -66.5057100 -162.8652000   -58.3907300   72.9387500 
 		     -26.4516200   63.3200800    -0.4095131  -39.6191000   -57.6890400  105.4164000   -67.9995300  137.4706000
 		     -60.9021000  158.0587000   -55.8229900  120.0191000    -0.5131732  -75.0249100   -26.9622900  169.3582000
 		     -56.9377300  142.0792000   -55.2423200  105.4120000   -27.0321800  169.0884000    -0.5357916  -75.0915900
   20587060000    -0.4031354  -39.9883500   -26.4906700   64.3200100   -58.4307800  104.7756000   -66.0601500  157.8982000 
 		     -26.2763500   62.1423100    -0.4208116  -39.8988600   -86.9281300  -62.4781900   -66.7943300    7.2696340
 		     -57.4541700   92.4170000   -63.8912500    2.2195400    -0.5372185  -75.4402200   -26.7767700  169.7010000
 		     -63.1441200   46.4204800   -56.1186200  104.8613000   -26.6289000  168.8164000    -0.5500080  -75.2999300
   20657050000    -0.3900259  -39.9701000   -26.5415900   63.7171600   -66.3142300   60.9365600   -65.0932200   63.8486400 
 		     -26.5421900   62.9422000    -0.3822848  -39.8857300   -70.1907300   36.3340600   -65.8017300  123.1361000
 		     -65.4624700   98.1114000   -59.8278000  100.9739000    -0.5309417  -75.7976900   -26.6318200  169.0897000
 		     -56.6019800  159.0239000   -56.0181200  133.0241000   -26.6291900  168.6674000    -0.5417662  -75.5514200
   20727040000    -0.3951780  -40.3144600   -26.6668500   64.0639400   -63.7645900   91.6820800   -67.3971600   38.5036000 
 		     -26.7411200   62.1535800    -0.4031789  -40.3724900   -68.4079100   73.0861000   -77.5732000  -60.2561700
 		     -59.9125700  -54.7114800   -59.8985600 -125.3486000    -0.5330482  -76.0133500   -26.4733500  169.1251000
 		     -60.5385400  112.5288000   -60.1960400   60.2368200   -26.4164800  168.4522000    -0.5443251  -75.9101900
   20797030000    -0.3934090  -40.4204000   -27.0804800   62.6622800   -64.8982800  101.4460000   -60.7211600   71.9104200 
 		     -26.7837600   63.1862500    -0.4207674  -40.1721300   -60.7577300   96.1654800   -65.5013400  133.8183000
 		     -61.0982900 -149.3564000   -55.8604100 -110.2617000    -0.5330291  -76.2026200   -26.3142400  167.9204000
 		     -61.9895000 -178.7135000   -60.3286700   47.6043500   -26.2181800  169.0003000    -0.5362973  -76.1265900
   20867020000    -0.4125004  -40.4217000   -26.7368900   64.0429200   -61.4071800   98.9488500   -69.8998700   95.6331600 
 		     -26.8760100   62.4014500    -0.3628594  -40.3234300   -59.1148800  113.9885000   -56.5705500   78.6302300
 		     -60.3758400   65.6896800   -54.3738100  -12.3480500    -0.5362806  -76.4213600   -26.0935000  170.0602000
 		     -63.5915200 -140.7054000   -69.8979300  -20.7170000   -26.1236600  169.5950000    -0.5431829  -76.2242400
   20937010000    -0.4206699  -40.7293300   -26.6799100   64.9408700   -56.9438700  104.2616000   -65.9931800   46.5609600 
 		     -26.5939200   63.6219900    -0.3939098  -40.4283100   -75.1579800   72.5989500   -61.0078500   47.7271200
 		     -65.4080000  120.1498000   -60.8330200  -74.5024500    -0.5346370  -76.6625500   -26.0010500  168.8887000
 		     -64.3934600   74.3708500   -55.1777300   99.0342700   -26.0213100  168.7937000    -0.5453392  -76.5683000
   21007000000    -0.4110799  -41.1323300   -26.9193800   61.9505800   -64.6360100   41.1149900   -71.5583000   85.8106500 
 		     -26.7506600   61.1591100    -0.3838814  -40.6635700   -61.2142100  106.1053000   -65.1448000   41.8409800
 		     -58.8610600  168.9092000   -57.3495900   -4.8827310    -0.5382932  -76.9456300   -25.7294900  169.1702000
 		     -56.9064500  116.7841000   -64.6165500   66.7643800   -25.8007600  169.1668000    -0.5546527  -76.9412800
   21076990000    -0.3990708  -41.0071900   -26.7701400   61.8482000   -69.6648100  144.2930000   -60.1272600   53.6686300 
 		     -26.5897500   62.2018200    -0.4267632  -40.9421800   -57.8032500  111.8695000   -72.4111300   50.0464200
 		     -66.2059900   32.6938700   -53.8431700   65.7379000    -0.5481060  -77.3800000   -25.6119500  168.6605000
 		     -54.2333600   71.9196200   -55.1071600   53.7622900   -25.5869900  169.5616000    -0.5530699  -77.1736600
   21146980000    -0.3843670  -40.8085900   -26.8982900   64.0450400   -58.7906500   45.8506000   -68.5655600  -40.0616200 
 		     -27.0132500   62.3015700    -0.4090472  -40.9430400   -61.8110600  110.5715000   -62.6787600   34.8179900
 		     -65.4015100  -25.9292700   -69.5038000  -30.8163400    -0.5434463  -77.5882300   -25.3826700  168.5773000
 		     -70.4349700  140.9014000   -59.3584400   91.9478100   -25.3331600  169.0278000    -0.5586864  -77.5591000
   21216970000    -0.4178098  -41.2493000   -26.9862900   61.4704300   -66.6127900   84.1013000   -68.7437400   72.3492500 
 		     -26.9147800   63.2722700    -0.4327238  -41.1973200   -63.8058800   -7.7311040   -65.4175600   76.8875400
 		     -61.8948500 -179.5919000   -76.8239500  -68.6241800    -0.5423431  -77.7605000   -25.2490300  169.0345000
 		     -58.2673600  -14.1178100   -64.5400200   49.4564000   -25.2864400  169.4014000    -0.5608419  -77.7126600
   21286960000    -0.4193380  -41.2475700   -26.3577800   65.1022200   -62.6969800  179.5224000   -61.9670600  132.9684000 
 		     -26.8588800   63.9136800    -0.4289914  -40.9834700   -64.2478600  -94.5746000   -59.8895300   64.2242200
 		     -56.7175500   90.7231100   -53.4618200   -4.1554090    -0.5419331  -78.0887100   -25.2237300  169.3176000
 		     -62.3659700  -54.8331900   -60.2265900  -76.8216000   -25.2319400  169.5858000    -0.5623435  -77.9101200
   21356950000    -0.4265996  -41.3732100   -27.0741200   60.8907900   -67.9986300 -162.3665000   -70.3007100  161.5430000 
 		     -26.9439100   63.1561400    -0.4098940  -41.3784300   -64.2038400 -154.1212000   -65.2061500   -6.1616050
 		     -62.7757100 -149.3200000   -69.2334100   60.2314600    -0.5477548  -78.2077700   -25.1384400  168.9629000
 		     -64.2439600  134.5449000   -52.6756500   -1.1797620   -25.1129600  168.8053000    -0.5736885  -78.3081700
   21426940000    -0.3957984  -41.6156000   -26.5888400   62.8895000   -65.5251600  -47.7585600   -66.4362500  -15.9051800 
 		     -26.6687400   64.9153100    -0.3745077  -41.5848800   -68.7865900  -32.4297100   -66.7385300   41.3882900
 		     -63.5712900  -26.5586000   -57.9366100  -81.0420300    -0.5703431  -78.5325100   -24.9840600  169.4246000
 		     -62.0731700   -8.7429190   -54.3470200  100.1110000   -24.9221600  169.4099000    -0.5790974  -78.6425400
   21496930000    -0.4352443  -41.6253800   -27.0743800   63.5081000   -68.7179400   99.0868000   -81.5161400   23.3367500 
 		     -26.9557400   62.2459300    -0.3698820  -41.8121400   -67.2905400 -124.5892000   -59.0605500   75.9680900
 		     -74.2506700  102.3211000   -58.7175200   96.7107300    -0.5622833  -78.9230600   -24.6669700  168.9296000
 		     -63.8820500   63.7887000   -63.3499300  -86.5652400   -24.7191100  168.5761000    -0.5865913  -78.8759100
   21566920000    -0.3962320  -41.9133500   -26.6644800   65.4408600   -81.2682400  -11.1525600   -65.3923000  120.5172000 
 		     -27.0511100   64.9787700    -0.3822846  -41.7073800   -65.8813600  -76.5192900   -72.8628500   11.4496000
 		     -61.7434500   10.3309300   -59.9955100  -37.7233600    -0.5697639  -79.1860600   -24.6291200  168.6174000
 		     -60.1467800   61.0481600   -66.9097700   91.7205900   -24.7023700  168.8071000    -0.5679117  -79.0828200
   21636910000    -0.4027313  -42.1237500   -27.0998300   65.5887100   -75.9644200 -162.2951000   -62.4816500  117.9354000 
 		     -27.3398600   63.0755200    -0.4248228  -41.9680300   -69.1316400  -80.3366900   -70.7617500  -80.7901000
 		     -65.7912400   71.0579600   -53.9668900  169.8810000    -0.5570796  -79.4159900   -24.4446900  168.8713000
 		     -64.2033100   77.9555100   -61.5310100  148.7942000   -24.4765000  169.1535000    -0.5863578  -79.3951100
   21706900000    -0.4216936  -42.1920700   -27.3871600   65.4012100   -62.5023300  116.2438000   -67.6881300 -176.3171000 
 		     -27.0013600   63.3713400    -0.3996880  -42.2171000   -67.1737100  149.1406000   -77.3064300 -144.2642000
 		     -66.4573800 -127.3471000   -56.9771100 -119.9895000    -0.5835551  -79.7244900   -24.3946700  169.0222000
 		     -73.2169500  108.9320000   -54.2541500  160.5400000   -24.3206100  168.1487000    -0.5892932  -79.6332800
   21776890000    -0.4033968  -42.1714600   -27.6867600   64.4567500   -70.3628800   12.2185500   -64.9275200  -46.1786000 
 		     -27.3438700   64.6767600    -0.4124787  -41.8055400   -60.1953800   20.8823500   -69.0109300   89.9932900
 		     -54.7602700 -177.8454000   -62.9756600  -92.6945300    -0.5745841  -79.9118700   -24.1935400  168.5429000
 		     -57.0029000  166.8760000   -58.0285200  -30.1839300   -24.2523400  169.0423000    -0.5878034  -79.9016800
   21846880000    -0.4174849  -42.5544400   -27.0916300   64.8595400   -67.1851700 -151.4395000   -74.1933500 -144.5216000 
 		     -27.2932000   64.4406700    -0.3971878  -42.3020600   -63.9246800  -14.7475800   -72.4908100  173.2486000
 		     -66.6281500  -92.6811700   -55.3031700   61.9260400    -0.5924299  -80.0545000   -24.1013500  169.0106000
 		     -61.3782300  -79.8039000   -63.2379900   95.7512800   -24.0392200  169.1531000    -0.5889105  -80.2733500
   21916870000    -0.4514202  -42.6024700   -27.6638400   62.3450500   -60.1110600 -146.2343000   -64.9604700  160.4969000 
 		     -27.3607800   67.0780300    -0.4122485  -42.4550500   -71.0614500 -118.6514000   -69.5172500   39.8983500
 		     -67.6255100  141.6667000   -66.7573900   83.5437200    -0.5981114  -80.5169600   -24.0294700  169.1131000
 		     -63.6509700   -9.5778790   -54.9959900  140.6296000   -23.9100100  168.7667000    -0.5949466  -80.5343800
   21986860000    -0.4062727  -42.6253600   -27.1809200   65.1864400   -64.4062300 -102.6832000   -73.4828300  136.0242000 
 		     -27.1489000   64.1943500    -0.4164417  -42.3377500   -60.1139000  151.9044000   -65.4523000  -80.7174400
 		     -65.0177000 -151.2898000   -61.6876400  -14.2105800    -0.5843768  -80.6739000   -23.8043600  168.5505000
 		     -62.2575400   -8.8767640   -61.6950000   31.3599600   -23.7450300  169.1366000    -0.5798224  -80.6795100
   22056850000    -0.4166953  -42.9717100   -27.3967000   62.1262800   -61.5236700  140.5809000   -62.3942000  -29.6869000 
 		     -27.2165000   64.7664500    -0.4314771  -43.0203300   -62.4546100  -68.3205900   -61.9987700  129.7080000
 		     -65.8611900  118.5818000   -63.9624800 -144.8270000    -0.5758204  -80.9951400   -23.6386800  168.8674000
 		     -62.9280500  -37.1672700   -56.8596100   90.0667000   -23.6234700  168.4690000    -0.6065148  -80.9971000
   22126840000    -0.4325291  -42.7002900   -27.1058000   63.4145600   -60.7600100 -167.6549000   -69.1665600  -79.6853300 
 		     -27.4290900   66.3092900    -0.4546052  -43.1365000   -65.8076500  158.7699000   -61.9189100  154.3032000
 		     -64.4074200   68.4819200   -54.5136900   58.3573500    -0.5742815  -81.3571200   -23.5441900  168.4102000
 		     -69.2018800 -156.9227000   -57.4305000  -46.7679300   -23.5101000  168.7212000    -0.6067145  -81.1862600
   22196830000    -0.4067380  -42.9885900   -27.3990100   63.7736100   -69.1071400 -139.9019000   -71.1822600   12.0642100 
 		     -27.2024100   66.1697400    -0.4075068  -42.9479700   -63.1086800  164.9425000   -63.2420300  140.0454000
 		     -64.2776900   50.3675700   -64.7675900  -93.5895600    -0.5845465  -81.4803600   -23.4262300  167.9258000
 		     -62.7143300  135.5205000   -59.3684000  -21.0933400   -23.4244400  168.5065000    -0.6104971  -81.5201800
   22266820000    -0.4256981  -43.1643000   -27.5881800   64.0189100   -60.0567700 -151.0040000   -64.5448100   62.6524700 
 		     -27.4543300   64.8284800    -0.3954593  -43.2392300   -81.1158700  -90.3618900   -63.4641700 -137.4892000
 		     -78.2397700  115.1427000   -60.4167600  -46.3456200    -0.5847760  -81.6932100   -23.2679700  168.4930000
 		     -63.2855800  -92.5696900   -58.0146700  113.4926000   -23.2831900  168.4387000    -0.5924219  -81.8501100
   22336810000    -0.4337609  -43.4049500   -27.3329500   66.3899200   -81.5393100  120.2328000   -67.3435900  142.3624000 
 		     -27.4908800   65.5644700    -0.4420849  -43.2413900   -71.5096600   61.4833500   -62.6922000  163.9164000
 		     -61.1877400 -136.7460000   -61.9036300  167.1138000    -0.5943612  -82.1969000   -23.1074300  168.5400000
 		     -57.6246600  101.3351000   -58.9145800 -130.6922000   -23.2992200  168.0187000    -0.6003832  -82.0160300
   22406800000    -0.4323558  -43.4390600   -27.9245500   62.1801200   -61.5531800 -170.7599000   -71.9217400   -1.4539960 
 		     -27.5238800   65.0955500    -0.4057557  -43.2463500   -68.0111700  136.0850000   -89.4119600 -179.6698000
 		     -66.4475300  117.5201000   -62.4252500  -30.4249000    -0.5930566  -82.3402500   -23.0779700  168.0522000
 		     -61.3602800 -174.2764000   -62.4258800  -43.1406500   -23.0802200  167.9212000    -0.6240655  -82.2346000
   22476790000    -0.4190894  -43.5479100   -27.6049900   64.4359400   -69.9668400   35.5380500   -61.3170200  -34.4929100 
 		     -27.9253200   66.6629300    -0.4616779  -43.4271200   -72.9174000 -152.6244000   -66.2365600   54.4871000
 		     -58.5717400  172.2352000   -62.7854200  -25.9400800    -0.5738318  -82.5015600   -22.8527300  168.2846000
 		     -59.6952800  -68.8541000   -59.8333000  -86.8375900   -22.9393400  167.7894000    -0.6317639  -82.7002400
   22546780000    -0.4118952  -43.7659500   -27.2994000   66.8133900   -64.0495600 -131.7341000   -63.7575600 -116.9796000 
 		     -27.6829300   65.3755300    -0.4304300  -43.5243600   -68.9072400 -134.4440000   -60.0276100   54.1078000
 		     -61.2224700    9.9170770   -60.0106200  -85.4091500    -0.5961698  -82.9037300   -22.8301500  167.6482000
 		     -66.4080700    3.7413740   -66.5177300  121.1139000   -22.8107800  167.7001000    -0.6348664  -82.9243500
   22616770000    -0.4525425  -43.8679000   -27.7851100   64.8921900   -64.1979400  -94.8958600   -75.2242400  161.2045000 
 		     -27.7283500   65.1204000    -0.4146757  -43.7143700   -60.8671600 -123.8922000   -60.9956400 -155.3298000
 		     -61.9258800   25.8316800   -57.3232100 -165.7505000    -0.6081897  -83.1202200   -22.6819000  168.0094000
 		     -62.1697400 -137.8094000   -68.9424800  166.3707000   -22.6560500  168.1190000    -0.6253132  -83.0318700
   22686760000    -0.4378044  -43.9774500   -28.0292900   65.7131500   -67.5894000   95.8658000   -63.2931600 -105.0239000 
 		     -27.8472800   64.6497000    -0.4849614  -44.1428900   -72.2817900  178.8922000   -68.8408100    5.6982640
 		     -60.0895600  -83.2356200   -62.0121300   78.8793700    -0.6044831  -83.2314100   -22.6101300  167.6115000
 		     -75.2206000   30.6937200   -59.7567700  -70.7741900   -22.5470400  167.7339000    -0.6342013  -83.4602800
   22756750000    -0.4293460  -44.2154200   -27.4565300   66.9158400   -61.6134600  -11.6672200   -68.8501700   25.1362200 
 		     -27.5455800   69.1412700    -0.4551694  -44.2283700   -66.1278300 -165.8566000   -65.1787200   -5.0702020
 		     -67.4607400  -84.7690900   -55.5200200 -161.3855000    -0.6152738  -83.5803100   -22.3993500  167.1897000
 		     -64.7130900  127.1193000   -60.2101100  -16.4330700   -22.3723200  167.8284000    -0.6431476  -83.5847600
   22826740000    -0.4396569  -44.3743200   -28.1745600   64.5321400   -61.4384000  106.7192000   -68.3948600   10.0706300 
 		     -27.8541600   65.4143100    -0.4434097  -44.1504200   -76.2474400   -4.8745510   -70.6581300   41.5716900
 		     -60.1739200 -161.3277000   -57.2501400   52.5206000    -0.6173329  -83.9919800   -22.2260400  166.9019000
 		     -64.6899500   10.2704900   -59.9978500 -159.4962000   -22.3878700  167.7028000    -0.6428462  -83.8673300
   22896730000    -0.4337758  -44.4598900   -27.8941600   68.3715400   -71.6802500 -115.3601000   -65.0718100 -110.4707000 
 		     -27.8163100   64.9221400    -0.4959239  -44.3149800   -72.0257000 -152.9429000   -61.9027800 -178.6871000
 		     -60.0175900  113.0734000   -57.1048700 -111.9615000    -0.6063046  -84.2855500   -22.1618000  167.3268000
 		     -58.4012600  -88.4291700   -57.9357100   61.9383900   -22.1677900  167.3195000    -0.6450952  -84.2935200
   22966720000    -0.4516150  -44.8228400   -27.7823200   66.0287300   -80.5655500  -48.8615000   -62.3652300  122.9323000 
 		     -27.6755300   66.9890100    -0.4447106  -44.1450300   -64.0418300 -174.6721000   -71.4005100   19.0063900
 		     -65.1003100   -6.9201950   -53.0767700  -44.7765500    -0.6223489  -84.4110700   -22.1068500  167.0861000
 		     -61.6284900 -100.8461000   -54.5826800  -91.2601100   -22.0733800  167.7949000    -0.6413397  -84.4283200
   23036710000    -0.4469824  -44.7604800   -27.7683700   65.0367000   -70.6276200 -174.1199000   -68.1230200  154.3639000 
 		     -28.2438000   63.7842500    -0.4060717  -44.6494800   -80.4388300   41.5259200   -65.3568200  126.2435000
 		     -60.2516300  133.4427000   -61.5028500 -177.6673000    -0.6272891  -84.7757900   -21.9747700  167.1733000
 		     -57.7235800  108.3718000   -55.7316200   87.1601300   -21.9088800  167.2397000    -0.6248516  -84.5497300
   23106700000    -0.4432358  -44.9571800   -28.1957400   66.9038400   -64.9867500 -148.1385000   -79.5256000  164.8704000 
 		     -28.0570200   67.6992800    -0.4686119  -44.4767400   -69.7455100  132.5456000   -63.3673100   59.9023600
 		     -55.0161800   61.6145700   -60.3138700  138.7198000    -0.6214838  -84.7990200   -21.9013200  167.0103000
 		     -64.3006800   51.7544300   -51.0164100 -107.4467000   -21.9494700  167.8445000    -0.6555021  -84.9635100
   23176690000    -0.4414533  -45.1848500   -28.0285100   63.9242800   -64.0229000 -107.1103000   -71.3145200    5.2272040 
 		     -27.9510300   67.6256700    -0.4456875  -44.8676500   -62.6880200 -120.4474000   -62.3603100  -26.1107200
 		     -60.8115700  137.8589000   -59.7985500   33.1748400    -0.6452935  -85.1989400   -21.7742500  167.1124000
 		     -67.2661100  -73.8044400   -56.3250800   56.3257600   -21.8122700  167.3712000    -0.6500837  -85.1638200
   23246680000    -0.4499336  -45.1466900   -28.3982000   64.5813700   -66.0605300   64.5351400   -68.1481500 -144.7790000 
 		     -27.7534400   63.9648500    -0.4495293  -45.2189400   -71.8359700  140.0592000   -75.4561700  -21.5020100
 		     -63.3314500  105.2140000   -48.0301900   13.3510000    -0.6326394  -85.6378100   -21.6826600  166.9649000
 		     -59.3399900  108.3192000   -63.2822400  -47.4459800   -21.6652000  166.7101000    -0.6607807  -85.2814700
   23316670000    -0.4373778  -45.3122000   -27.9228800   64.8560400   -64.4142800  123.8985000   -83.2446300  -71.0332600 
 		     -28.0726300   67.3595400    -0.4362233  -45.1626200   -66.0648500   62.4997300   -71.3018200   25.6614700
 		     -66.5749400  -14.0618200   -52.3566900  114.8567000    -0.6105418  -85.8046300   -21.4562000  166.8876000
 		     -64.5726900 -111.8309000   -61.9277000   52.4011200   -21.5375400  167.4143000    -0.6567453  -85.7936100
   23386660000    -0.4222319  -45.5649600   -28.2690400   66.6920200   -66.0120900  -17.0395100   -75.0442300   12.1878700 
 		     -28.1282800   66.5863000    -0.4283008  -45.1243100   -70.1148800 -139.9254000   -63.2563600  -19.0012100
 		     -56.7724600 -150.3685000   -62.0515900   56.3227000    -0.6446499  -86.0304000   -21.3831800  167.1285000
 		     -56.5409400  140.6309000   -56.7689300  -99.7663800   -21.4494200  166.6364000    -0.6479471  -86.0350700
   23456650000    -0.4533525  -45.6677200   -28.2650500   65.8383100   -65.1385000   -9.0785080   -68.2407500  125.2635000 
 		     -28.5197600   66.5925800    -0.4507109  -45.6242800   -69.4800900   48.8936100   -69.5313600   64.5131500
 		     -65.8085000   29.4598500   -55.7410600 -104.8953000    -0.6676309  -86.3002200   -21.3371800  166.4250000
 		     -58.3920500    2.7056550   -53.2732600  101.4159000   -21.3624000  166.3525000    -0.6601481  -86.1483800
   23526640000    -0.4690998  -45.5942600   -28.2735500   67.6430500   -60.8010900 -118.9145000   -74.2873200 -140.1353000 
 		     -28.7271200   67.9411600    -0.4665310  -45.3151000   -69.1555900  -84.6339700   -70.1581100  133.9414000
 		     -65.6588700  119.8874000   -57.0036700 -105.2025000    -0.6448070  -86.5499600   -21.2034100  166.5147000
 		     -66.5111700    2.7711230   -57.3684000  -26.7586100   -21.2704400  166.4301000    -0.6864503  -86.5428000
   23596630000    -0.4762793  -45.9202200   -28.6481300   67.2605200   -69.2338300 -100.5481000   -70.2820500  112.8070000 
 		     -28.6265100   66.6097500    -0.4581612  -45.5185100   -71.2092300  106.8634000   -65.8033400  -73.9574700
 		     -63.7503600 -104.4255000   -56.5234100 -117.8582000    -0.6525711  -86.8881400   -21.1292200  166.7106000
 		     -55.6695200    9.6035300   -54.2674100 -156.4940000   -21.0840700  166.6231000    -0.6777827  -86.9413600
   23666620000    -0.4642409  -46.0317200   -28.8836600   68.2794000   -68.7810100  175.9431000   -61.9877700  -81.5406300 
 		     -28.3058400   66.5362200    -0.4587245  -45.9534800   -57.1546200  146.4906000   -72.5769500  -58.7310500
 		     -66.4659200 -112.0081000   -60.4435100 -152.8260000    -0.6718444  -87.2353400   -21.0268900  166.3091000
 		     -58.8173800   62.3189500   -58.0584600   42.7631700   -20.9578800  166.0315000    -0.6375975  -86.9898300
   23736610000    -0.4531545  -46.1181600   -28.4108900   67.6783700   -67.0787900  -28.4197400   -65.6012900 -113.1155000 
 		     -28.4613600   67.8150800    -0.4315117  -45.8497800   -68.7654000  -98.2599100   -77.4028500   44.2955900
 		     -60.5104800   72.7023800   -60.9659200 -171.8586000    -0.6487637  -87.4817800   -20.8801600  166.4207000
 		     -73.1774500   -4.1218590   -54.0280500   76.2887300   -20.8776500  166.1426000    -0.6873652  -87.2790600
   23806600000    -0.4725514  -46.4845500   -28.7276000   68.9018100   -63.3202700   46.0585400   -65.8958300   87.2664800 
 		     -28.2744600   66.2199400    -0.4783475  -46.2326700   -64.3947400   97.7493100   -60.8371400  -19.3989200
 		     -67.6044400   66.5633400   -60.6363900   61.0509600    -0.6591314  -87.5231800   -20.7558700  166.2527000
 		     -66.4544900  155.0250000   -59.2749700  -38.1053100   -20.7577500  166.1346000    -0.6751773  -87.5774400
   23876590000    -0.4466528  -46.4659300   -28.7483200   65.5640600   -73.7101000   28.2877100   -67.7080800 -144.5391000 
 		     -28.6684500   68.9481400    -0.4917831  -46.1331700   -70.4561600   76.7513300   -60.7792400   61.3599400
 		     -79.7960400   50.0098500   -54.8932500  -73.4195800    -0.6865543  -88.0243800   -20.6975900  165.6409000
 		     -72.9493600   13.2033300   -56.9155400   35.9732200   -20.6861900  165.3978000    -0.6753842  -87.7668600
   23946580000    -0.4444288  -46.4858500   -28.6443600   67.6701100   -64.4620800  -83.5082200   -70.4901300 -128.6416000 
 		     -28.6470900   69.6514200    -0.4676422  -46.5243500   -83.1982800  -10.8908000   -67.7628500   24.3722300
 		     -61.5087700  106.0110000   -63.1822200  -13.9584200    -0.6617678  -88.2720400   -20.6012000  165.7930000
 		     -70.4611400   28.1811100   -52.9459300  -43.2756700   -20.5393700  166.1450000    -0.6910545  -88.0484200
   24016570000    -0.4807986  -46.8986600   -29.1061000   68.6251500   -65.1900800  152.2964000   -58.1676500  -54.3821200 
 		     -28.5015300   67.9269900    -0.4464818  -46.9394500   -72.1678100  -66.8494500   -76.5025000   51.7037400
 		     -63.2201000   40.5803000   -57.6831300   37.3566900    -0.6555582  -88.4367700   -20.4632900  165.3487000
 		     -58.2149400  -53.6854900   -55.8074700  -43.4866600   -20.4592700  165.8778000    -0.7093173  -88.4645200
   24086560000    -0.4744931  -46.7588700   -28.6667000   70.9017000   -67.8786600  -40.5929600   -67.8088500  -58.0467600 
 		     -29.4103700   66.7860700    -0.4798835  -46.8841100   -75.0300800    7.2957860   -67.6651700   21.2999400
 		     -61.0198400  -31.5451600   -64.9120100 -166.4947000    -0.7056593  -88.7765000   -20.3289800  165.6618000
 		     -82.7428600   28.2686800   -71.5453600 -113.5035000   -20.3180200  165.6751000    -0.6709745  -88.7519700
   24156550000    -0.4572405  -46.9533700   -29.1581900   70.5846700   -64.5135900   28.5336000   -76.5382200 -126.4371000 
 		     -28.8903200   71.8364900    -0.4605506  -46.8766300   -62.7587700   49.6525300   -68.2715800  -94.5875500
 		     -65.5926100   69.9302600   -52.2463500  -67.6382300    -0.6540421  -89.0500700   -20.2725700  165.2383000
 		     -69.9893800   60.5693100   -58.6258800  -20.1785900   -20.2026300  165.2173000    -0.6965560  -88.8284800
   24226540000    -0.4825791  -47.1537000   -28.8623200   69.8534500   -73.1980600 -158.5713000   -66.4213400  -37.2774900 
 		     -28.9300600   67.8869600    -0.4546247  -46.9982800   -64.1452000 -163.4067000   -93.2831000   40.7433100
 		     -70.4545500 -112.4479000   -66.0138100 -130.9825000    -0.6605941  -89.2972300   -20.1469500  164.7623000
 		     -56.4600000  -91.8573300   -70.3164400  120.3816000   -20.1669400  165.1501000    -0.7149491  -89.2949800
   24296530000    -0.4711937  -47.3306600   -28.9918700   70.1866900   -75.0480000   13.7274100   -76.4422200   76.6708700 
 		     -29.1883400   70.8529700    -0.5161767  -47.5371400   -62.6414900 -152.5164000   -62.3600700   14.5134800
 		     -66.7716900  -85.9190100   -66.5466100  -17.7369200    -0.6985717  -89.4742800   -20.0400200  164.6624000
 		     -63.0268700  -70.1504800   -55.1847700  -76.2924300   -20.0305000  164.5889000    -0.6916445  -89.5449600
   24366520000    -0.4502816  -47.4864900   -29.5425100   67.8508500   -68.7401300   89.5958200   -65.4765200  -49.2333800 
 		     -29.0853200   67.7626000    -0.4531252  -47.1536900   -72.6186400  -43.4876700   -63.8625700   39.2253800
 		     -61.2853000  -84.6705900   -64.8074800  178.6932000    -0.6924897  -89.9904900   -19.9404900  164.3416000
 		     -59.0542400  -83.6037000   -58.6014700  -54.2581700   -19.9188800  164.2090000    -0.6733238  -89.7894700
   24436510000    -0.4771382  -47.7488200   -29.3709000   68.5147600   -69.3606000  -20.5063000   -71.5185500 -125.0393000 
 		     -29.4484700   70.5645800    -0.4426209  -47.2386700   -64.6149400   94.6684500   -64.2489600   16.1076500
 		     -64.3382700  107.2315000   -57.0143500  -84.6751800    -0.6689273  -90.2621500   -19.8188400  164.2086000
 		     -63.0092600  -46.0824900   -59.1805600  147.8513000   -19.8306700  164.3045000    -0.7272624  -90.0800900
   24506500000    -0.4881290  -47.5628000   -29.8379600   71.4095800   -61.8291500 -143.2799000   -65.4832500 -128.2608000 
 		     -29.6350300   70.6785300    -0.5260211  -47.4008900   -69.4470400    8.2154840   -64.4133300 -149.1669000
 		     -61.9913300   95.7272000   -59.9940900  -89.7058300    -0.6900679  -90.3134100   -19.6815900  164.5335000
 		     -72.9308400   57.5524500   -58.1233100  -42.6386400   -19.7959400  163.9971000    -0.6874236  -90.4363100
   24576490000    -0.4900704  -47.7525200   -29.5682600   72.0888400   -64.2500800  150.2262000   -75.6498300  -64.5937500 
 		     -29.7221600   72.2597700    -0.4721970  -47.6950100   -90.3688000  -77.3942600   -78.5074500  149.4245000
 		     -64.3870800 -117.4143000   -58.2774700  -49.0575500    -0.7041649  -90.6384000   -19.6500200  164.4980000
 		     -68.1322400   -7.5025400   -59.0284300   12.2063700   -19.7221400  164.0113000    -0.6993269  -90.5867700
   24646480000    -0.5018693  -47.9682500   -30.1062300   72.7866700   -69.7439800  -99.9124100   -73.9806800   52.3599900 
 		     -29.3350400   73.0730400    -0.4784067  -47.9948000   -64.7729900   53.8839000   -59.5178400  -10.5299800
 		     -67.9357800  -25.8376500   -62.9320300  170.5393000    -0.6674612  -90.9218000   -19.5335600  163.9744000
 		     -71.5411800  -68.2848900   -56.5043400  169.6594000   -19.5441400  164.0112000    -0.7369244  -90.8569600
   24716470000    -0.4937586  -48.1532900   -29.7371500   71.0556000   -70.4397900  -31.2689000   -70.9732400    6.9969860 
 		     -29.7273200   71.7308000    -0.4602070  -47.7165400   -74.4671200  135.5151000   -62.8550400  -23.4646300
 		     -60.8034200  -45.6446300   -53.3444000   53.4617700    -0.7080907  -91.1792600   -19.4870300  163.7856000
 		     -64.6036600  126.0904000   -64.8055900    3.6797950   -19.4633300  163.9141000    -0.7176182  -91.2208400
   24786460000    -0.4892128  -48.2395100   -29.4424600   73.1508400   -62.7132100   33.4939700   -61.4376400  -58.3098600 
 		     -29.4611300   72.6709400    -0.4738532  -48.2503800   -62.9001900  -65.5413800   -55.1588600   21.7314500
 		     -63.5948600   15.9150400   -63.4489900  -42.0066800    -0.7034870  -91.5249500   -19.3567400  163.9322000
 		     -61.4625500 -158.5228000   -59.9445800   27.6549000   -19.3384900  164.1155000    -0.7040958  -91.4611300
   24856450000    -0.4888816  -48.4692300   -30.0383600   70.7915400   -74.7447900  -37.3712200   -58.7093900  -75.5354500 
 		     -29.6223400   72.3008800    -0.4958372  -48.3682700   -68.2443500   -1.5275120   -64.5930600  -75.2125800
 		     -62.0052600  171.1848000   -58.1281100   75.8177500    -0.6727449  -91.8876500   -19.2691000  163.6077000
 		     -62.3553900   -0.1914242   -73.4273500  -40.8118800   -19.2628700  163.4955000    -0.7535327  -91.5634400
   24926440000    -0.4986228  -48.5832600   -30.4817900   72.1928900   -64.1949500   31.2147200   -57.5701500  -33.5769800 
 		     -29.5516000   72.4135300    -0.5214236  -48.5151900   -64.9735300  -21.3577800   -66.8235900  -85.8018600
 		     -59.7331000  -22.1884200   -68.3119600  -80.9065300    -0.6992993  -91.9335700   -19.1383900  163.2676000
 		     -65.5750200  -64.4758700   -60.9659000  170.5597000   -19.1258400  163.3756000    -0.7494229  -91.9925900
   24996430000    -0.4811774  -48.6703200   -30.0718600   75.3201600   -67.7589300  -39.9245200   -63.5063400  -41.2988800 
 		     -29.5590900   74.0427000    -0.4686390  -48.4203600   -57.8114800  -45.8554400   -57.2198900  -65.5989800
 		     -60.7799000   30.4869400   -68.0089100 -129.8024000    -0.7173550  -92.3881500   -19.0643000  162.6022000
 		     -63.0844500   19.8958500   -68.1205300  -74.0933300   -19.0589500  162.8555000    -0.7274996  -92.3107800
   25066420000    -0.4968038  -48.9784800   -29.7497700   72.4571000   -64.7209500  -91.4078800   -60.4884700  -49.9463900 
 		     -29.6573000   73.5895100    -0.4745098  -48.9690600   -57.3219300  -48.6387900   -61.5808900  -14.3486800
 		     -63.1457100 -110.7841000   -65.3035400   21.4225000    -0.7269324  -92.6227100   -18.9349200  162.9192000
 		     -60.8720600  -69.3922700   -64.1843800   37.5701200   -18.9249000  162.9041000    -0.7372670  -92.4342100
   25136410000    -0.4909886  -48.9642100   -30.0057800   74.4911700   -68.5160000 -116.7811000   -62.8209400  -35.7546200 
 		     -30.1711100   76.8065000    -0.4935269  -48.7289400   -63.6631600  -29.8123500   -64.2015500  -20.9333500
 		     -61.7313500  -23.3860800   -62.8138000   41.2957800    -0.7138659  -92.8758900   -18.8973000  162.4692000
 		     -57.8057400  -61.4262900   -68.9884300  -94.3099100   -18.9072100  162.4668000    -0.7342300  -92.8456700
   25206400000    -0.4822643  -49.0926200   -30.1296700   76.8775500   -68.5074000 -137.4431000   -58.4881600  -69.8197600 
 		     -29.7538700   73.5697300    -0.5121720  -48.9479200   -61.7831200  -72.8674700   -61.7525500  -64.6901600
 		     -56.1110300  -33.4959400   -67.6257400  -30.1270400    -0.7150248  -93.1601300   -18.8192400  162.3895000
 		     -55.3799100 -129.3455000   -59.8197000 -110.0383000   -18.8211600  162.1922000    -0.7133817  -93.1662900
   25276390000    -0.4996513  -49.1515800   -30.2346300   75.0448100   -58.5871900  -81.6161900   -60.5138200  -50.5884500 
 		     -30.1742300   76.7664800    -0.5031680  -49.1547400   -59.9557000  -75.0846200   -61.0852800  -69.1739700
 		     -58.9480600 -125.0828000   -63.0101500  125.3426000    -0.7366682  -93.5360900   -18.7150700  161.9240000
 		     -62.7077100  -30.9094100   -59.0297100  -58.9799200   -18.7584300  161.8472000    -0.7564021  -93.5751400
   25346380000    -0.4806335  -49.2423400   -30.1676200   74.2545700   -63.2589400  -66.6474800   -62.8260000  -49.5580100 
 		     -30.0157100   77.2758500    -0.5167705  -49.1373500   -70.6888000   64.3631800   -60.3296700  -21.6228700
 		     -66.0602600 -170.4023000   -55.6129400  -90.2598500    -0.7224775  -93.7167400   -18.6148100  161.7692000
 		     -60.9684600 -116.0143000   -55.3784300  -69.9874300   -18.5919000  161.5140000    -0.7460057  -93.7727000
   25416370000    -0.4997716  -49.5285000   -30.2887500   80.7411700   -66.6574800  -76.7451700   -57.2293300  -74.5580900 
 		     -30.1540800   75.5497100    -0.4832740  -49.3305800   -59.2077800  -61.2314100   -62.9948700  -58.0856600
 		     -58.2239600  -23.5536500   -58.9424200  -24.4432600    -0.7481969  -94.0012700   -18.4992400  161.7476000
 		     -62.4704100  -67.9035300   -57.3058400  -31.4557500   -18.5519200  161.5649000    -0.7414252  -93.9257700
   25486360000    -0.5037488  -49.6936400   -30.4511100   77.8840300   -63.3556600  -85.0285200   -60.2248200  -88.1038600 
 		     -30.2559900   76.0712800    -0.4793591  -49.6033900   -60.9750600 -102.0686000   -58.7019000  -99.8333000
 		     -57.6651300  -64.3172100   -58.3578000 -134.0148000    -0.7441303  -94.2508700   -18.4275700  161.3188000
 		     -57.9225200 -103.9371000   -58.9751100  -98.2022600   -18.4570300  161.4167000    -0.7587120  -94.1988600
   25556350000    -0.5117966  -49.6976200   -30.4225900   73.7681700   -67.5291100 -127.0220000   -57.9395400  -57.4834800 
 		     -30.5561200   79.1842200    -0.5600641  -49.8930400   -64.8220700  -91.6289000   -56.3003000  -48.2857700
 		     -56.2630500  -91.6337500   -60.4148500 -144.1240000    -0.7399639  -94.5891800   -18.3716600  161.1940000
 		     -64.3863800 -168.4958000   -51.1909000  -69.7226600   -18.3873200  160.9881000    -0.7699888  -94.5744300
   25626340000    -0.4886681  -49.7911500   -30.0111700   76.2883800   -58.9347800 -109.2730000   -59.5753500 -101.9120000 
 		     -30.2021300   77.4832500    -0.5083061  -49.7146000   -71.7906900 -115.8109000   -58.7244200 -113.8688000
 		     -67.3865100  -75.9229700   -54.1388500 -100.2869000    -0.7476490  -94.8455400   -18.2741700  160.8152000
 		     -63.7977100  -98.8132300   -61.6710700  173.5795000   -18.2946100  160.8563000    -0.7626865  -94.8425500
   25696330000    -0.5263568  -50.1337400   -30.4339400   75.5215100   -62.1391600  -84.2451700   -60.9456700 -100.5660000 
 		     -30.2706900   79.7063200    -0.4820335  -49.7594300   -60.7165800 -106.7812000   -64.2528800  -67.4414900
 		     -59.2294700  -94.9213000   -59.2937400  -81.1693400    -0.7637277  -95.0506400   -18.2027000  160.7359000
 		     -64.7383200  -25.8798400   -54.1673500  -63.7221500   -18.1848800  160.6241000    -0.7682525  -95.1594900
   25766320000    -0.5311974  -50.1719000   -30.5668400   77.9808900   -65.7501700 -141.8233000   -67.4332400  -92.5517200 
 		     -30.5981000   80.0481000    -0.5479938  -50.0863000   -57.7752500  -91.2962500   -66.7376600  -90.0339900
 		     -61.7305600  -65.4055000   -58.3232000  -58.1079000    -0.7612659  -95.4293900   -18.0952000  160.6274000
 		     -68.6378700  -73.0959100   -54.1401100  -49.7777800   -18.1225700  160.4927000    -0.7694501  -95.3917900
   25836310000    -0.5193844  -50.2089700   -30.3928400   80.2452700   -66.4006900 -149.9447000   -57.9912300 -106.0368000 
 		     -30.4282700   79.5509900    -0.5608646  -50.1743000   -61.0999100  -71.2817200   -61.2410300 -118.5961000
 		     -61.5027700  -43.6618900   -61.6677900 -125.3517000    -0.7624117  -95.7187000   -18.0242000  160.4722000
 		     -58.9235500 -101.3006000   -55.7045100 -113.4355000   -18.0583900  160.4363000    -0.7718028  -95.4562800
   25906300000    -0.5234570  -50.4246800   -30.2806800   80.1944400   -60.1095400  -72.1662800   -63.5762900 -109.9988000 
 		     -30.6269000   79.2265900    -0.4800385  -50.1368100   -60.5117800 -107.2668000   -58.4466200  -90.6363100
 		     -69.1057500  140.4044000   -61.0528700 -102.3192000    -0.7834566  -95.7855500   -17.9953500  159.9493000
 		     -57.5233200 -118.4178000   -53.8616500 -152.9625000   -17.9800900  160.0970000    -0.7807118  -95.8264200
   25976290000    -0.5168493  -50.5745600   -30.2839000   81.4663500   -62.9997200  -91.6500700   -63.3017500 -118.2914000 
 		     -30.7495000   81.3004500    -0.5255743  -50.4729200   -58.1004500  -87.9795100   -59.2637600  -97.9823600
 		     -57.7764900  -90.2416500   -54.5168300 -124.1931000    -0.7694640  -96.0668000   -17.8882300  159.9560000
 		     -57.8317100 -145.7975000   -58.4815200 -103.6189000   -17.8717700  159.9192000    -0.7840829  -96.0860600
   26046280000    -0.4911091  -50.7302400   -30.7611200   80.0273100   -57.7837500  -83.6926400   -58.6659000  -77.9086800 
 		     -30.8314500   83.4946400    -0.5295089  -50.4234800   -63.7757100 -112.9088000   -61.8860500  -54.3031400
 		     -66.4483000  -52.2064000   -61.1057100 -122.5695000    -0.7631016  -96.4615500   -17.7770800  159.7631000
 		     -70.3401000  116.2964000   -52.4378000  -91.9487800   -17.7766800  160.0410000    -0.7696624  -96.1990800
   26116270000    -0.5048056  -50.9181700   -31.6480900   82.4367800   -62.3413000 -126.9933000   -58.1127000  -78.8119100 
 		     -30.7463900   82.8704800    -0.5177308  -50.4317500   -58.5264700 -133.0355000   -66.4507400  -62.0138200
 		     -72.1544600 -113.9675000   -57.3877600  -38.7808800    -0.7952315  -96.4497900   -17.7077700  159.5843000
 		     -61.7176400 -128.7506000   -59.3285200    8.0626870   -17.7292700  159.4935000    -0.7980632  -96.6162000
   26186260000    -0.5366704  -50.7868400   -30.6526700   85.1074800   -62.8274000  -80.1965900   -56.9543100 -101.9620000 
 		     -31.0808200   83.3005900    -0.5069753  -50.8954200   -73.9097100 -138.5718000   -65.5037200 -131.8159000
 		     -55.0874100   -7.2457700   -58.5163700  -45.3493900    -0.7727243  -96.9393500   -17.5916700  159.4380000
 		     -59.7903200  169.2742000   -57.9492300 -141.3809000   -17.6530100  159.4139000    -0.7841811  -96.7642500
   26256250000    -0.5141842  -51.0676000   -31.8004700   86.0469100   -67.0627800  -68.1501000   -69.7967300 -108.5907000 
 		     -31.0303700   82.7545800    -0.5206262  -50.8087000   -59.3791900 -155.9874000   -64.2925900  -78.5404400
 		     -56.4651900 -118.9310000   -87.9000500 -122.4054000    -0.7662562  -97.3513800   -17.5196300  159.3442000
 		     -55.5060700 -114.1989000   -58.2769100 -141.2203000   -17.6036600  159.1427000    -0.7871450  -97.0041000
   26326240000    -0.5290475  -51.3988800   -31.0588900   85.2886300   -69.5198100  -87.0507700   -58.4328500 -108.9997000 
 		     -30.9980200   84.9381400    -0.5520843  -50.9608700   -57.7570700  -70.0692400   -63.6898400 -114.5590000
 		     -62.7794800  -89.0071900   -56.2427800  -84.2755000    -0.8054041  -97.3011700   -17.5154000  159.1762000
 		     -71.3479600   82.2696600   -60.0103800 -133.6912000   -17.5179600  159.2530000    -0.8228779  -97.5521500
   26396230000    -0.5380893  -51.4871100   -30.6297800   85.8282900   -59.7430800  -33.3873300   -60.0035300 -100.4975000 
 		     -31.2989100   85.2344300    -0.5210293  -51.4946900   -60.1469300 -105.0631000   -58.9490500 -149.6723000
 		     -57.6634100  -83.7668000   -50.1306700 -125.7808000    -0.7928257  -97.7586100   -17.4064100  158.4942000
 		     -59.0555400  -51.2150300   -56.5215900  -36.3360900   -17.4102800  158.4819000    -0.8168710  -97.6184000
   26466220000    -0.5470574  -51.5870100   -31.0356300   81.6799200   -59.3679600 -101.8051000   -62.0755500  -50.1517500 
 		     -31.4428800   87.8918800    -0.5073608  -51.4397000   -61.8272800 -111.1416000   -69.3050300  -48.5184300
 		     -62.1169400  -75.3310200   -59.8057500 -131.8414000    -0.7941762  -98.2274900   -17.2964300  158.1742000
 		     -59.7803200 -170.3090000   -64.8473000 -166.8295000   -17.3063300  158.2256000    -0.8012906  -97.9407500
   26536210000    -0.5418179  -51.7750500   -31.2367800   86.0051200   -59.8998500 -125.5929000   -59.3779000  -64.8699000 
 		     -31.1453500   83.8554400    -0.5692684  -51.5131400   -73.3178900  -81.6213600   -64.7745800 -169.7818000
 		     -67.4476700 -147.0805000   -57.2338700  -73.4411800    -0.8047494  -98.2897900   -17.2719400  158.4010000
 		     -63.6379700   36.2965700   -59.2988600  -97.9261500   -17.2553700  158.1780000    -0.8415105  -98.1365400
   26606200000    -0.5221271  -51.9914200   -31.7229400   84.9532200   -58.8960600  -40.0189900   -55.3025600  -83.9000800 
 		     -31.2614600   88.3395000    -0.5094420  -51.7020100   -57.3922700 -111.4584000   -69.0334200 -136.1440000
 		     -55.6612100  -59.6435300   -62.3492000  -24.2799500    -0.8251116  -98.5679800   -17.1817800  157.9329000
 		     -60.6380500  168.9667000   -51.4802400 -101.3955000   -17.1599500  157.8310000    -0.8072726  -98.5244400
   26676190000    -0.5508410  -52.0946700   -31.2569800   89.9236200   -60.5584700  -79.4055900   -58.4820300 -118.8715000 
 		     -31.2088100   88.7689600    -0.5837330  -51.6883700   -64.8234500 -121.5348000   -57.1747900  -46.4017100
 		     -60.7508200 -107.8792000   -56.4326300  -82.6195700    -0.8139313  -99.0522400   -17.1440800  157.6734000
 		     -60.6062700 -126.4271000   -53.1275400  -59.6306000   -17.1283400  157.9244000    -0.8136795  -98.8489400
   26746180000    -0.5557557  -52.2959400   -31.5631200   89.0700200   -60.1246700  -72.3441500   -57.6077800 -106.9575000 
 		     -31.4285000   89.7179900    -0.5248154  -51.8784900   -55.7192600  -79.8271000   -68.7137700  -78.6666400
 		     -60.5617000  -59.1689000   -54.5125800 -105.2392000    -0.8182306  -99.1000800   -17.0773600  157.3268000
 		     -55.3320000 -152.7497000   -61.9194000 -119.1409000   -17.0671400  157.8220000    -0.8537343  -99.1288600
   26816170000    -0.5605032  -52.3250500   -31.3236800   89.6653800   -59.9888400  -34.2322200   -58.2402100 -111.9632000 
 		     -31.5952300   87.5875900    -0.5270272  -52.0910300   -56.8235400 -118.7230000   -60.3763400  -66.2159400
 		     -53.7751200  -79.7177200   -56.3983500  -45.9891200    -0.8305660  -99.3963600   -17.0069800  157.2637000
 		     -69.5489900  -52.5017200   -56.3410200 -122.4753000   -16.9716700  157.0251000    -0.8362517  -99.3113500
   26886160000    -0.5433598  -52.2889300   -31.0446500   90.8794100   -58.7582600  -77.8394200   -56.8622700  -86.9457100 
 		     -32.0104300   91.3240400    -0.5777941  -52.3451300   -56.6098100  -73.9500600   -63.5170100 -107.7262000
 		     -56.9872500  -85.4047500   -52.9203600  -63.6936900    -0.8414360  -99.8272400   -16.9262800  157.2446000
 		     -62.9131400  147.2337000   -54.5222100  -99.9487400   -16.9125700  157.0942000    -0.8270030  -99.7633700
   26956150000    -0.5596203  -52.6824800   -31.7926600   91.8995900   -58.2956500 -101.1459000   -56.6275400  -88.7664600 
 		     -31.5992300   90.3229800    -0.5793480  -52.2586400   -56.2377500 -113.2370000   -56.5369300  -59.0076500
 		     -56.5370100  -67.2712500   -61.0773000  154.4460000    -0.8285321  -99.8841900   -16.8892200  157.0381000
 		     -58.8810000  -99.1777500   -58.1066400  -86.3969300   -16.8376600  156.8136000    -0.8593189  -99.7636600
   27026140000    -0.5319005  -52.8566100   -31.8726900   92.5114400   -57.9865800  -88.9102200   -56.3558800 -121.5707000 
 		     -31.5416600   92.5060900    -0.5336865  -52.9371100   -62.4976200  -93.7841000   -54.1578300  -68.0924500
 		     -51.6575300 -119.5750000   -52.8464900 -141.3137000    -0.8490306 -100.0714000   -16.8343500  156.9969000
 		     -57.5340600 -121.9657000   -52.7464100  -97.6001700   -16.8388700  156.6788000    -0.8737268 -100.1824000
   27096130000    -0.5380014  -52.9999200   -31.1387500   93.7099900   -58.9351700  -94.3239700   -57.9103400 -101.1475000 
 		     -32.0074400   92.0264400    -0.5471217  -52.7646300   -62.9381800  -74.2832100   -62.6076600 -133.9540000
 		     -53.4814500  -68.6268600   -56.0634200  -56.1395600    -0.8570888 -100.5005000   -16.6950500  156.3326000
 		     -57.7338300  -67.3230200   -63.6806400   -0.3290074   -16.7021600  156.2854000    -0.8615983 -100.5107000
   27166120000    -0.5258476  -53.2784300   -31.6203100   96.4526500   -56.2621700  -86.0656100   -55.6297100  -78.7293300 
 		     -31.5796000   95.0074800    -0.4974035  -52.8447500   -56.8129700  -94.9463200   -55.9634700  -90.8420600
 		     -65.8813900   44.7353700   -50.2328600 -159.1610000    -0.8290816 -100.7839000   -16.5995900  156.2343000
 		     -52.8472800  -96.0854000   -55.2052700  -59.4419400   -16.6004400  156.0300000    -0.8611611 -100.5854000
   27236110000    -0.6029961  -53.1762800   -31.9376300   99.4740300   -61.0303500  -78.1135600   -55.3909200 -126.0428000 
 		     -31.8376900   94.8509800    -0.5489466  -53.1106100   -55.4691200  -94.3943000   -53.0588300  -73.4041000
 		     -53.1888000  -98.6738700   -58.2801000 -153.4994000    -0.8505121 -100.8471000   -16.6062100  156.0882000
 		     -55.6052500  -99.8935500   -56.2092500 -105.4248000   -16.5759200  156.0966000    -0.8977946 -101.0358000
   27306100000    -0.5715246  -53.3069200   -31.7116400   93.5747800   -56.1994000  -80.4350400   -56.6734400 -111.2905000 
 		     -31.0627700   95.3318100    -0.5994375  -53.1155600   -54.5999000  -83.4116800   -59.3277000  -76.4088600
 		     -58.9109400  -76.0816400   -51.0433700  -90.4758200    -0.8804891 -101.2937000   -16.4805000  155.9348000
 		     -54.5073900  -85.4743600   -50.5006600 -146.7990000   -16.5127400  155.4044000    -0.8738101 -101.2856000
   27376090000    -0.5832694  -53.3773200   -31.8882800   95.7595900   -59.1176400  -78.4259000   -53.5712000  -79.7540700 
 		     -31.8746800   96.1139300    -0.5358205  -53.2728200   -55.8165100  -94.6534800   -56.1903700  -92.6635100
 		     -55.8849200  -50.6359800   -48.2928500 -116.5464000    -0.8656927 -101.5444000   -16.4150000  155.7617000
 		     -55.6474200  -59.9631600   -59.1105800 -143.6276000   -16.4336200  155.5541000    -0.8708706 -101.5114000
   27446080000    -0.6059454  -53.6365900   -31.1454400   98.5879900   -52.5388300 -100.5676000   -54.9615800  -99.7503200 
 		     -32.0981900   94.5595300    -0.5219145  -53.1918900   -56.6858300 -110.0728000   -57.3269300 -120.1022000
 		     -61.6603900 -170.3748000   -49.9862400  -37.3386800    -0.8610935 -101.5747000   -16.3342400  155.6497000
 		     -59.3581200 -148.7724000   -60.6822000 -125.1577000   -16.3397400  155.6303000    -0.8989512 -101.7922000
   27516070000    -0.5292130  -53.9066200   -31.2958000   96.9348800   -54.8547500  -95.8713200   -56.1080900 -105.4600000 
 		     -31.6534500  100.5554000    -0.5836270  -53.4465600   -55.2118500 -108.7950000   -58.3242000 -104.1433000
 		     -60.5757300 -174.6089000   -49.0281000 -104.4507000    -0.8780841 -102.0757000   -16.3336100  154.9695000
 		     -51.1117300 -124.0672000   -53.8689400  -82.7068300   -16.2891600  155.1992000    -0.8861914 -102.0201000
   27586060000    -0.5738011  -53.8039200   -31.5451200   98.3450200   -56.2701300 -106.6342000   -50.9715000 -106.9286000 
 		     -32.0944400   98.4852100    -0.4983092  -53.6605300   -57.2968900 -146.7853000   -55.7635100  -99.3605100
 		     -62.6451000 -151.8593000   -57.1569600 -136.6109000    -0.8657879 -102.4145000   -16.2018800  155.1196000
 		     -54.5985000 -112.8798000   -53.2835800  -94.3616700   -16.2073000  155.1598000    -0.8905808 -102.2608000
   27656050000    -0.5786428  -54.0644600   -31.5348000  101.0189000   -60.5243300 -102.2895000   -56.9819300 -109.7129000 
 		     -32.0835100  101.3019000    -0.5912706  -53.6378900   -55.8092200 -108.1009000   -56.2115300  -84.1684000
 		     -55.9749100 -133.6050000   -51.6342400 -131.4676000    -0.8582822 -102.4924000   -16.1635100  154.5789000
 		     -54.0020000 -123.0908000   -58.5594800 -166.0776000   -16.1438900  154.8604000    -0.9050003 -102.5500000
   27726040000    -0.5644881  -54.3794500   -31.9529300  104.3507000   -54.8172100 -116.4614000   -54.0002700 -127.6772000 
 		     -32.0572400  100.0241000    -0.5760608  -53.6177600   -52.5161200 -111.8367000   -52.5119100 -118.2459000
 		     -56.5808700 -126.8848000   -52.0923400 -100.3302000    -0.8894172 -102.8253000   -16.0477500  154.4698000
 		     -55.4284100 -133.7605000   -61.2019200   58.7954000   -16.0205900  154.2677000    -0.8971612 -102.8545000
   27796030000    -0.5384300  -54.4621100   -31.9744200  107.0855000   -55.7084200 -112.1933000   -56.0649000 -120.2917000 
 		     -31.6422500  102.3458000    -0.5080500  -54.2319700   -53.5081300 -122.0989000   -58.4534600 -114.2885000
 		     -54.8205400 -103.1412000   -52.1201500 -161.8819000    -0.8882673 -103.0659000   -15.9692200  154.2088000
 		     -52.2710000 -131.4182000   -52.5500400 -136.9156000   -15.9656300  154.4156000    -0.8788148 -103.1248000
   27866020000    -0.5881709  -54.5609200   -31.9211300  104.0295000   -59.3685100 -112.3739000   -55.0499300 -146.5743000 
 		     -32.2827200  103.9215000    -0.5530182  -54.5475700   -60.7275400  -97.4229100   -61.2169300 -131.8784000
 		     -59.1594200 -171.6690000   -49.7897100 -141.6383000    -0.8721122 -103.4481000   -15.9312500  154.1609000
 		     -56.3788600 -101.0129000   -52.1597900 -146.1190000   -15.9512700  153.9810000    -0.9083548 -103.3541000
   27936010000    -0.5800346  -54.5259700   -32.1558000  108.9235000   -59.9609700 -116.3444000   -55.8822900  -98.8757600 
 		     -32.8688600  108.9387000    -0.5879589  -54.2348600   -53.0090000 -126.4736000   -58.7341900 -121.2558000
 		     -54.1258900 -140.8891000   -53.6301100 -130.0655000    -0.9142611 -103.6780000   -15.8612800  153.5533000
 		     -52.3116500 -126.7941000   -70.4068800   15.6842100   -15.8844900  153.5433000    -0.8974034 -103.7703000
   28006000000    -0.5755799  -54.7315000   -31.7895600  105.8375000   -57.2020100 -114.8042000   -55.5420400 -142.0439000 
 		     -31.9243500  107.5349000    -0.6054734  -54.3646100   -56.8826700 -128.3366000   -54.6794100 -121.8462000
 		     -57.5493200 -122.4883000   -53.8573400 -123.0974000    -0.9073520 -103.9900000   -15.8089300  153.4573000
 		     -59.5389000 -115.9081000   -53.8136300 -137.4164000   -15.8075800  153.7629000    -0.8994769 -103.9302000
   28075990000    -0.5471666  -55.0499100   -32.1946300  102.4763000   -55.9659200 -108.0309000   -53.0254400 -114.4703000 
 		     -31.7823300  107.3013000    -0.6049309  -54.3614000   -55.4855100 -123.0819000   -54.3482200 -103.9254000
 		     -51.4795300  -94.7732900   -63.7490800  172.8672000    -0.8809412 -104.1961000   -15.7245000  153.6283000
 		     -56.4955700  -81.1275900   -68.6185500  113.4041000   -15.7567300  153.2323000    -0.9412232 -104.0941000
   28145980000    -0.5960665  -54.9750600   -31.8945700  107.5775000   -58.8372300 -125.2383000   -54.7601600 -108.6263000 
 		     -31.8708200  110.1349000    -0.6115987  -54.5464200   -56.3331600 -135.4298000   -54.2836700 -113.6644000
 		     -49.6195100 -103.7536000   -54.2251400 -133.0687000    -0.9039801 -104.3479000   -15.6738300  153.0984000
 		     -53.1773700 -144.0972000   -55.2831200  -65.3023100   -15.6868600  152.8546000    -0.9166700 -104.5004000
   28215970000    -0.5426722  -55.0114300   -32.5593600  104.4012000   -53.7844000 -119.0844000   -54.9540200 -134.2234000 
 		     -32.0462700  103.8788000    -0.6386521  -54.6631100   -56.2242000 -101.9470000   -53.8819000 -132.4725000
 		     -54.3079000 -120.2801000   -53.0183900 -117.7450000    -0.9215797 -104.8449000   -15.6446600  152.7187000
 		     -52.9596300 -123.3822000   -50.6740600 -147.6966000   -15.6372200  152.8893000    -0.9055975 -104.9034000
   28285960000    -0.6063424  -55.3826800   -31.6707300  111.6394000   -54.7497200 -111.2613000   -51.5168800 -123.3384000 
 		     -31.5445200  109.8260000    -0.5733237  -55.2228400   -52.0948800 -112.8440000   -62.2650500 -117.7218000
 		     -54.5226900 -100.2863000   -57.4748400  174.9691000    -0.9088603 -105.1065000   -15.5635600  152.6011000
 		     -53.7021500 -114.5964000   -53.5078400  -64.4166700   -15.5398000  152.5639000    -0.9114334 -104.9902000
   28355950000    -0.5672700  -55.3546600   -32.1065400  109.5196000   -55.1770900 -144.5280000   -58.7914700 -126.4875000 
 		     -31.7424000  110.2414000    -0.6045088  -55.0787500   -54.0565900 -148.7960000   -56.4106200 -125.8458000
 		     -54.4797100 -136.8417000   -55.0307100 -139.4280000    -0.9295307 -105.4184000   -15.5505000  152.1230000
 		     -51.3951300 -132.4708000   -60.9110900 -110.6025000   -15.5188300  152.1260000    -0.9420010 -105.3100000
   28425940000    -0.5863416  -55.3670700   -32.3382400  114.8452000   -58.0684500 -138.8522000   -55.5270600 -140.3508000 
 		     -32.1039200  112.2944000    -0.6395535  -55.4631700   -57.4768900 -137.1658000   -57.3287300 -111.8927000
 		     -55.2212700 -124.9491000   -54.9737800 -102.7054000    -0.9236938 -105.6475000   -15.4067700  152.1046000
 		     -58.5342800 -117.1893000   -53.1481600 -139.3901000   -15.4219300  151.9218000    -0.9303600 -105.8208000
   28495930000    -0.6129993  -55.5599100   -31.5486700  118.2898000   -57.6203500  -97.9663000   -58.8687900 -132.2415000 
 		     -32.0658000  110.2690000    -0.5978200  -55.5506300   -58.8801700  -91.7531100   -50.8267600 -130.8870000
 		     -56.5709100 -143.5389000   -52.2277700 -174.6264000    -0.9103380 -105.8030000   -15.3351700  151.7879000
 		     -56.6354400 -122.6326000   -51.6616500 -157.2216000   -15.3562600  151.7727000    -0.9354354 -105.7898000
   28565920000    -0.5912468  -55.8105500   -31.2845600  113.3723000   -57.9030600 -109.2179000   -55.6169900 -108.9089000 
 		     -31.3530900  111.9660000    -0.5634618  -56.0145300   -55.2923000 -150.0237000   -52.2746200 -133.8251000
 		     -60.4210100 -140.5627000   -58.2063500  -86.2851000    -0.9207684 -105.9744000   -15.2917400  151.5948000
 		     -60.8272800   -6.8083960   -56.9082300 -135.5073000   -15.3274300  151.4936000    -0.9369618 -106.2852000
   28635910000    -0.5592202  -55.8975000   -32.4235400  113.9556000   -56.2352000 -125.1134000   -57.5588600 -115.1129000 
 		     -31.9521300  118.2297000    -0.6381804  -56.0214400   -56.3676100 -130.5558000   -55.1945500 -102.0704000
 		     -63.3316500 -113.1464000   -51.1903300 -123.4794000    -0.9368333 -106.5186000   -15.2500300  151.4550000
 		     -52.4127500 -135.3820000   -55.8896000  -27.2439700   -15.2467900  151.4163000    -0.9661332 -106.4187000
   28705900000    -0.6217505  -56.0723800   -32.3024900  114.0133000   -54.1528000 -116.3114000   -52.4359900 -117.8772000 
 		     -32.5924700  118.9410000    -0.5878778  -55.8222800   -54.9470700 -106.8431000   -55.1138000 -136.8678000
 		     -57.8676600 -128.1296000   -55.5815900  -90.6807100    -0.9205086 -106.5123000   -15.1909300  151.3670000
 		     -57.8389000 -153.7220000   -51.6869000  -74.4254000   -15.2050300  151.1294000    -0.9472591 -106.6674000
   28775890000    -0.5974905  -56.3823500   -31.4607000  119.1001000   -54.5391800 -132.5690000   -56.6113100 -126.1164000 
 		     -31.6345600  115.4780000    -0.5929693  -56.0193800   -56.0177800 -126.3706000   -53.2109900 -119.3635000
 		     -55.6639600  -89.0156100   -56.8885200 -144.7370000    -0.9520611 -106.9282000   -15.1876100  151.0407000
 		     -59.6331400 -147.3162000   -51.6354300 -127.2129000   -15.1236200  151.2675000    -0.9558905 -107.0113000
   28845880000    -0.5520919  -56.3238400   -31.1475400  120.3489000   -55.6045200 -121.7215000   -52.1258300 -134.3974000 
 		     -32.5468400  118.8359000    -0.6186956  -56.0943900   -54.1884400 -120.9338000   -54.7816400 -112.1662000
 		     -55.2362400 -116.7412000   -54.7527600 -112.0176000    -0.9540466 -107.1597000   -15.0542500  150.6961000
 		     -57.2818000 -158.6939000   -54.0673900 -129.0964000   -15.0619100  150.5494000    -0.9559737 -107.2496000
   28915870000    -0.6094781  -56.6546300   -31.9140600  118.8992000   -54.7325900 -108.1094000   -55.6501200 -135.3320000 
 		     -31.8531600  119.8656000    -0.5571541  -56.1727300   -52.9936000 -136.8905000   -50.9554500 -135.4453000
 		     -54.0152600 -136.0733000   -59.5259800 -146.5542000    -0.9358953 -107.4618000   -14.9872000  150.5564000
 		     -55.8866300 -122.0596000   -60.0426800  168.7926000   -15.0267200  150.7765000    -0.9524366 -107.3940000
   28985860000    -0.6497656  -56.4389000   -31.9773100  118.2026000   -52.1987200 -140.3769000   -53.3505900 -122.3407000 
 		     -31.6950600  119.6092000    -0.5814247  -56.9515300   -52.1969100 -131.2980000   -51.6095600 -122.1849000
 		     -54.5551500 -136.9440000   -48.4412800 -119.3523000    -0.9636638 -107.6450000   -15.0038600  150.4417000
 		     -50.9958700 -117.1043000   -62.5002600  -56.0153200   -15.0192600  150.4454000    -1.0077700 -107.6728000
   29055850000    -0.6108675  -56.8588800   -31.7565700  121.2122000   -53.7375500 -120.2095000   -53.3315800 -130.2282000 
 		     -31.8659700  120.1493000    -0.6150021  -56.5472900   -51.7956100 -134.9451000   -51.2888400 -117.9991000
 		     -55.0917100 -154.1034000   -49.3129500 -139.6617000    -0.9503075 -108.0740000   -14.9098100  149.8617000
 		     -51.7284700 -125.7981000   -52.5853000 -120.6209000   -14.9189100  150.2235000    -0.9771869 -108.1063000
   29125840000    -0.6037326  -57.0683500   -31.5584300  119.7684000   -53.1655300 -137.3287000   -52.1115200 -151.3257000 
 		     -31.3915800  121.9143000    -0.6110266  -56.7177100   -56.7397500 -143.3504000   -58.4582600 -151.0952000
 		     -54.7149800 -165.2572000   -53.5878000 -126.7324000    -0.9517330 -108.1963000   -14.8318200  150.0178000
 		     -52.5189400 -149.6902000   -50.8337200  -95.1524000   -14.8761800  149.8777000    -0.9704217 -108.2120000
   29195830000    -0.6524035  -57.1173600   -31.5588800  124.0251000   -55.4000800 -141.9106000   -53.0404700 -137.4268000 
 		     -31.9656000  121.8365000    -0.5854949  -56.9829500   -53.7049300 -127.5998000   -52.5499500 -132.3643000
 		     -51.6194000 -124.9841000   -56.7707300 -130.5376000    -0.9852255 -108.5417000   -14.8323600  149.7767000
 		     -53.7878400 -104.8323000   -51.0751600  -97.6252200   -14.8567300  149.8857000    -1.0056570 -108.3903000
   29265820000    -0.6013041  -57.1077700   -31.5321300  121.3539000   -55.2601300 -126.3897000   -54.0051300 -123.8534000 
 		     -31.5630800  125.4466000    -0.6237144  -57.2211400   -55.8164800 -119.5514000   -53.1074700 -131.3902000
 		     -52.1596300 -132.8160000   -49.8520600 -136.1242000    -0.9871668 -108.8616000   -14.7238000  149.5202000
 		     -51.0624900 -107.7467000   -57.5534000 -132.8803000   -14.7356300  149.5378000    -0.9747109 -108.6979000
   29335810000    -0.6355960  -57.4328100   -30.9384400  125.3124000   -52.2204500 -122.7138000   -55.0424500 -133.9031000 
 		     -31.0014300  124.2637000    -0.6164082  -56.9342000   -55.8141000 -151.8308000   -55.0473600 -120.2821000
 		     -53.4453200 -157.4666000   -58.4415800  -49.1714300    -0.9556653 -109.1842000   -14.6684400  149.3122000
 		     -53.1537600 -121.1520000   -50.1925300 -129.4707000   -14.6787800  149.2190000    -0.9848722 -108.7851000
   29405800000    -0.6700130  -57.4297400   -31.0493900  128.1601000   -54.4420200 -132.3923000   -52.1495000 -105.9702000 
 		     -31.6154300  123.4274000    -0.6297027  -57.3627600   -52.4326100 -122.5059000   -52.9592400 -134.5356000
 		     -66.9559600  -72.6491800   -51.2388600 -143.7974000    -0.9872389 -109.2889000   -14.6309900  148.8257000
 		     -50.0028300 -151.7692000   -52.2771000 -108.9316000   -14.6635800  148.8358000    -1.0176540 -109.1021000
   29475790000    -0.6108085  -57.7476700   -31.5318000  127.9244000   -52.0701100 -123.8583000   -52.2382000 -133.5919000 
 		     -31.3797600  126.3723000    -0.6573560  -57.3767500   -54.4467100 -126.6001000   -53.0987300 -135.2326000
 		     -51.5877900 -141.2986000   -50.4381500 -123.6029000    -1.0149170 -109.4360000   -14.5958900  148.8716000
 		     -50.7425300 -149.9930000   -83.4579300  176.7230000   -14.5857800  148.6915000    -1.0185800 -109.6839000
   29545780000    -0.6244140  -57.7136800   -31.4787300  129.8449000   -52.5991200 -139.4998000   -51.8028200 -140.3289000 
 		     -31.1794700  126.9061000    -0.6456106  -57.4573800   -50.8047300 -131.4819000   -52.6968000 -144.1369000
 		     -54.0414600 -107.4540000   -54.4947000 -132.2696000    -0.9851190 -109.8685000   -14.5187900  148.8421000
 		     -55.9911500 -120.5227000   -52.7852800 -165.7724000   -14.5380500  148.6156000    -0.9638090 -109.6669000
   29615770000    -0.6498618  -57.9111700   -30.5844400  126.7970000   -52.9829000 -151.9135000   -54.8514000 -115.1767000 
 		     -31.3036800  127.3605000    -0.6300403  -58.1246100   -52.3608600 -128.5903000   -51.3608100 -174.1266000
 		     -57.7342100 -134.2682000   -57.4183500 -154.3167000    -1.0168430 -110.0623000   -14.4852800  148.3200000
 		     -55.0228700 -160.8358000   -52.9514500 -107.3573000   -14.5132600  148.0835000    -1.0335300 -109.9468000
   29685760000    -0.5950555  -57.9028600   -30.7091400  128.7959000   -51.9685700 -156.0331000   -52.9899100 -140.6291000 
 		     -31.3755200  128.5844000    -0.6680124  -58.0662400   -51.3005100 -136.7336000   -53.2127100 -142.3878000
 		     -50.0583200 -141.1653000   -63.3237400 -167.2554000    -1.0206230 -110.4821000   -14.4324100  148.2433000
 		     -52.4425100 -155.6031000   -51.3048900 -140.0381000   -14.4548900  148.1322000    -1.0234630 -110.2686000
   29755750000    -0.6534538  -58.0935500   -31.3317900  133.4069000   -53.2234600 -148.1986000   -52.2537200 -132.9935000 
 		     -31.3305200  129.9625000    -0.6293065  -58.0694800   -52.3153700 -139.1762000   -54.7054300 -169.9168000
 		     -52.3361400 -114.0249000   -48.5251900  166.1176000    -0.9761516 -110.6955000   -14.4042800  148.0719000
 		     -53.2132300 -160.3154000   -50.0635500 -154.5967000   -14.3462300  147.9269000    -0.9894403 -110.3910000
   29825740000    -0.6380398  -58.3312500   -31.3392200  127.5439000   -54.7158400 -152.4551000   -50.0091900 -160.1214000 
 		     -30.9153200  130.0095000    -0.6368640  -58.0749100   -54.6259400 -134.6532000   -51.9221000 -142.3168000
 		     -54.1448700 -159.6476000   -53.9942200 -174.4892000    -1.0335970 -110.7363000   -14.3595600  147.9650000
 		     -51.0400100 -118.0670000   -55.5088300 -177.7045000   -14.3324900  147.9855000    -1.0373430 -110.8297000
   29895730000    -0.6312606  -58.2737100   -31.6698600  135.6138000   -54.0586200 -134.7845000   -52.5941500 -157.0269000 
 		     -30.6712100  129.2930000    -0.6837428  -58.2843400   -51.2178600 -150.8333000   -49.8547800 -131.4872000
 		     -51.5690900 -134.4721000   -55.2535200 -116.1887000    -1.0408770 -110.9989000   -14.3285900  147.7536000
 		     -55.5089400 -127.0554000   -50.5676700 -126.0634000   -14.2807000  147.6807000    -1.0301130 -111.0494000
   29965720000    -0.6188538  -58.6328400   -31.0920600  136.4344000   -54.6083800 -146.6660000   -52.2983100 -146.5334000 
 		     -30.9113800  133.7137000    -0.6592971  -58.4984000   -57.5669400 -130.0169000   -49.9790800 -155.9602000
 		     -49.5434700 -116.3287000   -52.7696400 -159.6162000    -1.0077540 -111.4845000   -14.2004900  147.4607000
 		     -50.0406800 -148.6433000   -53.5664600 -152.5858000   -14.1904000  147.8232000    -0.9887287 -111.2587000
   30035710000    -0.6741666  -58.6554700   -30.8288000  135.9127000   -49.7928200 -147.7161000   -50.3999900 -143.6812000 
 		     -31.2421600  135.1941000    -0.6318878  -58.4354600   -51.0312700 -137.4144000   -50.6644000 -135.9966000
 		     -50.2335600 -155.8525000   -56.9986300 -161.5047000    -1.0597650 -111.5554000   -14.2078500  147.2397000
 		     -60.4247300 -135.2728000   -51.6283000 -114.1920000   -14.1696400  147.2796000    -1.0611660 -111.4772000
   30105700000    -0.6342238  -58.9433900   -30.7994800  134.6254000   -50.7658300 -126.4659000   -50.9690100 -143.2952000 
 		     -30.5873800  137.9664000    -0.6389462  -58.9066800   -53.3030700 -156.8431000   -52.4645200 -152.8857000
 		     -48.9287600 -143.2505000   -57.6647800 -150.1891000    -1.0184990 -111.8848000   -14.1050000  146.8497000
 		     -50.7938200 -157.7854000   -44.9900200 -136.2611000   -14.0825700  146.5924000    -1.0431810 -111.7735000
   30175690000    -0.6147636  -59.0937900   -30.1688100  137.2549000   -53.6123400 -151.6113000   -51.5423700 -152.1876000 
 		     -30.8401300  135.9508000    -0.6821339  -58.7765000   -53.6379000 -150.3144000   -52.6170200 -138.9184000
 		     -49.5967300 -139.8676000   -51.2718000 -158.9535000    -1.0209370 -112.2176000   -14.0091300  146.9741000
 		     -59.8673400 -141.5676000   -53.2933300 -136.1690000   -14.0393600  146.9116000    -1.0114770 -112.2925000
   30245680000    -0.6427604  -59.0941400   -29.9020700  137.4310000   -51.5543400 -141.6376000   -53.6001500 -165.0470000 
 		     -30.8508000  137.0504000    -0.6484324  -58.6428900   -50.6666100 -134.8030000   -51.4505300 -165.7894000
 		     -60.1457900 -144.8355000   -54.3094000 -115.0242000    -1.0446250 -112.0841000   -13.9778300  146.8954000
 		     -53.5937300 -158.6568000   -55.2033800 -160.3763000   -14.0138800  146.7798000    -1.0427390 -112.2311000
   30315670000    -0.6222456  -59.1618200   -29.8851200  138.2316000   -52.0708800 -136.2335000   -50.5032200 -150.1609000 
 		     -30.3659700  132.8081000    -0.6693256  -59.2351800   -51.9555100 -153.2271000   -51.0487200 -148.8644000
 		     -51.9345100 -152.4440000   -50.9564400  -88.9228000    -1.0350220 -112.5894000   -13.9484600  146.4877000
 		     -51.3756900 -177.2603000   -52.2760500 -167.5997000   -13.9507700  146.3768000    -1.0375730 -112.5026000
   30385660000    -0.6406628  -59.8309700   -30.3150100  138.1811000   -53.9216800 -158.5248000   -49.5730000 -138.7614000 
 		     -29.9210500  140.0645000    -0.7025408  -58.8771600   -49.2993900 -142.4684000   -53.0722500 -144.4799000
 		     -54.0138200 -150.7361000   -51.3413500 -165.5157000    -1.0304120 -113.0291000   -13.9166200  146.2125000
 		     -50.3687000 -167.3064000   -45.6208400 -155.6241000   -13.8849200  146.2991000    -1.0483420 -112.9488000
   30455650000    -0.6688756  -59.6775000   -31.5038400  140.9407000   -51.4902200 -165.3074000   -50.3215100 -149.4644000 
 		     -29.9141800  139.1526000    -0.7016766  -59.5522200   -54.0300200 -174.5835000   -49.2927200 -153.4489000
 		     -50.7145900 -145.1526000   -46.9983100 -174.0080000    -1.0375390 -113.1198000   -13.8137200  146.3519000
 		     -49.1031300 -154.5991000   -50.6398200 -117.2413000   -13.8239500  146.2541000    -1.0587770 -113.1153000
   30525640000    -0.6260964  -59.9654200   -29.7355500  142.9032000   -51.5572600 -141.1032000   -51.9079400 -155.2003000 
 		     -29.7940800  140.3650000    -0.6770684  -59.5285200   -50.6867300 -162.3987000   -48.7732800 -151.8829000
 		     -51.9450300 -154.2376000   -46.1483500 -157.1769000    -1.0335980 -113.5595000   -13.7819800  145.8324000
 		     -52.8431700 -119.7306000   -51.7286500 -177.4962000   -13.7643700  145.7470000    -1.0241800 -113.3974000
   30595630000    -0.6889468  -60.1159500   -30.2313700  143.1698000   -51.3717400 -148.2262000   -52.4766900 -153.7583000 
 		     -29.2992700  137.7601000    -0.6583994  -59.7601900   -51.3931700 -160.2121000   -51.0353900 -172.4516000
 		     -52.4073100 -156.5146000   -51.9462700 -171.8291000    -1.0243890 -113.7912000   -13.7229500  145.4017000
 		     -48.2628900 -141.9180000   -49.4212600 -160.7446000   -13.7405400  145.5885000    -1.0306240 -113.8756000
   30665620000    -0.6904415  -59.9698600   -30.1789300  142.3336000   -51.2324300 -168.5293000   -51.5124100 -164.9788000 
 		     -29.7753200  141.4968000    -0.6487964  -59.8521500   -48.9795600 -154.0047000   -50.7142300 -156.9560000
 		     -51.5553400 -140.3833000   -53.4299100 -172.8107000    -1.0590720 -113.9549000   -13.6787800  145.6456000
 		     -48.7901100 -151.7352000   -46.4451400 -148.9456000   -13.6559200  145.7557000    -1.0345430 -113.8579000
   30735610000    -0.6326798  -60.1491200   -30.1486200  141.7721000   -53.6115300 -164.8042000   -51.7745400 -151.4215000 
 		     -30.1156900  143.5647000    -0.6623754  -59.6582100   -50.1316800 -151.7343000   -50.4989700 -156.0786000
 		     -50.8418700  172.4447000   -52.8209700 -129.4155000    -1.0301430 -114.3783000   -13.6292000  145.1446000
 		     -52.9628500 -165.6384000   -49.0045000  177.5021000   -13.6200900  145.0960000    -1.0187570 -114.2606000
   30805600000    -0.6442049  -60.3285400   -29.8033900  145.7643000   -51.3847000 -170.4874000   -49.7663700 -166.4540000 
 		     -30.2167600  143.3208000    -0.6695911  -59.8288300   -50.9962700 -170.9869000   -51.4609900  178.4842000
 		     -54.6116600 -142.9078000   -45.7239800 -171.1580000    -1.0557930 -114.6611000   -13.5809800  144.9372000
 		     -51.1845200 -151.8798000   -49.9525000 -156.3253000   -13.5623100  144.7292000    -1.0768880 -114.7454000
   30875590000    -0.7138158  -60.0872400   -29.1668700  145.5715000   -52.1633700 -158.6582000   -50.6242400 -156.9361000 
 		     -30.0742400  146.5178000    -0.6481851  -60.0766400   -51.3199800 -179.5542000   -50.3520500 -165.0817000
 		     -53.2876600 -177.0526000   -48.5286900 -174.7188000    -1.0376230 -114.9342000   -13.4897100  144.6594000
 		     -49.8623400 -167.9890000   -48.0306500 -165.6933000   -13.5197700  144.6423000    -1.0470830 -114.8047000
   30945580000    -0.6252002  -60.4126900   -29.6184300  144.5961000   -50.6299600 -158.4866000   -50.8835300 -157.0228000 
 		     -29.9064700  143.8047000    -0.7029397  -60.0027200   -54.0904500 -173.5119000   -51.1767100 -159.2204000
 		     -57.3456000 -145.8375000   -48.4503500  176.4468000    -1.0410440 -115.1028000   -13.4659300  144.7708000
 		     -54.7300300 -112.8104000   -45.2227700 -149.5887000   -13.4604400  144.6178000    -1.0290180 -115.2294000
   31015570000    -0.6893272  -60.8015800   -29.1686900  143.8318000   -52.5723100 -167.0216000   -51.9485800 -165.2800000 
 		     -29.3309600  145.5033000    -0.6820987  -60.4506300   -52.0725500  178.3481000   -54.1437800  178.0871000
 		     -52.4726200  179.7657000   -46.2373900 -178.1419000    -1.0841940 -115.6048000   -13.4173900  144.2546000
 		     -54.2299500  176.2056000   -47.9069100 -164.0561000   -13.4098700  144.4736000    -1.0986130 -115.4469000
   31085560000    -0.6891583  -60.3197400   -29.4252400  146.9059000   -55.0786700 -137.9958000   -49.9770400 -161.9453000 
 		     -29.3616600  145.2213000    -0.6399668  -60.8363000   -48.8961500 -173.9764000   -52.4110800 -164.0845000
 		     -50.8624500 -154.0599000   -51.6672200 -134.7473000    -1.0289750 -115.7638000   -13.3610900  143.8360000
 		     -51.3118400  155.5411000   -52.2895500  156.7326000   -13.3775900  143.9442000    -1.0744870 -115.7096000
   31155550000    -0.6367369  -61.0486500   -29.9454000  144.5984000   -52.3415800 -171.6798000   -49.8197600 -151.8609000 
 		     -29.9475000  145.4838000    -0.6822460  -60.7509300   -53.7043300  179.5837000   -49.2577300 -175.4192000
 		     -49.7042800 -175.0985000   -50.5039400 -131.3074000    -1.0529120 -115.9026000   -13.3136300  143.8232000
 		     -48.5896500  172.6110000   -46.5297400 -164.1844000   -13.3410900  143.4598000    -1.0464780 -116.1411000
   31225540000    -0.6760904  -60.9958000   -29.1144000  142.3176000   -52.9228800 -171.6044000   -53.5879600 -160.9894000 
 		     -29.0509500  146.6718000    -0.5829683  -60.7034600   -53.0775800 -175.8035000   -50.3541600 -177.3485000
 		     -50.8329000 -155.4655000   -59.3569900  166.9714000    -1.0876190 -116.4822000   -13.2938300  143.4907000
 		     -52.2788100 -141.3940000   -49.8477400 -173.9900000   -13.3009100  143.0406000    -1.1079770 -116.5908000
   31295530000    -0.6633756  -60.6649400   -29.4132300  143.5134000   -50.3603700 -152.4199000   -51.7076500 -176.8300000 
 		     -29.0313500  146.1615000    -0.6594014  -61.0874900   -51.7705000 -160.5243000   -52.7900800  170.3089000
 		     -50.7432900 -151.2555000   -46.9200300 -176.4231000    -1.0549400 -116.7374000   -13.2002600  142.9650000
 		     -52.7450600 -175.9254000   -56.0503300  167.1168000   -13.1837500  142.9800000    -1.0698520 -116.8045000
   31365520000    -0.6382568  -61.4008100   -29.1354200  151.9437000   -51.4279300 -164.5234000   -50.2559200  168.9862000 
 		     -28.7277800  148.2642000    -0.6590649  -61.2056000   -52.1567100  178.4662000   -51.1354600 -171.1947000
 		     -48.7007400 -172.3867000   -52.5506600 -170.6108000    -1.0614080 -116.7596000   -13.1455300  143.2616000
 		     -48.7276900 -167.8633000   -53.3736000  171.3261000   -13.1656100  143.0173000    -1.0678030 -116.9373000
   31435510000    -0.6710207  -61.5947000   -28.5081000  151.1709000   -51.4975800 -172.6093000   -52.5478200 -177.1089000 
 		     -29.0855800  147.7439000    -0.6270782  -61.3172500   -56.5145000  176.2447000   -53.0954800  165.4071000
 		     -52.1265000 -162.1067000   -52.8737300  156.6842000    -1.0794980 -117.1767000   -13.1119500  142.8285000
 		     -50.2633100 -179.0070000   -54.6610800 -177.8781000   -13.1122900  142.8565000    -1.1013150 -117.2285000
   31505500000    -0.6405116  -61.5059000   -29.0359000  148.8688000   -53.9711000  166.7638000   -49.9631000 -173.7188000 
 		     -28.8600100  146.1199000    -0.6607994  -61.6205600   -50.8543100 -173.0026000   -49.7454800  175.0058000
 		     -52.3098800  166.2425000   -53.0356200  156.8697000    -1.0666830 -117.3692000   -13.0532500  142.5311000
 		     -50.2200400 -173.1149000   -51.2195000 -157.0253000   -13.0543900  142.5574000    -1.1064010 -117.6523000
   31575490000    -0.6728903  -61.9270600   -28.9739200  149.9048000   -51.7076300 -172.0876000   -51.4729500 -174.1647000 
 		     -28.6670400  152.1390000    -0.6625503  -61.6657900   -52.8501100 -159.5174000   -52.4123900 -171.1165000
 		     -52.4476900 -164.6572000   -49.4445100 -163.4237000    -1.0762640 -117.5277000   -12.9968300  142.1116000
 		     -50.3350500  175.7267000   -55.0857200  160.8976000   -13.0060800  142.2570000    -1.0835090 -117.9134000
   31645480000    -0.6605769  -61.9732300   -28.6195400  147.2923000   -53.3325400 -170.3831000   -50.8091300  177.3332000 
 		     -28.4670600  150.6087000    -0.7312251  -61.6528700   -52.2937000  174.3727000   -48.8485100 -165.6297000
 		     -52.0154300 -159.9308000   -53.4393000 -172.8861000    -1.0953950 -118.0148000   -12.9791200  141.9296000
 		     -50.2704800 -178.5165000   -48.6457100  170.7895000   -12.9423300  141.8903000    -1.0998710 -118.0710000
   31715470000    -0.6509253  -61.9837900   -28.8336800  153.4285000   -51.8336300 -165.9790000   -51.3456400 -177.5037000 
 		     -28.5191600  152.1531000    -0.6470367  -61.5772600   -53.7605900 -177.2844000   -51.3717900 -177.0527000
 		     -58.4277800 -167.5086000   -47.2787300  173.0188000    -1.0824430 -118.2652000   -12.8963400  141.6228000
 		     -51.5054700 -168.5586000   -50.3673700 -176.2699000   -12.9315400  141.8589000    -1.1113120 -118.3282000
   31785460000    -0.6783701  -62.4413900   -28.3529600  153.6137000   -51.3806400 -163.0659000   -50.7857700 -164.0223000 
 		     -28.5239600  154.4455000    -0.6922678  -62.2433500   -51.0971100 -177.3649000   -51.9320500 -177.7941000
 		     -52.8683500 -169.4534000   -53.4026000 -174.3765000    -1.0729230 -118.4959000   -12.8668500  141.3901000
 		     -49.0817500 -165.5592000   -48.1482800  172.1068000   -12.8919000  141.5673000    -1.1116470 -118.6468000
   31855450000    -0.6424114  -62.6876200   -28.2352700  154.4439000   -51.5963100 -179.0808000   -51.1509700 -172.6034000 
 		     -28.5076500  154.6262000    -0.6863021  -61.9553000   -50.5892100  172.6607000   -52.7566500  172.1334000
 		     -49.1832300 -170.9036000   -50.4088000  150.7824000    -1.0919640 -118.9227000   -12.8366500  141.3168000
 		     -52.2662000  175.0461000   -52.2081700 -147.9832000   -12.8897700  141.4115000    -1.1261020 -118.9126000
   31925440000    -0.6492831  -62.4833700   -28.1777600  152.5947000   -51.1282500 -171.9501000   -51.3070900  179.9113000 
 		     -28.7403400  153.0424000    -0.6146490  -62.2971100   -52.8374900  174.3064000   -51.5201900 -169.4300000
 		     -50.8162300  174.7627000   -51.5146000 -177.0885000    -1.1252320 -119.1332000   -12.8007200  141.1367000
 		     -49.7071500 -179.2377000   -47.4633200  176.1829000   -12.8296200  140.9451000    -1.1213360 -119.2562000
   31995430000    -0.6378917  -62.8636900   -28.3633200  158.0334000   -51.7185500 -177.1774000   -52.5064600  172.9224000 
 		     -28.0157000  154.4039000    -0.6771818  -62.3933600   -50.7856000 -173.0521000   -50.2542300  166.1181000
 		     -53.2108500  164.9026000   -51.4583200 -163.3288000    -1.1225290 -119.4482000   -12.7428800  141.0110000
 		     -50.1497800  179.1911000   -50.1621000  154.5518000   -12.7604100  140.7828000    -1.1058380 -119.3796000
   32065420000    -0.6537492  -63.0723200   -28.0722700  153.8373000   -51.4995300  167.9798000   -50.9059200  171.8859000 
 		     -27.9761000  152.6734000    -0.7138833  -62.8452000   -54.0404400  171.1518000   -50.5801200  163.0428000
 		     -47.6534100  161.9064000   -46.9602000 -125.9575000    -1.1274990 -119.8813000   -12.6891900  140.5345000
 		     -53.1731400  175.2316000   -53.0019500  153.2132000   -12.7191900  140.6643000    -1.1312820 -119.5901000
   32135410000    -0.6755438  -63.1311100   -27.7599200  154.2898000   -51.8909200 -179.8841000   -51.2702200  176.1198000 
 		     -28.1792400  155.2713000    -0.7110817  -62.7558400   -55.9487500  168.2791000   -53.1584700  162.3458000
 		     -48.7993300 -177.4534000   -53.1877100 -171.1029000    -1.1087070 -119.9478000   -12.6580900  140.6532000
 		     -51.7736200  163.2980000   -52.4775500  166.2213000   -12.6916100  140.1777000    -1.1458190 -120.0194000
   32205400000    -0.6562099  -63.2876100   -27.9716200  157.7688000   -51.8916900 -176.3191000   -49.6918000  157.5577000 
 		     -28.1245000  155.7467000    -0.6079471  -63.1251500   -54.7575000  175.2919000   -51.4607700  160.0448000
 		     -48.8529800  165.1105000   -58.2952200  134.8827000    -1.1319470 -120.3177000   -12.6515300  140.1470000
 		     -55.8969000  140.9229000   -49.9616600  138.5112000   -12.7029600  140.0821000    -1.1700470 -120.2320000
   32275390000    -0.6701407  -63.3857400   -28.0334500  157.4055000   -51.1163600  175.6751000   -52.1284900  171.5555000 
 		     -27.6855200  156.0927000    -0.7726062  -62.8345700   -54.9159400 -179.0269000   -51.0191300 -173.8887000
 		     -49.8195300 -168.8616000   -49.1667900  178.9516000    -1.1539960 -120.5225000   -12.6151400  139.9591000
 		     -54.8126700  154.4345000   -53.6442000 -178.4841000   -12.5906800  139.8014000    -1.1577410 -120.6425000
   32345380000    -0.6641197  -63.2757000   -27.1488300  153.6970000   -51.9419600 -176.5656000   -53.2533000 -170.9533000 
 		     -27.5040800  157.8971000    -0.6768082  -63.5956700   -56.6075900  160.8588000   -52.6509200  176.6194000
 		     -51.6260300 -151.3912000   -50.6593500  172.8640000    -1.1659700 -120.6549000   -12.5568300  139.7959000
 		     -51.9922800 -152.9591000   -53.8511100  138.8463000   -12.5562600  139.7585000    -1.1438870 -120.9525000
   32415370000    -0.6800048  -63.8256600   -27.6692500  156.6016000   -57.2126400 -166.5432000   -50.8449900  160.3095000 
 		     -27.2904800  154.9209000    -0.6791233  -63.1911800   -54.6407900  173.4076000   -53.2645000  160.3294000
 		     -49.9773800 -174.2490000   -60.2812200  117.9261000    -1.1760230 -121.2035000   -12.5144600  139.3564000
 		     -52.5811500 -178.0559000   -52.4623600 -129.2693000   -12.5573300  139.1578000    -1.1555870 -120.9239000
   32485360000    -0.7049592  -63.7019800   -27.6913300  161.6212000   -51.4908600  179.0051000   -52.2203900 -165.6507000 
 		     -26.9863100  156.0182000    -0.6229318  -63.5118600   -53.5493700 -176.3452000   -50.2424300 -160.8603000
 		     -51.5696700 -138.8376000   -53.4387100 -146.6176000    -1.1895720 -121.5107000   -12.5116600  139.0807000
 		     -51.9437700 -179.6989000   -50.3624800 -166.5961000   -12.4869700  139.1551000    -1.1940890 -121.4400000
   32555350000    -0.6654292  -63.6805500   -27.2370500  158.8838000   -53.2005200  170.9966000   -51.8899600 -175.4117000 
 		     -27.2650600  159.4480000    -0.7008135  -63.9223300   -51.9210600 -173.1368000   -53.3372300  172.4408000
 		     -55.2291100 -150.0786000   -54.3714400 -152.4980000    -1.1609610 -121.5195000   -12.4160600  139.0901000
 		     -52.9019200  170.1571000   -63.2667100   40.4117100   -12.3917900  138.8435000    -1.1632900 -121.6033000
   32625340000    -0.6733491  -64.0949700   -27.2651600  156.4242000   -52.0125400 -176.3914000   -53.5061700  171.4295000 
 		     -27.2197800  158.8114000    -0.6991302  -63.7395900   -53.8222500  178.9640000   -53.9497700  173.1278000
 		     -46.6836500 -152.1548000   -52.2475000  179.9163000    -1.1863970 -121.8289000   -12.3794900  138.9434000
 		     -52.2492000 -171.5438000   -53.2228500  139.9929000   -12.3902100  139.0247000    -1.1704370 -121.7286000
   32695330000    -0.7087321  -64.2678900   -26.8952800  159.4329000   -50.5487700 -173.4794000   -53.6527300  178.3411000 
 		     -27.0704300  158.1150000    -0.7105369  -63.8602100   -52.0015300  164.7492000   -52.7298500  173.7733000
 		     -56.3950200  150.4811000   -50.6321300 -164.5144000    -1.2151320 -122.0722000   -12.3243100  138.7119000
 		     -49.8869900  175.8269000   -54.4063100 -159.9311000   -12.2985400  138.3069000    -1.2148860 -122.2327000
   32765320000    -0.6639478  -64.2219500   -26.6944300  160.2101000   -53.2036000  175.8259000   -53.1243200 -171.1754000 
 		     -26.8282600  158.6390000    -0.6827900  -64.2992500   -50.9536600 -175.1799000   -52.9760300  165.7289000
 		     -51.0634300  158.7223000   -47.8138900  178.4314000    -1.1835260 -122.2965000   -12.3175400  138.5229000
 		     -55.1812700  158.5415000   -51.1904300  155.3181000   -12.2640200  138.5616000    -1.1659410 -122.4331000
   32835310000    -0.6912506  -64.4826300   -26.9208500  159.7147000   -52.0710400 -158.7830000   -54.5590200  172.9900000 
 		     -26.8675100  158.7078000    -0.6976985  -64.1523700   -54.9407500 -177.1601000   -53.3121700  174.3093000
 		     -48.7759200 -170.2264000   -48.4222900  170.7452000    -1.2382210 -122.5742000   -12.2992500  138.5361000
 		     -48.6586800  159.7873000   -54.3847000 -170.1703000   -12.3168100  138.1924000    -1.1821140 -122.6356000
   32905300000    -0.6741672  -64.6712900   -26.3934500  160.1861000   -51.4962800  160.6425000   -52.8971600 -179.9210000 
 		     -26.7447500  159.9630000    -0.6731197  -64.3715100   -53.4884600  153.9409000   -51.2045300  165.3318000
 		     -55.2097200 -150.2655000   -50.7899200  166.5902000    -1.2311210 -122.9266000   -12.2558000  137.7621000
 		     -50.5229500  165.9917000   -56.7840700 -147.6991000   -12.2491500  137.8937000    -1.2225620 -123.0573000
   32975290000    -0.6783447  -64.7590400   -26.7310700  157.4659000   -53.1019400 -175.3415000   -52.6668600 -178.0926000 
 		     -26.6982100  158.5208000    -0.7297847  -65.0498000   -58.7950100  178.7517000   -51.2692000  172.9820000
 		     -55.2530600  168.8725000   -50.3842800 -156.1261000    -1.1969760 -123.0349000   -12.1974600  137.8816000
 		     -54.4232100 -172.5736000   -53.0439700  152.7339000   -12.1592400  138.0432000    -1.1962530 -123.4214000
   33045280000    -0.7543281  -65.3645500   -26.6127000  158.3304000   -54.0578100 -174.7238000   -54.7921900  161.1245000 
 		     -26.2449800  161.5942000    -0.6978074  -64.8244800   -53.9661600  140.0353000   -58.0041200 -172.8751000
 		     -53.5447000  168.0588000   -52.4176100 -168.2246000    -1.2126070 -123.2569000   -12.1666600  137.5860000
 		     -53.5170700  170.6271000   -49.9684700  179.3077000   -12.1778000  138.1070000    -1.2080720 -123.5255000
   33115270000    -0.7202207  -64.9342800   -26.4501400  160.8546000   -52.9263800  175.1866000   -53.3757700  164.6059000 
 		     -26.5099600  161.7221000    -0.6482860  -64.8207200   -52.7471900 -174.3636000   -50.5174200 -177.1194000
 		     -54.8003000  154.3703000   -57.4184300  143.7019000    -1.2436790 -123.6233000   -12.1057200  137.3294000
 		     -55.4230900  168.7003000   -50.4478300  146.2801000   -12.1289700  137.1553000    -1.2170290 -123.5898000
   33185260000    -0.7039043  -65.4613800   -25.9772200  160.5643000   -54.1976200 -177.7585000   -53.1476400  171.6639000 
 		     -26.0163300  159.3506000    -0.6849777  -65.2854100   -54.0331200 -150.7640000   -53.3630800 -168.1790000
 		     -50.1521700  174.0353000   -51.4574100 -131.4865000    -1.1859130 -123.6483000   -12.0124900  137.4141000
 		     -51.8336700  155.1365000   -54.3361300 -178.3216000   -12.0808000  137.1275000    -1.2121310 -124.1747000
   33255250000    -0.7640465  -65.6165600   -26.1028600  164.0838000   -52.2455900  170.7266000   -52.3841100  166.7727000 
 		     -26.2315500  161.1495000    -0.7477387  -64.8842200   -55.4675100  164.1572000   -55.3082100  177.3769000
 		     -59.8165100  166.5698000   -52.2319600  132.7444000    -1.2538700 -123.9434000   -12.0130000  137.3623000
 		     -47.4850700 -157.4293000   -55.5543500 -131.8651000   -12.0553200  137.1360000    -1.2359260 -124.1677000
   33325240000    -0.7099160  -65.2475200   -26.1365100  162.8469000   -50.1251200 -170.1736000   -50.3874600  173.5722000 
 		     -25.9434100  163.8149000    -0.6885006  -65.1160000   -54.9026100  166.1232000   -52.4106900 -176.2213000
 		     -51.5938100  156.2040000   -70.5428500 -100.9538000    -1.2388720 -124.6089000   -11.9808100  136.6792000
 		     -51.4753300  147.2143000   -52.1263500  162.9009000   -12.0169100  136.5512000    -1.2454290 -124.2022000
   33395230000    -0.6928170  -65.6557800   -26.1115400  161.2746000   -54.0560200  174.7563000   -55.1042600  179.1052000 
 		     -25.9345300  162.1079000    -0.7603104  -65.4401400   -55.9047700  171.0907000   -54.5663500 -171.4657000
 		     -50.1022300  158.1081000   -56.7950000 -172.0049000    -1.2000980 -124.5509000   -11.9177600  136.2500000
 		     -53.9346200 -144.5448000   -50.6352800 -167.2795000   -11.9471100  136.3471000    -1.2456950 -124.8477000
   33465220000    -0.7151853  -66.0456200   -25.8733400  163.6077000   -50.7080300  178.0024000   -52.8707300 -179.9184000 
 		     -25.9839800  162.1943000    -0.7372875  -65.3494900   -51.4943400  156.1989000   -53.7208300 -154.0849000
 		     -47.5380000 -164.8725000   -51.9805600  168.3403000    -1.2313540 -124.7063000   -11.9055800  136.4527000
 		     -53.8643500  178.4353000   -50.3879900 -167.5192000   -11.8761800  136.3777000    -1.2289850 -124.8718000
   33535210000    -0.7018452  -65.9003200   -25.6934600  161.5918000   -54.4167900  169.2393000   -52.0866200  176.3087000 
 		     -25.6213200  162.2891000    -0.7419319  -65.5837700   -50.9955700  159.1540000   -50.1897200 -161.3794000
 		     -52.2883500 -178.2757000   -51.4694400  100.9482000    -1.2489060 -125.1089000   -11.8771800  136.2914000
 		     -50.1167300  170.3732000   -48.2695700 -172.8430000   -11.8857300  136.2802000    -1.2393060 -124.7948000
   33605200000    -0.6877443  -66.2688300   -25.4969700  163.4374000   -54.3770800  171.2121000   -51.1428400  172.8079000 
 		     -25.9833100  163.2235000    -0.7735573  -65.8016600   -49.5660800  178.2461000   -52.9188200 -171.0314000
 		     -49.2018700 -165.3206000   -47.2163000 -174.7740000    -1.2140330 -125.4025000   -11.8136900  135.5454000
 		     -49.9423000 -170.6371000   -52.1165800  176.2720000   -11.8138100  135.4241000    -1.2753160 -125.5653000
   33675190000    -0.7349541  -66.0378300   -25.5498400  162.3185000   -50.4183800  175.4229000   -49.3526500 -172.5195000 
 		     -25.6062700  161.9008000    -0.7595358  -65.6884800   -50.8820000 -178.8005000   -50.5288900  174.0621000
 		     -48.8639100  169.1852000   -50.3957700   98.9565400    -1.2248590 -125.4625000   -11.7550300  135.8028000
 		     -50.4367200  178.2879000   -45.0982100  174.0913000   -11.7461800  135.7420000    -1.2416240 -125.7768000
   33745180000    -0.7222919  -66.3543700   -25.2074600  162.6472000   -52.2999600 -169.9791000   -51.1965300  168.1674000 
 		     -25.5499200  164.3564000    -0.7448593  -66.0069900   -53.7529400 -176.2271000   -50.1064500  162.1663000
 		     -48.6219600  178.3434000   -54.6779300 -160.3866000    -1.2513420 -125.9885000   -11.7574300  135.6761000
 		     -49.9307700  169.4002000   -51.7016700 -170.0606000   -11.7373400  135.4881000    -1.2382390 -125.7674000
   33815170000    -0.7185426  -66.7017300   -25.3752600  163.0758000   -50.8974600  172.7105000   -51.1271600  171.2520000 
 		     -25.1886100  165.1113000    -0.7696713  -65.8926500   -48.7234300  158.1625000   -51.2712200 -177.0401000
 		     -51.0362500  167.6818000   -59.6714900 -173.7998000    -1.2301700 -126.5070000   -11.7188700  135.1549000
 		     -50.2222900  151.2230000   -45.9194700 -172.8255000   -11.7016000  135.3602000    -1.2950080 -126.3535000
   33885160000    -0.7057403  -66.7224400   -25.2070800  163.2659000   -51.8653100  161.7296000   -52.1051200 -176.4346000 
 		     -25.4576500  166.0870000    -0.6809040  -66.3990300   -52.5505300 -172.6033000   -54.3188800  165.6210000
 		     -54.5196700  179.3819000   -49.0011400 -149.9440000    -1.2060430 -126.2647000   -11.6156300  135.2158000
 		     -51.2909500  167.9341000   -48.7825300 -170.3147000   -11.5883600  135.1324000    -1.2217320 -126.5401000
   33955150000    -0.7243663  -66.6445500   -25.1307500  164.2317000   -54.0234200  168.6694000   -49.8358100  177.6064000 
 		     -25.0280500  164.1055000    -0.6938082  -67.0225400   -51.5732200  144.1085000   -50.7125900 -176.9667000
 		     -50.9336100 -168.4970000   -49.8438000 -115.8557000    -1.2681260 -126.6943000   -11.6420100  135.2685000
 		     -53.1147400  170.8003000   -59.8985000  155.8751000   -11.6490500  134.8647000    -1.2481120 -126.5784000
   34025140000    -0.7639284  -66.9892400   -25.0450800  166.8938000   -51.0281900  172.1118000   -50.4401000  174.8049000 
 		     -25.2123600  165.5937000    -0.7655317  -66.9108400   -50.8420800  172.8810000   -51.5774600  167.3831000
 		     -48.9225500  173.3311000   -49.4298600  126.1865000    -1.2758340 -127.1037000   -11.5793300  134.4426000
 		     -52.2932700 -153.6954000   -51.2915800  179.1266000   -11.6007200  134.5529000    -1.3179600 -127.1514000
   34095130000    -0.7474715  -67.0870400   -25.0463400  160.6068000   -50.5308800 -177.1291000   -48.4332200 -176.2497000 
 		     -24.9461500  163.1054000    -0.7953275  -67.6059300   -52.5316400  169.3857000   -50.6821400  174.5078000
 		     -48.2676200 -170.6355000   -54.5974400  122.1627000    -1.1970100 -127.0358000   -11.4645300  134.1608000
 		     -50.0003400  174.5183000   -49.1268900 -166.3442000   -11.5048100  134.1143000    -1.2456960 -127.6794000
   34165120000    -0.7287017  -67.2120900   -24.5512500  164.8374000   -55.0923900  149.0110000   -51.3547700  169.1347000 
 		     -24.8358800  163.9472000    -0.7565392  -67.2352900   -49.6736800  177.8170000   -49.5221600  165.4194000
 		     -47.0812400  171.5862000   -58.6839500  -83.3479200    -1.2764550 -127.4821000   -11.4868300  134.0731000
 		     -52.3959800 -179.2094000   -47.3789400 -176.9163000   -11.4902700  134.2060000    -1.2490340 -127.6909000
   34235110000    -0.7599986  -67.4484800   -25.0504600  162.8640000   -53.0685700  177.9086000   -50.0752000  174.7055000 
 		     -24.5813500  164.9416000    -0.7322011  -66.9680900   -50.8351100  168.8251000   -49.3681600 -170.5970000
 		     -48.4857700  179.2108000   -47.3163200  174.5015000    -1.2945640 -128.0850000   -11.4839200  133.6919000
 		     -52.1116900 -178.6595000   -50.8075900  167.2524000   -11.4744100  133.5203000    -1.3297490 -127.8093000
   34305100000    -0.7451587  -67.1497200   -24.4210100  165.5495000   -52.5095400 -179.0118000   -47.9466900  164.9807000 
 		     -25.0086600  162.7404000    -0.7401156  -67.5534700   -50.7039800  168.8965000   -48.7616000 -171.0896000
 		     -47.9017800  164.0251000   -48.1842200  133.4202000    -1.1923530 -128.0572000   -11.3929400  133.5857000
 		     -47.8649600  152.0709000   -49.1092900  150.6164000   -11.4115600  133.2068000    -1.2842000 -128.6227000
   34375090000    -0.7281849  -67.5501300   -24.2692100  165.0338000   -49.2132200  153.0275000   -47.1005300  157.8480000 
 		     -24.4656900  165.2227000    -0.7088446  -67.5693400   -51.5986300  162.1147000   -50.2946200  164.0927000
 		     -49.9839600 -174.4676000   -50.7624400  129.6064000    -1.2946120 -128.2414000   -11.3877200  133.5166000
 		     -48.2795000  178.2608000   -50.0636300  166.3113000   -11.3758300  133.4899000    -1.2899630 -128.6625000
   34445080000    -0.7567688  -68.1224900   -24.3062300  165.4973000   -50.9434100  169.2367000   -47.9963500  159.5861000 
 		     -24.4575900  165.7994000    -0.7718492  -67.6212700   -50.8588400  176.4169000   -50.5464900  160.9808000
 		     -47.7797200 -170.3382000   -53.1177700  154.4831000    -1.3090190 -128.7618000   -11.3196700  132.7295000
 		     -49.9582100  153.1525000   -51.1087000  159.9020000   -11.3369600  132.7899000    -1.3066170 -128.7917000
   34515070000    -0.7528437  -67.9826000   -24.4193100  165.8120000   -50.3538600  176.8372000   -50.3096400  156.4460000 
 		     -24.1586300  164.0585000    -0.7775042  -67.5314100   -49.7155200  172.8444000   -49.3149600  173.2575000
 		     -49.4890800 -179.8087000   -44.1082400  153.0201000    -1.2374680 -129.0534000   -11.3175600  132.6267000
 		     -48.3167600  150.4355000   -50.9802900  146.8508000   -11.3239200  132.7236000    -1.2815240 -129.4318000
   34585060000    -0.7355189  -68.3271800   -24.3004200  162.2660000   -50.0128100  172.0799000   -49.8320900  159.1605000 
 		     -24.2138200  166.3168000    -0.7114422  -68.2816500   -50.1153600  153.1098000   -50.1662000  166.7892000
 		     -48.8065800  165.3465000   -48.3513800  155.1599000    -1.2904440 -129.2845000   -11.2832300  132.5633000
 		     -55.3256200 -173.3036000   -52.9099100  144.5898000   -11.2655200  132.6865000    -1.2962590 -129.4869000
   34655050000    -0.7887436  -68.4887200   -24.2469900  164.6243000   -49.2697200  166.4393000   -50.1949300  165.9867000 
 		     -24.1716400  165.7558000    -0.7599474  -68.1248100   -48.0382600  158.3768000   -50.9946400  157.5545000
 		     -52.1202100 -159.0132000   -47.3602200  154.2187000    -1.2915640 -129.4785000   -11.2599800  132.2304000
 		     -50.6437500  153.4473000   -48.2562100  164.4264000   -11.2294700  132.3440000    -1.3080470 -129.5905000
   34725040000    -0.7814715  -68.5735900   -23.9232000  166.6838000   -50.9757700  169.5007000   -49.6126400  168.6810000 
 		     -23.9994700  165.0281000    -0.8247216  -68.0883100   -48.9883700  168.2079000   -49.7531800  167.6040000
 		     -50.5154500  138.2668000   -54.7896400 -137.2679000    -1.2500820 -129.8015000   -11.2178400  132.0557000
 		     -50.5210700 -172.6004000   -52.3607700  133.2167000   -11.1978300  132.1135000    -1.3322750 -130.1851000
   34795030000    -0.7322456  -68.6212100   -23.6811200  166.8268000   -52.3047200  162.5630000   -49.2729800  157.5677000 
 		     -23.9655100  166.5430000    -0.7234727  -68.3375300   -50.5166100  162.2887000   -49.2063100  164.1818000
 		     -50.4034200  156.3116000   -51.0754400 -170.5371000    -1.3009420 -130.1183000   -11.1357800  131.8603000
 		     -53.8665900  147.1856000   -48.2478600  169.5321000   -11.1344900  132.1365000    -1.3099700 -130.2769000
   34865020000    -0.8094906  -68.8732900   -24.1789600  165.3668000   -49.3486300  155.5261000   -48.6564900  160.7067000 
 		     -24.1546100  167.6653000    -0.8004309  -68.2631200   -49.4131900  159.6651000   -50.4046200  144.9142000
 		     -51.1687500  148.8309000   -54.3701300 -152.9666000    -1.3313810 -130.2468000   -11.1354700  131.6885000
 		     -46.0792100  149.6874000   -47.3710900 -162.8942000   -11.1450600  131.6987000    -1.2892080 -130.4101000
   34935010000    -0.7857771  -68.9336600   -23.9591700  166.6118000   -49.0891600  163.6313000   -53.2663700  166.9818000 
 		     -23.6676000  166.9007000    -0.7741379  -68.1235300   -49.9538400  169.1302000   -48.0294400  146.5412000
 		     -52.7171700  140.2098000   -53.1580600 -156.3494000    -1.2888710 -130.9974000   -11.1120200  131.2890000
 		     -51.9575000  149.9895000   -46.1137400  143.8447000   -11.1404900  131.4643000    -1.3291740 -130.6139000
   35005000000    -0.7277273  -69.0246900   -23.6637600  167.2912000   -51.1819300  142.4992000   -48.9228700  158.3960000 
 		     -23.7894400  165.5675000    -0.7833167  -68.6457300   -49.6668200  145.2435000   -50.9285700  151.4286000
 		     -55.5210100 -146.4527000   -47.7830100  171.8253000    -1.3109750 -131.0072000   -11.0433700  131.2608000
 		     -50.7510100  156.7379000   -46.2931900  172.6494000   -11.0433200  131.1251000    -1.3327300 -130.9335000
   35074990000    -0.7625594  -68.8656200   -23.4520500  167.8828000   -50.8937000  161.9431000   -49.8720900  158.9858000 
 		     -23.5142900  165.9567000    -0.8148972  -69.2374500   -49.7313100  165.1621000   -50.7786300  167.9946000
 		     -47.4256200  146.9083000   -53.1086900  153.2565000    -1.3106230 -131.0846000   -11.0585000  131.0095000
 		     -54.8905500  158.7510000   -47.4935500  165.2835000   -11.0613100  130.9627000    -1.2993960 -131.2707000
   35144980000    -0.7783765  -69.2877900   -23.5935600  169.2557000   -48.7572100  152.9959000   -52.7243600  148.7734000 
 		     -23.6464500  166.3423000    -0.7639709  -69.2792100   -51.2051200  144.4635000   -47.7926900  148.9369000
 		     -51.0744500  144.3310000   -51.4841200  142.9472000    -1.3266310 -131.6337000   -11.0023400  130.7602000
 		     -48.8679100  157.3380000   -54.5416300  153.3942000   -11.0246600  130.7515000    -1.3526280 -131.5568000
   35214970000    -0.7157631  -69.5363600   -23.2841300  166.5704000   -51.3989300  159.5756000   -50.4995000  140.4753000 
 		     -23.5588400  165.3589000    -0.7792836  -68.9964900   -50.0208700  149.4818000   -48.4324500  147.1841000
 		     -50.1777100  148.4514000   -49.8242400  172.4105000    -1.3300840 -131.8351000   -10.9515900  130.3247000
 		     -50.8161200  155.3698000   -48.9991800  138.7652000   -10.9331100  130.1218000    -1.3400590 -131.8296000
   35284960000    -0.7828836  -69.6197300   -23.3135200  165.1298000   -50.7822800  158.2723000   -49.3314700  161.0668000 
 		     -23.2837400  167.9088000    -0.8121300  -69.3842200   -51.2258600  140.1868000   -48.9316600  162.0716000
 		     -51.3168300  137.7484000   -46.9936100  148.9617000    -1.3487160 -131.9022000   -10.9301500  130.3614000
 		     -49.4178500  157.9288000   -52.6188000 -178.1838000   -10.9302500  130.3846000    -1.3034080 -132.1143000
   35354950000    -0.8096558  -69.7676900   -23.0901600  166.6412000   -51.2102500  156.8788000   -49.0004800  148.5734000 
 		     -23.0562600  166.2414000    -0.7653977  -69.0985300   -50.5353700  150.4579000   -49.9740200  142.3758000
 		     -49.0490500  158.6762000   -53.5895200  163.0484000    -1.3552170 -132.5179000   -10.9023000  129.8170000
 		     -49.5977500  160.5313000   -55.6718000  177.2157000   -10.9021100  129.8194000    -1.3549080 -132.2195000
   35424940000    -0.7508677  -70.0865500   -23.1238300  170.0422000   -50.1956200  165.9024000   -51.6454700  146.1216000 
 		     -23.0282900  166.3311000    -0.7825718  -69.8955900   -49.9595900  139.7577000   -49.7866800  137.1303000
 		     -57.0729100 -110.9527000   -50.1723200  149.0814000    -1.3424050 -132.7175000   -10.8514600  129.6940000
 		     -50.7066700  133.0669000   -46.5712800  141.0214000   -10.8407300  129.6881000    -1.3544630 -132.6405000
   35494930000    -0.7615411  -69.8866200   -22.9204200  168.3491000   -50.4875000  153.3850000   -51.0811100  137.3909000 
 		     -23.2476000  167.0118000    -0.8235096  -69.8237900   -52.4253000  147.4391000   -46.9788700  130.1043000
 		     -52.7616300  133.5979000   -51.9082700  176.6625000    -1.3672190 -132.6822000   -10.7973600  129.7681000
 		     -49.6488100  152.3090000   -48.2249300  113.2630000   -10.8333100  129.5451000    -1.3255560 -133.1320000
   35564920000    -0.8112378  -69.8387400   -22.9116900  168.0211000   -49.4014100  158.2531000   -50.6154100  169.7035000 
 		     -22.9318600  167.0992000    -0.7910920  -69.7794700   -53.1372600  153.7059000   -52.6403000  140.4012000
 		     -49.4619400  143.7784000   -46.1553100  110.0915000    -1.3786840 -133.1566000   -10.8172600  128.8730000
 		     -48.4687700  157.2451000   -49.5091600 -171.0440000   -10.7882800  129.3482000    -1.3390070 -133.2097000
   35634910000    -0.7332053  -70.2820500   -22.9103100  167.1439000   -52.2497300  158.7038000   -51.7535600  161.6176000 
 		     -23.1284000  168.7886000    -0.7491701  -70.5849800   -52.6010100  148.2176000   -51.4020500  161.1133000
 		     -55.5810800   92.1052000   -49.2714000  113.5026000    -1.3629060 -133.3566000   -10.7814400  129.2185000
 		     -57.9349100  142.5277000   -47.7422100  131.9726000   -10.7762300  129.2145000    -1.3584590 -133.4838000
   35704900000    -0.8609556  -70.5909700   -22.8190000  169.1961000   -51.7338500  160.2421000   -51.3920500  145.9054000 
 		     -22.8398500  167.9419000    -0.7854347  -69.6165700   -51.0447000  138.3549000   -49.7105000  159.6812000
 		     -50.6611300  171.2603000   -46.7455900  168.2689000    -1.4068860 -133.5264000   -10.7399200  128.7311000
 		     -51.4888500 -173.4903000   -51.8177000  143.5554000   -10.7172900  129.0585000    -1.3535770 -133.9870000
   35774890000    -0.7642169  -70.4086100   -22.7036500  168.6351000   -49.9865900  134.6162000   -52.2498300  132.0587000 
 		     -22.5838200  167.6088000    -0.7331048  -70.3452500   -52.6402100  153.7608000   -56.0730800  146.1322000
 		     -52.3622600  140.3325000   -48.4252100  159.0813000    -1.3787040 -133.9230000   -10.7350500  128.6266000
 		     -51.1876000  160.8390000   -43.1401900  168.8453000   -10.7629500  128.7080000    -1.3903910 -133.9703000
   35844880000    -0.8086849  -70.8699300   -22.8875000  168.0774000   -53.0787400  151.9599000   -53.9875600  148.0562000 
 		     -22.6836300  168.6384000    -0.7860703  -70.4657700   -51.3318900  149.8662000   -52.4675400  150.2997000
 		     -48.8475800  144.1983000   -49.4769700  175.9831000    -1.3995720 -134.1426000   -10.6928000  128.2186000
 		     -52.8854200  113.9596000   -50.5376300  107.4541000   -10.7272700  128.3626000    -1.3757390 -134.4923000
   35914870000    -0.8119524  -71.1019400   -22.1699400  168.5380000   -58.7852400  165.9081000   -50.5941700  163.8067000 
 		     -22.4463700  167.8926000    -0.7649627  -70.6317600   -51.5777400  143.8492000   -51.4391500  133.9699000
 		     -49.9601800  147.3338000   -47.1995300  122.9146000    -1.3809140 -134.3946000   -10.6380000  127.9955000
 		     -49.2937900  153.4432000   -49.8637200  137.6284000   -10.6293300  127.9024000    -1.3841360 -134.6966000
   35984860000    -0.7129339  -70.8886300   -22.2929700  168.2779000   -50.7541800  144.9534000   -51.3837100  153.6305000 
 		     -22.2360200  169.6452000    -0.7084472  -70.7363900   -52.3418500  161.6078000   -50.8982400  145.3047000
 		     -51.8216900  144.5606000   -51.4653500  157.7896000    -1.3843770 -134.5415000   -10.6028600  128.1340000
 		     -50.1064200  155.1823000   -47.2950700  130.4890000   -10.5984500  128.0412000    -1.3877610 -134.8026000
   36054850000    -0.8225006  -71.6204600   -22.1014900  168.6000000   -52.0510600  161.6920000   -50.1670200  159.3133000 
 		     -22.2398400  170.2559000    -0.8356228  -70.5772600   -54.0416900  142.5481000   -52.7121700  159.8085000
 		     -51.6671800  147.4330000   -52.5302900  120.1872000    -1.4116230 -134.7933000   -10.5905600  127.7875000
 		     -54.6425700  173.4417000   -54.8671300  159.2451000   -10.6005600  127.9138000    -1.3835340 -134.9603000
   36124840000    -0.8141737  -71.2743500   -21.8989400  167.8960000   -51.4272300  153.2627000   -51.1222000  160.6682000 
 		     -22.3081000  167.9626000    -0.7961928  -71.5761900   -53.0497600  161.3836000   -48.0786000  137.6043000
 		     -52.8330600  174.8413000   -47.5158700   99.9205000    -1.4293610 -134.9849000   -10.5424100  127.4585000
 		     -51.3455500  143.9515000   -53.2954900  158.9009000   -10.5796100  127.4359000    -1.3986090 -135.3394000
   36194830000    -0.7636456  -71.5631200   -22.3258000  169.2135000   -50.4827900  157.3353000   -53.7234500  141.0442000 
 		     -22.0855000  170.2447000    -0.8072137  -71.4338700   -54.8375900  161.1287000   -50.3789800  137.8269000
 		     -52.2993500  172.3812000   -56.8367700 -173.7527000    -1.4009660 -135.4233000   -10.5453300  127.4438000
 		     -53.5004300  152.9543000   -47.3282000  156.9584000   -10.5151800  127.0834000    -1.3969470 -135.7473000
   36264820000    -0.8375235  -71.4336500   -22.1624600  169.8007000   -51.1001900  156.9774000   -62.3835300  141.5596000 
 		     -21.8263600  170.3966000    -0.8257825  -70.7994600   -57.2550600  160.5364000   -52.5362800  161.8150000
 		     -49.0321100  154.5841000   -56.3814600  168.6842000    -1.3986650 -135.7185000   -10.4584800  126.8403000
 		     -48.2746000  128.6597000   -50.8883100  126.6817000   -10.4478600  126.4445000    -1.3889950 -135.9189000
   36334810000    -0.8165760  -71.8789000   -22.0511600  171.3375000   -53.2315000  169.4549000   -50.2809100  130.7479000 
 		     -21.7533200  169.2617000    -0.8082288  -71.9020000   -54.3178200  155.4051000   -55.4117100  123.2576000
 		     -51.4340300  162.0403000   -57.8436200  153.8337000    -1.3792110 -135.7817000   -10.4519500  127.1073000
 		     -47.9937800  166.4198000   -51.0020900 -167.9877000   -10.4799300  126.7794000    -1.3916420 -136.0729000
   36404800000    -0.7765198  -72.1933000   -21.6448100  169.9720000   -50.8812100  141.9886000   -51.7100600  145.6451000 
 		     -22.0517000  167.8118000    -0.8121637  -71.4590800   -52.1418000  172.3164000   -50.7791200  133.9533000
 		     -49.8658100  140.2438000   -54.2574800 -160.1993000    -1.3910650 -136.0633000   -10.4177600  126.7761000
 		     -53.8619400  160.9667000   -47.7595500  165.7967000   -10.3813900  126.4136000    -1.4138170 -136.4822000
   36474790000    -0.8262556  -72.0893200   -21.8169000  169.5685000   -50.7746300  140.8924000   -50.9603100  149.1787000 
 		     -21.6999500  167.9036000    -0.7940174  -71.2926900   -51.9722300  131.9717000   -54.5027800  154.3913000
 		     -50.8057800  158.7048000   -49.7295800  124.1683000    -1.4237740 -136.5403000   -10.3668600  126.2045000
 		     -54.9868600   93.3000000   -58.3026700  123.0301000   -10.3667500  125.9808000    -1.4436510 -136.5493000
   36544780000    -0.7766133  -72.1621500   -21.6507500  168.3782000   -52.0379300  142.8221000   -49.6268500  165.7601000 
 		     -21.8659400  169.2273000    -0.8046650  -71.8729300   -53.2386400  157.6735000   -51.7695800  147.4840000
 		     -51.7927100  132.2157000   -50.2210300 -168.1663000    -1.4158170 -136.5426000   -10.3386300  126.1058000
 		     -54.0091100  168.5537000   -50.7220900  119.4787000   -10.3431300  126.1494000    -1.3728290 -137.0866000
   36614770000    -0.8083251  -72.7983700   -21.6716000  167.1620000   -53.1242900  157.9428000   -50.9444700  163.5302000 
 		     -21.5358000  169.3667000    -0.8219090  -72.2926300   -55.3259100  138.5666000   -50.2939200  143.3322000
 		     -50.1136200  177.0174000   -52.3052400 -179.2810000    -1.4169800 -137.2655000   -10.3215000  125.8358000
 		     -48.1661000  155.6763000   -51.5901800  139.6219000   -10.3077800  125.9615000    -1.4682660 -137.1339000
   36684760000    -0.8215828  -72.2717200   -21.2988700  169.8420000   -52.2399700  158.0582000   -51.0674100  150.9912000 
 		     -21.4425700  168.4002000    -0.8147695  -71.8718800   -54.1548500  135.3851000   -54.2629400  139.5001000
 		     -55.8255100  139.6467000   -51.9641000  118.1733000    -1.4083170 -137.5224000   -10.2986200  125.3773000
 		     -49.4099400  145.8877000   -46.1281200  152.4791000   -10.2643800  125.6922000    -1.4237990 -137.5797000
   36754750000    -0.7802170  -72.6267900   -21.1054600  171.0222000   -50.2424800  159.6172000   -51.1638300  139.1738000 
 		     -21.1709200  169.4426000    -0.7744232  -72.1148800   -57.8416300  177.0809000   -50.7344900  170.3135000
 		     -47.3749800  157.0689000   -52.1034900  135.9288000    -1.4120300 -137.2762000   -10.2551900  125.4586000
 		     -55.2787100   94.2821000   -45.6145000  152.8503000   -10.2987600  125.7091000    -1.3942300 -137.8824000
   36824740000    -0.7999052  -72.6456300   -21.5545700  168.9307000   -50.4850200  150.6829000   -51.1707700  153.2670000 
 		     -21.4449900  168.9108000    -0.8739408  -72.6744000   -56.7770800  161.2936000   -55.6777300  152.3318000
 		     -56.4758100  135.4753000   -46.0026600  143.5707000    -1.4145010 -138.1446000   -10.2653800  125.0589000
 		     -52.3284200  163.9165000   -65.6875700  140.1820000   -10.2564000  125.1226000    -1.5063520 -138.0197000
   36894730000    -0.8058759  -73.1946300   -21.2828000  169.0335000   -52.0415200  170.5011000   -53.6097100  157.3603000 
 		     -21.3346600  168.2760000    -0.8229717  -72.7457100   -51.8458300  135.5999000   -57.6053100  153.9630000
 		     -49.7276400  149.0391000   -49.7751800  131.7286000    -1.4437930 -138.1952000   -10.2144000  124.6293000
 		     -50.0311600  171.9685000   -55.2871900  163.3109000   -10.2114200  124.7843000    -1.4482740 -138.5320000
   36964720000    -0.7719534  -72.8121000   -21.1090300  169.1473000   -51.6805100  139.4852000   -51.8724800  152.4812000 
 		     -21.3934200  168.6545000    -0.8608449  -72.7576100   -54.3439700  151.6599000   -58.3938000  140.9620000
 		     -51.6829800  164.0889000   -47.7282300 -171.7900000    -1.4344980 -138.1364000   -10.1996200  124.6368000
 		     -50.5748600  126.8177000   -57.8723100  164.7614000   -10.1778400  124.3552000    -1.4292460 -138.9733000
   37034710000    -0.8510528  -73.3093000   -21.0755000  170.8072000   -50.6713200  164.7358000   -51.3390600  148.8990000 
 		     -20.9222900  170.6526000    -0.8654236  -72.7141100   -52.7451300  123.4513000   -52.2168000  159.3134000
 		     -49.4219800  108.2962000   -50.1783200  172.4269000    -1.4763560 -139.1167000   -10.1889600  124.3942000
 		     -57.3608400  158.4464000   -50.3624300  161.1266000   -10.1796900  124.5159000    -1.5113480 -138.5589000
   37104700000    -0.8045924  -73.2182000   -21.0138500  170.7148000   -54.1298600  170.4310000   -51.0138300  127.2267000 
 		     -21.2827900  168.5994000    -0.7646232  -73.4290300   -51.5982200  133.8825000   -52.5101200  140.1048000
 		     -49.6548300  132.5173000   -49.9663600  136.7386000    -1.4268040 -138.7483000   -10.0993300  123.9208000
 		     -51.3304700  173.3451000   -51.6256400  159.3421000   -10.1413100  124.1443000    -1.4714100 -139.4068000
   37174690000    -0.8255546  -73.6822500   -21.2689800  167.1818000   -50.3937900  171.8450000   -50.6946400  153.5922000 
 		     -21.0140600  169.4884000    -0.8312494  -74.1681300   -51.6561900  147.3170000   -49.8658700  157.6491000
 		     -47.4255500  129.2984000   -53.1087300  141.8458000    -1.4631300 -138.9233000   -10.1233500  124.5114000
 		     -49.5293000 -179.4460000   -47.6413000  151.3528000   -10.0788000  123.7619000    -1.4488820 -139.8591000
   37244680000    -0.8104188  -73.5378100   -21.1182800  170.6776000   -49.9024200  152.0326000   -50.8050200  140.9729000 
 		     -21.0121700  171.3212000    -0.8841201  -73.4416000   -52.1860000  167.4989000   -51.5041500  132.7871000
 		     -50.8600000  123.6115000   -51.7473200  121.8421000    -1.4725980 -139.8373000   -10.1203700  123.6181000
 		     -57.9508100 -170.9554000   -48.1039000  145.6286000   -10.0978000  123.4512000    -1.5414160 -139.3592000
   37314670000    -0.7805968  -73.7391400   -21.0718800  169.3997000   -52.6023100  159.1716000   -53.9113800  137.2459000 
 		     -20.8725700  169.9578000    -0.7961791  -73.6153400   -51.8361800  162.7838000   -49.3670700  151.0969000
 		     -51.0516200  157.9813000   -47.3660600  155.6856000    -1.4616420 -139.3943000   -10.0879300  123.3310000
 		     -51.3651100  109.5713000   -45.4074500  148.1559000   -10.0660400  123.0631000    -1.4771860 -140.4826000
   37384660000    -0.7978794  -73.9063300   -20.9419700  170.7004000   -48.2699600  152.3089000   -48.1905600  153.5461000 
 		     -20.5757500  170.1931000    -0.8723516  -73.9704900   -49.9612800  166.0444000   -48.3773500  132.0005000
 		     -51.5479500  168.4097000   -48.5380500 -174.8958000    -1.4787860 -139.8049000   -10.0351700  123.1792000
 		     -50.1783800  153.8867000   -52.5561400 -175.5883000   -10.0012200  123.3986000    -1.4813950 -140.5781000
   37454650000    -0.9025065  -74.2159500   -20.5034600  169.4471000   -50.5079300  140.8050000   -50.5105900  147.0091000 
 		     -20.5601200  170.0969000    -0.9390529  -73.8945100   -49.7838100  146.3580000   -50.7949800  152.9865000
 		     -50.6875100  162.3924000   -50.0103500  167.0520000    -1.4834970 -140.6403000   -10.0056600  122.9351000
 		     -49.4028900  135.4500000   -48.1377000  153.1832000    -9.9087230  122.9357000    -1.5130040 -140.1111000
   37524640000    -0.7530681  -74.6596300   -20.5573900  171.0840000   -51.2389900  135.9933000   -52.4478500  163.1511000 
 		     -20.6031000  169.5572000    -0.7917753  -74.4770000   -51.3866600  158.2182000   -50.9752700  154.0533000
 		     -50.9687300  135.4144000   -45.0762200  145.8661000    -1.4662640 -140.2218000    -9.9554640  122.5415000
 		     -53.6384000  124.8739000   -44.3487800  140.9325000   -10.0018400  122.6371000    -1.5094320 -141.2137000
   37594630000    -0.8399721  -74.7534500   -20.5478400  169.9958000   -49.4627600  135.1774000   -50.8175100  148.4489000 
 		     -20.6131800  169.0950000    -0.9144762  -73.8498400   -51.8652200  137.8585000   -48.8765900  134.1216000
 		     -46.8113000  178.6761000   -51.3308400  134.6392000    -1.4816190 -140.8482000    -9.9195570  122.7750000
 		     -47.9295500  138.8031000   -50.3574700  175.1747000    -9.9544070  122.9010000    -1.5241420 -140.9617000
   37664620000    -0.8722571  -74.2330000   -20.4629400  169.5429000   -50.3322900  132.9377000   -50.2108600  126.9017000 
 		     -20.4370300  169.9068000    -0.8148835  -74.0810300   -48.6960400  162.5987000   -49.0468800  132.0241000
 		     -48.5865000  141.1896000   -54.6062500 -179.2377000    -1.4797910 -141.2019000    -9.9079210  122.4940000
 		     -63.0154000 -179.9126000   -56.8653600  110.0873000    -9.9063770  122.7461000    -1.5249220 -140.9567000
   37734610000    -0.7818549  -74.9212800   -20.2523100  169.0841000   -49.2950400  145.8689000   -49.6495900  136.3152000 
 		     -20.5174400  170.8601000    -0.7319168  -74.5308000   -55.3325500  138.9175000   -53.2455600  140.5742000
 		     -50.2420700  127.7965000   -53.4924700  128.9538000    -1.4718440 -140.8717000    -9.9039500  122.2443000
 		     -46.8511900  137.9559000   -50.9203900  131.7341000    -9.9175810  122.2014000    -1.5247390 -141.6773000
   37804600000    -0.8743394  -74.9679900   -20.1056100  169.4342000   -50.1947600  126.2655000   -53.0171900  150.2636000 
 		     -20.0799100  171.0893000    -0.9403112  -74.3675500   -51.8937600  142.3457000   -51.0786900  145.2062000
 		     -46.7914900  124.7895000   -57.2833800  167.5830000    -1.4828120 -141.6771000    -9.8828300  122.1047000
 		     -50.3775100  115.9721000   -49.7833700  140.8791000    -9.9164740  121.9184000    -1.5224060 -141.4309000
   37874590000    -0.8007746  -74.9733000   -20.0095400  169.8663000   -51.2971500  143.7589000   -51.0936300  138.2048000 
 		     -20.1204600  169.5869000    -0.8027039  -74.4204100   -49.8897700  125.5163000   -51.2249600  138.9072000
 		     -52.3374600  136.3412000   -48.5951200 -179.5848000    -1.5118950 -141.9188000    -9.8449590  121.8861000
 		     -53.1908100  145.6832000   -55.4526100  156.6777000    -9.8710780  121.8380000    -1.5216620 -141.8209000
   37944580000    -0.8206761  -75.5870800   -20.1526700  169.2203000   -51.0308200  146.0302000   -51.2365900  152.2076000 
 		     -20.2658500  170.4906000    -0.8845545  -74.8202700   -50.3101700  144.3611000   -50.7174100  125.4522000
 		     -53.2579600  131.4546000   -51.9976900  141.8121000    -1.5068810 -141.8055000    -9.8312440  121.3548000
 		     -48.1588400  142.4272000   -48.3839500  142.3702000    -9.8475040  121.4424000    -1.5533310 -142.4537000
   38014570000    -0.8521594  -75.1797400   -20.0819600  169.2801000   -49.9810700  141.1897000   -48.5245900  119.0827000 
 		     -20.0847200  170.0029000    -0.9079993  -74.9721800   -51.9382600  129.7078000   -48.6867000  166.2655000
 		     -46.6571400  148.5093000   -50.6596500  159.3265000    -1.5022550 -142.4528000    -9.7983680  121.4191000
 		     -50.4746600  155.0935000   -47.1565800  139.6508000    -9.7968330  121.0792000    -1.5484400 -142.1571000
   38084560000    -0.8449484  -75.3661400   -19.8150900  170.3245000   -49.0760700  138.0996000   -53.7028800  148.7860000 
 		     -20.0909800  169.9708000    -0.8559682  -75.1232800   -51.1288500  144.5522000   -48.8966800  142.3268000
 		     -46.3657000  146.5794000   -48.0597900  113.8633000    -1.5493000 -142.6214000    -9.8009350  121.0179000
 		     -52.1022900  146.5990000   -45.3136700  140.7662000    -9.7542650  121.0095000    -1.5193170 -142.6644000
   38154550000    -0.8769793  -76.2618900   -19.9714500  169.9438000   -54.9575000  128.6340000   -52.5041300  150.8187000 
 		     -20.0436600  170.2484000    -0.8831587  -75.0922400   -49.5292700  140.8770000   -51.8882100  152.5213000
 		     -49.3829700  154.6227000   -46.3574200  132.6334000    -1.5192690 -142.6799000    -9.7235410  120.9657000
 		     -58.8753300  150.4845000   -50.3929900  169.6100000    -9.7488630  120.9016000    -1.5759790 -142.9564000
   38224540000    -0.8617055  -75.6647400   -19.8095100  170.1297000   -51.3696900  134.3937000   -49.9602200  130.3486000 
 		     -19.9812200  170.0967000    -0.8558847  -75.4126000   -52.0288100  130.2163000   -49.6870800  167.1965000
 		     -48.2743900  145.0997000   -53.1030600  153.3550000    -1.5173940 -143.2384000    -9.7300540  120.7154000
 		     -50.5499700  122.7099000   -51.4645000  117.2495000    -9.7321260  120.5967000    -1.5603270 -143.1652000
   38294530000    -0.8230358  -75.8949800   -19.7834000  170.6472000   -51.8194900  146.1976000   -49.6947900  130.7889000 
 		     -19.6870500  170.6542000    -0.8695618  -76.2692600   -52.7995300  140.7206000   -49.9684600  158.1401000
 		     -48.5927400  135.0171000   -48.5508600  136.7662000    -1.5792860 -143.4299000    -9.7026090  120.5333000
 		     -58.3981500  107.8887000   -44.5006600  121.0909000    -9.6777840  120.5254000    -1.5403330 -143.5157000
   38364520000    -0.8719837  -76.0655400   -19.8638700  168.6630000   -50.8024200  139.8422000   -48.4188400  153.9932000 
 		     -19.4279400  168.0224000    -0.9106914  -75.9738700   -48.2984300  134.5408000   -47.6286600  139.3871000
 		     -48.9997600  127.4215000   -47.1814900  141.8899000    -1.5187960 -144.0227000    -9.6516860  120.2435000
 		     -52.6455500  137.5796000   -49.4871000  155.5650000    -9.6428330  120.1884000    -1.5898340 -143.5568000
   38434510000    -0.9003147  -76.0278100   -19.6780300  170.9360000   -53.4475000  142.9943000   -50.6843000  137.3512000 
 		     -19.5924800  170.7884000    -0.9075084  -75.4872600   -52.3355900  142.1201000   -54.2747900  154.9588000
 		     -50.8245500   79.5550800   -49.1895100  137.4018000    -1.5214150 -143.7452000    -9.6456330  120.2356000
 		     -47.4494500  138.9314000   -51.2002600  161.5547000    -9.6051130  120.1914000    -1.5433160 -143.9767000
   38504500000    -0.8222613  -76.4509800   -19.5960200  169.9570000   -50.8406500  121.4524000   -52.5014300  137.1629000 
 		     -19.6800200  168.7888000    -0.8492172  -76.4716000   -55.1881900  177.6881000   -48.7707500  116.6104000
 		     -49.4460600  133.0677000   -44.9558900  128.4202000    -1.6010000 -144.0088000    -9.6574550  119.9603000
 		     -53.4803200  131.0213000   -50.3893100  110.5677000    -9.6230910  120.0037000    -1.5599550 -144.4086000
   38574490000    -0.9208357  -76.5663400   -19.4788000  170.7552000   -51.5136900  136.2675000   -49.0693700  139.2886000 
 		     -19.6371400  171.2612000    -0.9957156  -75.6167100   -47.9449100  110.2279000   -49.7646300  136.5311000
 		     -51.2437900  166.7223000   -52.7907300  148.6083000    -1.5366230 -144.5082000    -9.5529790  119.6392000
 		     -54.1634900  103.6978000   -52.3398200  145.3791000    -9.6164680  119.7413000    -1.5871530 -144.2954000
   38644480000    -0.8248174  -76.6634900   -19.1031500  171.2125000   -48.6837400  138.3081000   -50.3775900  139.1170000 
 		     -19.2965100  169.6102000    -0.8819642  -76.6252500   -50.8862300  116.6382000   -50.5506200  127.0464000
 		     -51.8606900  142.3976000   -50.9156200  133.7825000    -1.5469800 -144.4312000    -9.5752700  119.3831000
 		     -50.2268400  127.6397000   -48.6158400  122.8640000    -9.5567100  119.3641000    -1.5663840 -145.2463000
   38714470000    -0.8759766  -76.8460400   -19.2881000  168.4164000   -48.3029500  130.4088000   -51.3771000  114.1266000 
 		     -19.3308200  169.6426000    -0.8925486  -76.9988300   -51.8451800  115.5351000   -50.3917700  132.2573000
 		     -49.9245500  138.2494000   -55.0716600  171.2397000    -1.5823790 -145.0775000    -9.5511860  119.1394000
 		     -53.2249100  134.3914000   -58.6484100  124.3925000    -9.5783580  119.5417000    -1.5689640 -145.2436000
   38784460000    -0.9350383  -77.2904400   -19.1231900  169.3754000   -49.8115800   93.0649200   -50.8698700  126.0512000 
 		     -19.2039600  169.0524000    -0.8981553  -76.8376900   -50.5491700  138.0055000   -53.0355600  146.2625000
 		     -48.2463000  139.1987000   -48.7046400  124.0091000    -1.5163660 -145.2177000    -9.4944910  119.1429000
 		     -53.5629600   92.9661400   -52.4586300  147.7872000    -9.5752940  118.8375000    -1.5427080 -145.1792000
   38854450000    -0.8974743  -77.4725900   -19.3568100  169.1431000   -50.2512700  130.3104000   -54.5423100  110.2374000 
 		     -19.2000300  169.6850000    -0.8466709  -76.6719600   -50.2507000  126.8463000   -46.8853400  154.6339000
 		     -49.9300200  121.0992000   -48.6268800  162.5971000    -1.5598220 -144.9209000    -9.5255110  118.9166000
 		     -48.4160000  116.9534000   -46.0809000  105.0908000    -9.5235020  118.6649000    -1.5657090 -146.0185000
   38924440000    -0.8092014  -77.4575600   -19.4096300  169.9442000   -50.9981400  127.5013000   -54.4542200  110.5702000 
 		     -19.2108400  169.3472000    -0.9575819  -77.4024800   -48.3648100  126.7600000   -48.6228900  138.7026000
 		     -53.1039600 -164.1244000   -50.9243200  128.5172000    -1.5814730 -145.7462000    -9.4989020  118.4563000
 		     -51.5572200  128.3202000   -48.7396800  116.1283000    -9.4751250  117.6648000    -1.5925000 -146.0007000
   38994430000    -0.8890090  -77.1071600   -19.1761300  170.7303000   -50.8387100  120.4538000   -47.8499000  121.0957000 
 		     -19.1658200  169.6565000    -0.8670374  -76.5644900   -53.0648100  155.1200000   -51.0365700  134.1872000
 		     -49.7084800  123.9209000   -49.4984900  143.9087000    -1.5640090 -146.2121000    -9.4778190  117.9673000
 		     -49.7281800  151.0564000   -48.3559400  155.9295000    -9.4417310  117.8556000    -1.5303830 -146.1977000
   39064420000    -0.8144938  -77.5191000   -19.1584600  171.0114000   -51.4938300  117.0974000   -54.3111500  133.6102000 
 		     -18.9260300  169.5489000    -0.8436445  -77.0908500   -49.1980000  114.7944000   -52.9126900  154.4011000
 		     -50.2356100  120.2496000   -52.0937900  138.8421000    -1.5245200 -146.1772000    -9.4125740  117.7637000
 		     -48.8295600  136.9228000   -54.6766400  135.3751000    -9.4414550  117.6510000    -1.5948920 -146.9224000
   39134410000    -0.8650773  -77.7357800   -18.7349100  169.7296000   -54.2248700  117.9031000   -51.9874400  133.6081000 
 		     -18.9559200  170.5575000    -0.9122844  -77.7208700   -52.9407700  108.4198000   -50.9151600  117.7522000
 		     -60.9504900  126.4001000   -47.1436900   59.5250900    -1.5560050 -146.7705000    -9.3949310  117.7591000
 		     -49.3710100  114.1896000   -54.0491300  113.6640000    -9.3669170  117.5134000    -1.5761830 -146.6323000
   39204400000    -0.9371504  -77.9116100   -18.9324000  170.0699000   -53.1596700  136.1070000   -48.9952600  130.5207000 
 		     -18.9015400  169.9635000    -0.8264697  -77.2408800   -51.3534900  113.8761000   -53.7350300  106.8604000
 		     -54.2109900  111.0646000   -49.5552600  121.5649000    -1.5660940 -146.7857000    -9.3129820  117.1744000
 		     -56.3271000   86.1935700   -67.5201700   33.2754300    -9.3801380  117.1667000    -1.5565970 -147.0565000
   39274390000    -0.8453254  -78.1449700   -18.8705600  169.8659000   -52.7366400  120.4153000   -49.8349800  126.0035000 
 		     -18.9375500  170.2755000    -0.8321497  -77.8291800   -55.4019900  138.1490000   -54.4491300  137.1039000
 		     -51.0050700  138.8830000   -46.8382500  135.6819000    -1.5484700 -146.9964000    -9.3442830  117.2255000
 		     -52.9948600  172.8392000   -52.4197600  122.8019000    -9.3277600  116.9020000    -1.6328810 -147.5626000
   39344380000    -0.8535780  -78.4793600   -18.7717500  170.4718000   -50.8438300  130.2949000   -47.2163800  125.4337000 
 		     -18.7166700  169.9958000    -0.9283221  -78.0576900   -53.5242400  127.3670000   -49.3156600  102.0984000
 		     -55.3754100  104.5416000   -53.3660900 -165.2897000    -1.5775560 -147.5565000    -9.3126070  116.6478000
 		     -53.1767900   97.5310600   -53.4536700  170.5607000    -9.2700740  116.9438000    -1.5817700 -147.5190000
   39414370000    -0.8575189  -78.3294800   -18.6243200  169.2922000   -56.5818700  142.3681000   -50.7294000  122.8269000 
 		     -18.7177600  171.7645000    -0.9527164  -77.6150800   -51.5346500  141.0144000   -51.7383000  111.7804000
 		     -53.3043000  143.5521000   -46.1885200  114.6588000    -1.5974450 -147.6813000    -9.3270590  116.8459000
 		     -57.5024000  136.3879000   -55.2213100  168.9866000    -9.2872560  116.4765000    -1.5637240 -148.2811000
   39484360000    -0.9422795  -78.3007600   -18.6773900  170.7336000   -50.8978700  120.7201000   -52.6394800  134.9832000 
 		     -18.8628200  169.4277000    -1.0371210  -78.9046300   -52.2610600  134.5973000   -50.7516700  119.1698000
 		     -48.4025200  139.5386000   -52.1925800  154.6505000    -1.5458770 -148.1361000    -9.2914710  116.2946000
 		     -49.6822800  114.3501000   -49.9972800  120.7358000    -9.2626940  116.1757000    -1.6322330 -148.0956000
   39554350000    -0.8881530  -79.0454100   -18.6968600  171.3616000   -52.9927300  118.9947000   -47.8903000  144.6951000 
 		     -18.5216500  170.3076000    -0.8911265  -78.4326400   -51.3877500  139.1719000   -50.3511800  111.7008000
 		     -48.2828100  134.9969000   -60.2548400   74.4175900    -1.5790970 -148.2654000    -9.2036120  116.1859000
 		     -48.9903000  156.5340000   -53.8845400   50.6221000    -9.2348930  116.6223000    -1.6034380 -148.4168000
   39624340000    -0.8593636  -79.0919800   -18.7024800  170.4888000   -49.9569400  137.6345000   -51.9910900  126.7209000 
 		     -18.6686700  171.3895000    -0.9593569  -78.6121700   -53.8292200  118.7465000   -49.2201200  121.6672000
 		     -52.6657000  121.8307000   -50.6892400  125.5080000    -1.6383380 -148.2500000    -9.2305010  115.7906000
 		     -51.2585500  113.6818000   -53.7878700  121.7408000    -9.2187870  116.0853000    -1.6235840 -148.9592000
   39694330000    -0.9130366  -78.5344400   -18.6592900  172.1635000   -53.4820700  148.5560000   -52.6294300  128.8554000 
 		     -18.3771600  169.1025000    -0.9826281  -78.6302100   -54.7657700  109.0859000   -52.2006700  109.8958000
 		     -46.9631500  119.9318000   -48.4360500  152.2470000    -1.5686260 -149.0150000    -9.1725440  115.3154000
 		     -48.1887000  134.0846000   -48.1536900  138.9255000    -9.1488880  115.4860000    -1.6447620 -148.8689000
   39764320000    -0.8918734  -79.0289200   -18.2490300  170.4443000   -53.3263900   98.8803500   -51.1004600  114.6069000 
 		     -18.3160100  170.3604000    -0.8784659  -79.6570100   -51.3928400  135.7944000   -51.7900300  119.9666000
 		     -48.6270100  133.1511000   -50.5758900   55.6013500    -1.6351570 -149.0079000    -9.1872300  115.2383000
 		     -54.7061200  150.5566000   -49.4085300  116.2756000    -9.1921590  115.5738000    -1.6512840 -149.3079000
   39834310000    -0.9446415  -79.3028000   -18.6728200  171.4697000   -52.8125400   90.4861100   -51.3212400  118.7696000 
 		     -18.2329000  170.4512000    -0.9092649  -79.3612400   -56.8443500   79.3214600   -48.6163000  130.9954000
 		     -52.0705800  167.1251000   -53.3044900   66.3489500    -1.6709400 -149.5114000    -9.1692080  115.0451000
 		     -52.7306300   77.7315100   -51.7937700  161.6998000    -9.1942870  114.9746000    -1.6274930 -149.7189000
   39904300000    -0.9259638  -79.4819300   -18.4090600  170.8214000   -51.5994100  124.1303000   -53.4241500   98.6876400 
 		     -18.2500600  169.5571000    -0.9538280  -79.0439500   -54.9414100  132.4825000   -51.3169400  123.4639000
 		     -56.2884900 -165.8841000   -53.8065900  102.2080000    -1.6342170 -150.0967000    -9.1416330  114.8714000
 		     -52.8972300  108.0499000   -54.6864000  120.7645000    -9.1852080  114.6343000    -1.6578990 -149.3192000
   39974290000    -0.8451688  -79.8918500   -18.0698900  170.5210000   -52.2378000  122.3521000   -59.0416200  125.1318000 
 		     -18.3247400  169.5577000    -0.9090543  -79.8732000   -52.8748600  138.9408000   -51.3879600  120.4728000
 		     -53.0125900  123.5316000   -54.3859500  174.8745000    -1.6431290 -149.6106000    -9.2013820  114.8131000
 		     -51.0918900  164.0929000   -54.8715700  168.0611000    -9.1711250  114.5994000    -1.6759390 -150.6052000
   40044280000    -0.9565354  -80.1897700   -18.0111000  167.5140000   -51.8250400  126.4594000   -50.3654900  139.9320000 
 		     -17.9573900  172.0991000    -0.9682310  -79.5542500   -54.5046000  144.3277000   -52.0490700   93.5418300
 		     -54.6265100  154.7762000   -49.7086200  121.8332000    -1.6498940 -150.1521000    -9.1238510  114.1220000
 		     -49.3698600   86.2197000   -45.9479500  154.5418000    -9.1332470  114.1347000    -1.6583630 -150.5669000
   40114270000    -0.9030957  -79.2791100   -17.9330800  171.6447000   -55.0673900   81.6697400   -59.4617400   99.4318100 
 		     -18.0625100  168.9860000    -1.0596340  -79.0056600   -51.7876300  108.5252000   -51.5177800   98.4652500
 		     -56.3998000  154.5216000   -53.6501800 -170.7991000    -1.6132730 -150.4937000    -9.0212140  114.1428000
 		     -60.1053400  -96.3418400   -61.2420700 -119.2239000    -9.1373300  114.5387000    -1.6591320 -150.2316000
   40184260000    -0.9434139  -80.3228100   -17.9530000  170.5278000   -51.3819300  144.8130000   -47.8292500   98.3296900 
 		     -17.7680200  171.0482000    -0.8068371  -80.4474600   -47.6841900  142.0372000   -56.4050100  165.7110000
 		     -57.2595900 -169.2699000   -47.2984100  144.8063000    -1.7054900 -150.4319000    -9.1347390  114.1868000
 		     -48.4768100  158.8322000   -53.2788100   76.0881400    -9.1441740  114.4391000    -1.6791310 -151.4797000
   40254250000    -0.9721680  -80.6963400   -18.0665400  170.2215000   -49.6630100  157.0461000   -52.0084000  111.7049000 
 		     -17.6871200  169.7217000    -0.9990561  -80.0293300   -56.1421700  169.0652000   -50.4960600  143.9886000
 		     -48.0600000  113.8245000   -43.8973000  129.7149000    -1.7096050 -150.8997000    -9.0647520  113.6504000
 		     -50.1369800   64.4076600   -50.2472200   89.8836200    -9.0645280  113.6286000    -1.6569330 -151.0570000
   40324240000    -0.9210037  -80.3808600   -17.7598600  169.5692000   -49.1876900  119.4978000   -55.4661300  113.7543000 
 		     -17.5990500  169.8320000    -0.9367691  -80.2002300   -50.9643700  140.1278000   -50.4553500  144.8177000
 		     -62.1515700   65.9845900   -45.5611900   65.3651600    -1.6459730 -151.2203000    -9.0239960  113.3847000
 		     -47.0572400  131.2776000   -48.8321300   92.2680800    -9.0052690  113.5748000    -1.7002800 -151.1478000
   40394230000    -0.8584740  -80.9785500   -17.6396600  170.3091000   -50.0896300  117.4602000   -53.9175400  126.3895000 
 		     -17.6154600  167.8467000    -0.9137522  -80.5491500   -49.6503800 -119.0992000   -49.0510500   77.0654100
 		     -64.1796900   78.0891000   -43.4099200  122.4942000    -1.7068020 -150.8937000    -9.0504630  113.6920000
 		     -49.2217600  103.4418000   -61.9891600  127.2411000    -9.0815140  113.9828000    -1.7546080 -151.9667000
   40464220000    -1.0341530  -80.8189500   -17.6850300  171.6964000   -59.3874400 -178.3309000   -54.5562800  140.2744000 
 		     -17.7890000  170.0208000    -0.9720210  -79.8250300   -60.4908400  164.6305000   -53.0646500  169.1141000
 		     -63.5281400  -40.9777000   -51.8402900 -100.9044000    -1.6971520 -151.6973000    -9.0261040  113.5173000
 		     -54.7400200  137.5326000   -44.1861800   80.6384600    -9.0246480  113.4859000    -1.6635690 -151.3553000
   40534210000    -0.9531919  -80.9978300   -17.7222000  170.8944000   -52.4890700  128.0648000   -51.5937700  152.0968000 
 		     -17.8272000  170.4412000    -0.9196297  -80.3931300   -47.7426700   97.3221800   -54.5288900  177.6481000
 		     -53.0351300   61.4350500   -45.4140800  170.0203000    -1.6757460 -152.2491000    -9.0267960  112.6495000
 		     -57.7643500  155.5002000   -71.5674700   56.5848200    -9.0233380  113.2485000    -1.6570260 -151.9384000
   40604200000    -0.9245735  -81.7154500   -17.5658900  170.5043000   -50.0566700  140.1153000   -52.8448800  124.1779000 
 		     -17.2903800  170.4233000    -0.9681191  -81.1410700   -53.2794600  121.0564000   -50.5034400  114.2240000
 		     -52.1023800 -126.2079000   -48.1118700   22.4915900    -1.6941080 -151.8415000    -8.9883520  112.8270000
 		     -53.0908900  159.2686000   -47.1500200   87.1257200    -8.9347760  113.0655000    -1.7481500 -152.2420000
   40674190000    -1.0805640  -81.2403600   -17.2693200  168.6671000   -51.1614900  111.5877000   -54.9367200  146.4700000 
 		     -17.4458400  168.8867000    -1.0725750  -80.5553100   -49.0041500  112.6971000   -56.7922600  110.6385000
 		     -50.7090100  158.3877000   -47.0527700  112.2936000    -1.6861510 -152.5630000    -8.9711230  112.7833000
 		     -47.5707200  123.7543000   -56.5469800  113.0608000    -8.9423550  113.1125000    -1.6943320 -152.0336000
   40744180000    -0.8920943  -81.3894800   -17.3921500  170.4481000   -49.6995200  146.7344000   -49.6068700  116.3835000 
 		     -17.3651500  169.1344000    -0.9622338  -81.3976100   -55.8693400  133.8455000   -54.1072000  118.4903000
 		     -53.9116700   -5.3080970   -52.7034700 -133.4302000    -1.6945020 -152.5685000    -8.9019500  112.6721000
 		     -47.4608800  135.1519000   -54.2434600   81.4620500    -8.9729800  112.9028000    -1.6843150 -152.7215000
   40814170000    -0.9774324  -82.5294300   -17.1666500  166.7356000   -51.7903900  136.2035000   -55.1430700  148.8970000 
 		     -17.3075900  169.2122000    -0.9440974  -81.7223700   -53.1845900  172.3383000   -57.7050900  119.7595000
 		     -51.1635100  124.5965000   -44.2697800   96.2800500    -1.7262800 -152.6039000    -8.9457310  112.2077000
 		     -52.0465200  137.4926000   -48.4499800 -179.0266000    -8.8883790  112.1675000    -1.7463020 -152.9098000
   40884160000    -0.9835403  -81.2154100   -17.5178200  169.6523000   -52.7857200  102.4088000   -50.6030300  136.8830000 
 		     -17.1962500  169.7898000    -0.9829420  -81.4099300   -51.2297400   61.3035700   -52.8419100   59.8763800
 		     -55.4268700  169.4117000   -46.8338700  109.7617000    -1.7237130 -152.9436000    -8.8861280  112.3151000
 		     -46.2860300   98.4429200   -43.0474900  136.1490000    -8.8363440  112.0240000    -1.6656520 -152.7346000
   40954150000    -0.9545368  -81.6214200   -17.2663800  168.0965000   -54.4380700  148.0116000   -50.9898500  129.3113000 
 		     -17.4582500  170.3234000    -0.9945785  -81.1110800   -50.9834600  133.3913000   -57.6676900  107.2717000
 		     -55.0333800  158.2689000   -47.9103100   76.5247400    -1.7581830 -153.3464000    -8.8933770  112.2379000
 		     -54.7412400  114.5484000   -44.3472900  147.4256000    -8.8605350  111.9867000    -1.7028040 -153.3628000
   41024140000    -1.0083690  -82.5921300   -17.0441700  166.9817000   -46.2805900  121.4018000   -53.6877600  132.6330000 
 		     -17.0159900  169.5588000    -0.9832747  -82.0607600   -56.4818200  138.3284000   -51.1114800  145.5032000
 		     -44.5255400  118.4605000   -47.7239200  131.6317000    -1.6881010 -153.5173000    -8.8436910  111.7374000
 		     -44.4979800  100.0981000   -46.2176600   64.2529600    -8.9023930  111.7806000    -1.7509360 -153.5776000
   41094130000    -0.9402980  -81.7054000   -17.1721700  168.5836000   -59.1525100   83.6955300   -46.9856600  155.0394000 
 		     -17.1677000  169.9866000    -0.9415064  -81.5784200   -50.1204000  141.2679000   -52.1716900  143.4637000
 		     -51.4126100  166.4121000   -46.6724900 -179.9768000    -1.6742800 -153.8555000    -8.7929070  111.3408000
 		     -57.5755000  112.1332000   -44.6030600  145.2642000    -8.8549390  111.1958000    -1.7378840 -153.5674000
   41164120000    -0.9592271  -82.0735100   -17.2474700  168.7649000   -50.4022900  139.2710000   -48.8329900  137.8387000 
 		     -17.1015100  169.0493000    -0.9068876  -81.0081600   -55.1767300  152.4184000   -53.3297800  122.9868000
 		     -48.4473800  164.1681000   -43.9033600   79.5241100    -1.7432850 -154.1729000    -8.8110480  111.4048000
 		     -52.7352900  111.5719000   -47.0453900   41.9303500    -8.8036990  111.4077000    -1.7158820 -154.1875000
   41234110000    -0.9844614  -82.3482400   -17.2523800  168.6448000   -50.9900500  162.4595000   -54.1017100  140.6803000 
 		     -16.8780300  168.4485000    -1.0180600  -82.3420400   -60.1544600  134.6889000   -50.7755500  150.8122000
 		     -47.2662000  107.7035000   -73.9117400   65.5351700    -1.6895780 -154.2623000    -8.8184630  111.1386000
 		     -50.7553100 -136.1775000   -48.3677400 -173.1435000    -8.7569870  111.0267000    -1.7082260 -154.2195000
   41304100000    -0.9470457  -82.3583100   -17.0447200  170.1005000   -53.9005000  103.4808000   -51.6367600  157.3514000 
 		     -17.0577300  168.9627000    -1.0298520  -81.5440900   -52.2856600  129.6910000   -51.5016000   95.3644700
 		     -50.9475700   73.5854700   -48.1540500   75.7330500    -1.7226770 -154.2915000    -8.7301290  111.1858000
 		     -56.5777800  150.6869000   -48.8717800 -174.3957000    -8.7310930  110.8089000    -1.7472360 -154.3553000
   41374090000    -0.9487780  -82.6664000   -16.6741600  168.3599000   -55.6042900  126.0445000   -49.3743300  145.5082000 
 		     -16.9051400  168.2106000    -0.9715236  -81.9161400   -51.4420200  128.7391000   -51.1022200  130.2230000
 		     -52.5276000  129.1253000   -57.0065800   89.0510900    -1.7343430 -154.7655000    -8.7468470  110.4496000
 		     -47.8274700  130.2262000   -57.5720700 -154.4176000    -8.8002410  110.4956000    -1.7230180 -155.0211000
   41444080000    -0.9693337  -82.7700400   -16.8490000  167.4202000   -49.0694700   90.3880500   -55.0008600  159.5203000 
 		     -16.7815200  169.8457000    -0.9136736  -81.7413300   -49.2631400  159.0802000   -50.2934600   87.8978400
 		     -48.7564800  154.7157000   -44.3848200  103.2708000    -1.7297240 -154.9781000    -8.7408790  110.4088000
 		     -46.9101600   85.0542500   -48.1723900   65.0869500    -8.7594120  109.9880000    -1.7274580 -155.2681000
   41514070000    -1.0124330  -82.9215600   -16.5289400  166.8144000   -55.7818600   91.5311600   -53.0901600  126.0696000 
 		     -16.6682000  169.4149000    -0.9773513  -82.0048500   -52.5251100  168.0671000   -56.0999800  152.8473000
 		     -44.7285700  100.5000000   -61.8193000 -104.9890000    -1.7125600 -155.0913000    -8.6666860  109.9038000
 		     -46.7780600  171.0469000   -46.4074900  168.2083000    -8.6827220  109.8222000    -1.7355340 -155.4961000
   41584060000    -0.9908325  -83.6167100   -16.3234800  167.3528000   -53.3007000  126.2721000   -48.8235200  113.3216000 
 		     -16.6718600  167.2461000    -1.0466000  -82.2924900   -50.0673800  131.4469000   -50.2743800  131.5544000
 		     -53.7303900   11.6072900   -47.6703800  167.9323000    -1.6977650 -155.4534000    -8.7167030  109.8616000
 		     -56.3078300  141.2456000   -51.3242700  105.2861000    -8.7333690  109.7418000    -1.7112970 -155.7193000
   41654050000    -0.9212292  -83.3917500   -16.4220700  168.4769000   -48.6259300  100.3236000   -50.4426400  121.9290000 
 		     -16.6030300  168.5409000    -0.9699266  -82.1677200   -54.3088600  131.7794000   -53.3592000  111.4465000
 		     -52.9943800  103.6215000   -51.7354000  128.9867000    -1.7246210 -155.6203000    -8.6360090  110.1463000
 		     -53.7731100   28.5866900   -46.9591600   96.2453200    -8.7043010  109.9262000    -1.7480880 -156.2061000
   41724040000    -0.9780412  -83.3671700   -16.3976400  168.1566000   -54.1377100  134.6068000   -51.4560600  114.0712000 
 		     -16.5112600  167.9919000    -0.8744008  -82.4168000   -51.7950400  104.2207000   -48.2705300  123.0484000
 		     -48.8488000  145.4106000   -48.0435000  147.8506000    -1.6743570 -156.0419000    -8.6395880  109.3011000
 		     -54.6475300 -103.8108000   -46.7682400   58.2698600    -8.6706340  109.1532000    -1.7037650 -156.1987000
   41794030000    -0.9489352  -83.3705400   -16.3143300  167.5779000   -52.5715200  142.6117000   -57.1005200  131.1589000 
 		     -16.1667600  167.5415000    -1.0618390  -82.3700000   -55.4162300  148.9089000   -58.5615600  122.1354000
 		     -50.1078800   95.9182800   -45.2241300  137.8967000    -1.6765830 -156.3574000    -8.6212050  108.8770000
 		     -47.7802800  134.4414000   -52.1276700   -1.2015860    -8.6406750  109.1802000    -1.6673200 -156.7006000
   41864020000    -0.9600753  -83.5568100   -16.6230500  169.2579000   -50.1558600  116.8537000   -50.5386800  146.7852000 
 		     -16.6380800  169.7193000    -0.9520975  -83.1380300   -50.9319500  128.8684000   -50.1578600  149.5327000
 		     -47.5026000  139.8555000   -42.4778800  133.2169000    -1.7785970 -156.6134000    -8.6252390  108.7798000
 		     -54.7856300  131.4214000   -45.2082200   46.5522500    -8.5960580  108.8799000    -1.7638750 -157.4545000
   41934010000    -0.9746915  -83.9294100   -16.4358900  168.3352000   -54.7462200  111.9013000   -56.1327500  174.5528000 
 		     -16.8449100  167.0970000    -0.9333917  -84.6628900   -50.8515500  161.0434000   -49.9312100  160.7818000
 		     -68.7046400 -162.3397000   -47.8994300  160.4905000    -1.6505970 -157.0941000    -8.5456760  108.0939000
 		     -59.3585700   53.6594700   -46.9354300  157.3597000    -8.5275520  108.1733000    -1.6990700 -157.0120000
   42004000000    -0.9284006  -83.7047700   -16.4511800  168.9771000   -47.7896700  129.0620000   -51.0784100  120.8585000 
 		     -16.4748300  169.1113000    -1.1038220  -83.7513500   -51.3152400  117.5232000   -47.2995800  126.8897000
 		     -58.4182400   99.3855200   -62.0285300  -98.5490300    -1.6731680 -157.3669000    -8.5583310  108.3399000
 		     -55.6252700  155.2286000   -57.3085700 -125.2708000    -8.5925960  107.9341000    -1.7346920 -157.4316000
   42073990000    -0.9072624  -84.4770000   -15.9336600  168.5224000   -53.2498600  101.9476000   -52.3538600   82.2579900 
 		     -16.2793700  169.9668000    -0.8255214  -83.7015000   -54.4793800  123.1572000   -48.5575200  116.3313000
 		     -52.7080800  142.6119000   -44.2066200   51.4778000    -1.7659170 -157.3666000    -8.5584130  107.9597000
 		     -52.6507100  143.4393000   -47.9079300  128.5001000    -8.5917250  108.0196000    -1.8040850 -158.3320000
   42143980000    -0.9747932  -84.0892100   -16.4750100  168.2973000   -50.8360400  122.1010000   -52.0731000  146.1625000 
 		     -16.3758700  168.3157000    -1.0346780  -84.6601100   -52.1757800   84.2753600   -54.6046400  115.2204000
 		     -53.0650100  107.4493000   -56.7245300  101.9166000    -1.7144300 -157.9987000    -8.5464200  107.4979000
 		     -52.6817600  116.7821000   -48.4759900   47.3482700    -8.4989730  107.3474000    -1.7206320 -157.9673000
   42213970000    -0.8868879  -84.1204000   -16.1685900  170.3929000   -50.2109600  104.2883000   -53.8796200  106.3964000 
 		     -16.1218400  168.6805000    -1.0146200  -83.8894400   -49.6823900  127.9192000   -51.7788700  108.9332000
 		     -49.1561900  141.8955000   -45.0552500   82.3275700    -1.7073200 -158.3753000    -8.5396720  107.4090000
 		     -52.5420300    0.7002576   -49.4345500  -65.2854300    -8.4769930  107.9797000    -1.6989020 -158.4314000
   42283960000    -1.0030330  -84.6301000   -15.8040100  165.8552000   -53.3552200  142.3680000   -49.2189800  149.2763000 
 		     -16.2656400  168.0827000    -1.0097670  -84.7516300   -53.9843500  131.8082000   -52.2642700  136.7501000
 		     -50.3916900   79.0035500   -49.0245500   66.0525100    -1.7901930 -158.3298000    -8.6077230  106.7505000
 		     -49.4622400  127.7539000   -49.9957500   67.8240700    -8.4876370  106.7267000    -1.7940070 -159.3838000
   42353950000    -0.9050468  -84.7079300   -16.1231500  168.5781000   -49.3117500  125.6269000   -55.8715400   71.8307000 
 		     -16.2218000  168.3972000    -1.0524320  -85.3416400   -48.0297700  150.8060000   -48.4217800  120.2205000
 		     -50.0609400  160.4900000   -54.7465200  129.6001000    -1.7547790 -158.8691000    -8.5355170  106.6458000
 		     -51.9085800  111.1743000   -52.8297600  168.9545000    -8.5145470  106.7622000    -1.7321790 -158.8945000
   42423940000    -0.8842721  -84.7898800   -16.1040200  167.5480000   -52.3499100  110.7834000   -52.5707800   83.5700400 
 		     -15.9419300  166.2163000    -1.1097250  -85.4575000   -50.7411300  131.4516000   -47.4779900  105.4152000
 		     -51.8700600  130.3336000   -52.3061400   96.4652700    -1.7349460 -159.3737000    -8.5558800  106.2102000
 		     -51.9110500   57.3919800   -52.4787000  145.8941000    -8.4694540  106.7669000    -1.7859590 -159.1992000
   42493930000    -0.9328612  -85.4714700   -15.9419000  169.3447000   -53.7531300  120.5056000   -55.5004200   81.1586300 
 		     -15.9376900  166.8101000    -1.1120440  -84.6945000   -50.7328300  134.0964000   -51.9710200  128.8130000
 		     -57.7555500  139.5297000   -51.1193100   86.1692300    -1.8008470 -159.1341000    -8.5377030  106.0819000
 		     -54.7312200  100.1050000   -53.9466500  159.1997000    -8.5275340  106.5322000    -1.8728590 -159.6400000
   42563920000    -0.9849190  -85.3023200   -15.9087000  168.2125000   -54.0234700  138.9009000   -57.9299100  153.5323000 
 		     -15.8648600  167.0443000    -1.0783900  -85.2155100   -51.2017100  114.2230000   -48.4141300  131.0014000
 		     -54.1653700  105.5521000   -50.3545000  -30.0848500    -1.7525380 -159.5071000    -8.4950900  105.8808000
 		     -55.9244100   16.4638400   -57.4471500  159.3321000    -8.5385070  105.7723000    -1.7178610 -159.9702000
   42633910000    -1.0156390  -85.5717500   -15.7217800  168.0605000   -53.1263600  118.1014000   -52.4573500  101.0127000 
 		     -15.9055500  168.1722000    -1.0300910  -85.7532600   -52.5995100  107.3461000   -55.2727100  131.1626000
 		     -52.1762500  167.3083000   -50.6490600  176.7628000    -1.8439110 -160.1975000    -8.4966310  106.1333000
 		     -47.3330900  134.6333000   -51.0976800   83.1132600    -8.4974220  106.3231000    -1.7997560 -160.1463000
   42703900000    -1.0072920  -85.5536300   -15.6098200  169.7278000   -50.8382600  121.0880000   -50.6814200  118.0649000 
 		     -15.9951100  168.8228000    -0.9824405  -85.2507500   -51.4530400   70.5963400   -55.1206000  155.5490000
 		     -51.7949800   66.7614400   -46.3279400    3.1124050    -1.7960830 -159.8676000    -8.5266700  105.7732000
 		     -58.2709800   86.6479200   -40.6575800  127.9681000    -8.6029780  106.0058000    -1.8439420 -160.1681000
   42773890000    -0.9680467  -86.4274800   -15.9695500  169.0881000   -51.7173000  119.5355000   -52.8671100   96.9918400 
 		     -15.5848900  167.9366000    -1.1921370  -84.7067000   -53.6806900  121.1106000   -53.3920100  131.0562000
 		     -53.9887100   31.3331200   -47.3014800  164.6302000    -1.8479550 -160.2283000    -8.4575310  105.3738000
 		     -49.6168600  127.1919000   -51.6220200  115.9670000    -8.3934330  105.1354000    -1.8363930 -160.7422000
   42843880000    -1.1472910  -85.7777700   -15.1728100  167.7803000   -51.6779600  119.2365000   -50.4541600  128.9635000 
 		     -15.7129200  167.1415000    -0.9750878  -85.2965100   -49.4800000  128.6780000   -53.4308700  127.4532000
 		     -48.3663400   93.9975900   -53.7250900   51.0390700    -1.8269660 -161.1814000    -8.4895750  105.1979000
 		     -46.7565800  102.1582000   -43.3091300  121.8922000    -8.4109130  105.0083000    -1.8301150 -160.8464000
   42913870000    -1.0529260  -85.8773200   -15.8139900  168.8469000   -51.5040200   97.0003000   -51.3674600  105.8273000 
 		     -15.6769700  166.7186000    -1.0382470  -86.4614200   -57.2011000  178.0626000   -51.0587700  116.0628000
 		     -46.6446600  101.6469000   -44.7780200   84.7308000    -1.7914900 -160.5544000    -8.4496990  105.3277000
 		     -54.3341700   68.4069800   -46.4917600   79.0124800    -8.4753090  105.2432000    -1.8555220 -161.0107000
   42983860000    -0.9196678  -86.3322700   -15.6859900  166.5524000   -51.1553300   96.6946600   -51.7944200  116.9249000 
 		     -15.6237700  169.0291000    -1.1925900  -86.7248200   -49.8428700  121.9969000   -49.6353100  123.8380000
 		     -57.4202200  136.2686000   -54.0335800    0.8668305    -1.8553130 -160.9559000    -8.4436570  104.6101000
 		     -51.9300200  -21.6238700   -47.1027600   37.2376500    -8.4651410  105.4439000    -1.8609080 -161.5615000
   43053850000    -0.9914586  -86.2947200   -15.2143000  167.2294000   -51.6996200   98.8680700   -59.2720200   89.2842000 
 		     -15.4023100  168.1237000    -1.1223310  -86.6759200   -52.0443400  136.4223000   -57.1826600  105.5267000
 		     -59.3039300 -116.7415000   -51.7419700  113.6933000    -1.8636360 -161.8688000    -8.4355920  104.3009000
 		     -56.1680800 -171.0049000   -54.6345600 -116.4474000    -8.4512080  105.1485000    -1.8246310 -161.2644000
   43123840000    -1.0763000  -86.8403900   -15.7935900  166.8604000   -52.8927600   77.7479000   -48.8270800   93.0224000 
 		     -15.4548300  166.8407000    -1.1151780  -85.8315800   -52.4167600  119.3145000   -49.1983900   77.0757100
 		     -52.0317400   88.9171300   -45.8169900   90.6839800    -1.8214000 -161.2843000    -8.3191210  104.4452000
 		     -52.1819600  120.4177000   -69.8822600 -168.6062000    -8.3260740  104.3117000    -1.8424940 -161.4935000
   43193830000    -1.0234880  -87.7766900   -15.4596800  169.3201000   -62.4525100   47.7290600   -48.5465800   92.8204300 
 		     -15.4436400  168.5617000    -0.9309222  -85.5119600   -47.5679500  130.0832000   -48.9420900  143.1861000
 		     -56.0649700   49.7509300   -50.0525500  102.6447000    -1.8680030 -161.4787000    -8.3991600  103.9563000
 		     -57.9819500  -13.0600100   -49.9435300  100.1705000    -8.3627470  104.0025000    -1.9358770 -162.3683000
   43263820000    -1.0422360  -86.9928900   -15.3742700  165.7265000   -52.7560900  114.0553000   -54.0475000   60.4008500 
 		     -15.3422000  166.8954000    -1.0192300  -87.4010000   -58.4779500   94.1644900   -49.0924100 -179.7742000
 		     -54.4588100  177.5445000   -56.3287000  114.0350000    -1.8541920 -162.4234000    -8.3763980  103.8387000
 		     -53.9690000  177.6506000   -44.6308500   99.0880400    -8.3411980  103.7695000    -1.7958560 -162.0193000
   43333810000    -1.0819750  -87.0515100   -15.4672100  168.5887000   -53.4746200  118.3535000   -52.3025400  133.8971000 
 		     -15.3567100  167.4255000    -1.0198190  -86.5571700   -51.9696200  139.3352000   -56.4279800  130.1059000
 		     -48.2759800  154.8926000   -44.8372500   50.4668800    -1.8251970 -161.8810000    -8.4093340  104.6262000
 		     -47.6380600  118.1460000   -47.5610000 -118.7727000    -8.3473740  104.1355000    -1.8067420 -162.5205000
   43403800000    -1.1197630  -88.1464600   -15.3333100  167.2668000   -53.7874900  131.8309000   -49.8210500  120.3623000 
 		     -15.4249500  166.7068000    -1.1415010  -86.9466800   -54.7003900  126.4807000   -51.0253700  148.6899000
 		     -49.1183300  159.1327000   -47.2441300  147.9078000    -1.8831720 -162.0583000    -8.4329330  103.9812000
 		     -49.6578800   75.0955700   -49.2370500  166.4366000    -8.4310510  104.3883000    -1.9326440 -162.5818000
   43473790000    -1.0097840  -87.1568400   -15.1987100  166.6035000   -53.6383200  125.3387000   -49.1567900  118.9448000 
 		     -15.1146500  168.8549000    -1.2610870  -86.1765500   -53.7402200  107.2234000   -53.6793600  110.3885000
 		     -50.8469500  116.6636000   -58.2252500  -87.8120800    -1.8591380 -162.8737000    -8.3911780  103.4341000
 		     -50.3617200   73.5005600   -52.1862900  123.3420000    -8.3279510  103.1066000    -1.8018380 -162.7921000
   43543780000    -1.0288150  -87.1883200   -15.0879000  168.9943000   -53.6085400  138.2686000   -55.3241300  103.9025000 
 		     -15.3865100  167.6108000    -1.0940200  -86.5614800   -52.1098700  111.5096000   -60.8895500  -48.9465800
 		     -45.3198900  118.0696000   -42.1650500   71.6569000    -1.8877480 -162.9938000    -8.3816890  103.3549000
 		     -48.5151000  130.5363000   -47.5642600  -24.2454400    -8.3390910  103.1219000    -1.8391320 -163.2170000
   43613770000    -1.1143620  -88.3856700   -14.9469900  166.5723000   -51.3557100  120.6573000   -53.9776300   84.4796400 
 		     -15.0759900  166.7807000    -0.9677445  -87.6400500   -56.5232900   91.2236300   -52.0793700  139.9837000
 		     -53.9156000   86.0999300   -44.9729600  108.9927000    -1.8546220 -162.7414000    -8.3034520  103.0201000
 		     -59.8842300  122.1797000   -50.4588900   88.5596800    -8.3113660  103.1216000    -1.9341370 -163.0070000
   43683760000    -0.9940487  -87.7839700   -14.9037600  167.1371000   -52.8070800  103.8756000   -55.3734700  131.4956000 
 		     -14.8660400  167.7953000    -1.3354320  -85.6843500   -52.2522500  119.9305000   -52.2990500  120.6521000
 		     -47.4415800  108.8703000   -52.5135600  -71.3376700    -1.8815610 -163.4500000    -8.2907550  102.9937000
 		     -57.7030600  100.7490000   -50.6931500   76.0140800    -8.3365310  102.8141000    -1.7888060 -163.4070000
   43753750000    -1.0679820  -87.8709400   -15.1022800  166.9886000   -53.7445300   83.7392300   -52.8611700   72.1973600 
 		     -15.1157800  166.4147000    -0.8860456  -86.8681200   -50.9583400  106.8561000   -51.0359300  109.5826000
 		     -49.1836900  151.0775000   -46.2177800  -55.0372700    -1.9108410 -163.5836000    -8.2507410  103.1615000
 		     -48.0432500   66.5675800   -43.7563500   37.4667800    -8.3350720  103.0947000    -1.8742620 -163.7075000
   43823740000    -1.1004160  -88.0957500   -14.9560300  168.2747000   -60.2761000   87.8005100   -50.2615800   99.5529800 
 		     -15.1055800  165.8642000    -1.1655360  -88.6997800   -59.0400200   99.7473900   -51.3334000  155.0021000
 		     -53.5584000  150.7164000   -47.5358700    6.2547570    -1.8924040 -163.3842000    -8.2494300  102.7495000
 		     -49.4227800   75.6109400   -44.6330100  152.0263000    -8.1825850  103.2774000    -1.9276170 -163.4194000
   43893730000    -1.1576240  -87.5617700   -14.9385800  167.9183000   -52.9664600  114.2795000   -49.5822100  124.8553000 
 		     -15.1072000  166.7631000    -1.2946440  -87.7249800   -51.6385400  126.6775000   -48.8479900  114.2585000
 		     -63.5370300  -75.3932200   -50.7830100  -44.3817200    -1.8987260 -164.3712000    -8.2851200  102.7046000
 		     -54.8042600  152.9910000   -47.5290300   94.0879400    -8.2387980  102.6024000    -1.8498440 -164.2523000
   43963720000    -1.0731340  -88.6583500   -14.7177100  170.1096000   -61.3656500   71.5475500   -49.1037200  100.0586000 
 		     -14.8466100  166.4070000    -0.9805424  -86.6198500   -65.6391000 -140.8780000   -53.3367500  169.6042000
 		     -49.5760000  149.8631000   -49.8368800    3.8253340    -1.9472170 -164.4773000    -8.1974550  102.0091000
 		     -54.6144100   87.8167000   -49.7908600  121.0930000    -8.1286890  102.5503000    -1.8907070 -164.8510000
   44033710000    -1.1363260  -89.2283200   -14.8631300  167.6005000   -49.2087200  118.4996000   -52.7955200  104.2699000 
 		     -14.7054800  165.0666000    -1.0790360  -89.3524200   -58.2080800  125.0816000   -55.0650100  152.5153000
 		     -46.5566300  149.4700000   -45.8642700  145.0496000    -1.7816710 -163.7413000    -8.1205080  102.2776000
 		     -49.3227000   33.8730100   -47.5864400  127.7215000    -8.0623320  102.4204000    -1.9211680 -164.3040000
   44103700000    -0.9850293  -87.8720200   -14.9758100  165.6775000   -52.8819700  118.3865000   -47.9941300  120.3822000 
 		     -14.7395800  166.3775000    -1.1336210  -87.9868200   -58.2545400   82.9154100   -56.5846000  147.9536000
 		     -53.7820500  102.1064000   -40.9856000   59.8802700    -1.8922890 -164.5786000    -8.2832450  102.0393000
 		     -60.1360500   54.7825200   -51.5238200   90.5024900    -8.2409100  101.5857000    -1.8470160 -165.2689000
   44173690000    -1.0724840  -88.5698200   -14.4597100  167.5051000   -54.1370400   91.0870900   -47.7147200  128.5257000 
 		     -14.8382400  167.2215000    -1.1499850  -87.7926100   -48.2121700  103.3605000   -47.6809200  144.4861000
 		     -60.7328400    9.2005700   -54.6988800  144.4677000    -1.9317930 -164.7845000    -8.1551350  101.5072000
 		     -47.3242500  111.4973000   -40.1581900  166.2281000    -8.1961250  101.6970000    -1.8878950 -165.7519000
   44243680000    -1.1781800  -89.0588200   -14.4445000  164.2439000   -49.5524400   96.3721200   -51.4130600  118.7014000 
 		     -14.7662400  166.2746000    -1.0383900  -88.9250200   -48.2571400   97.1788400   -52.3402700  139.7861000
 		     -50.4731900  160.5293000   -48.4617600  106.3643000    -1.7619210 -164.8970000    -8.1040440  101.4368000
 		     -49.1251100   73.1147200   -50.6390500  118.6628000    -8.1587900  101.0320000    -1.9017030 -165.2793000
   44313670000    -1.0690660  -89.5520900   -14.5883500  164.7296000   -53.4295200  139.1250000   -51.6426800   89.5246900 
 		     -14.6743800  165.0793000    -1.0764400  -89.4367200   -48.6926700  138.6206000   -49.8964500  129.9244000
 		     -48.9142600  157.8086000   -48.2602200   89.4273700    -1.8965510 -165.5279000    -8.1257170  101.0367000
 		     -48.5036400   47.9228100   -55.8518900   71.8940100    -8.1368710  100.6610000    -1.9088210 -166.0961000
   44383660000    -1.1270920  -89.8100700   -14.8325900  163.9680000   -55.7753000   96.2288700   -55.8277900  113.2853000 
 		     -14.6145000  166.3648000    -1.0791500  -89.1415900   -51.8395700   53.2522400   -53.1791000   92.6174500
 		     -47.9456000  122.8234000   -46.9064600 -170.2676000    -1.8896720 -165.7289000    -8.1561080  100.5645000
 		     -57.6834500  158.0868000   -45.6797100   83.0076400    -8.1356750  100.3827000    -1.8958690 -166.6902000
   44453650000    -1.0505020  -89.1943700   -14.1238200  167.0057000   -49.3975800  114.2754000   -54.6295900  140.2023000 
 		     -14.5585500  165.7878000    -0.9839432  -88.6999700   -57.6630100  152.2771000   -48.0695600   92.8815700
 		     -53.4595900   19.2401800   -50.2866400 -166.7165000    -1.7759130 -165.5724000    -8.0470720  101.0202000
 		     -55.1977900  145.7826000   -65.4877300   50.0396200    -7.9467640  100.6642000    -1.8867780 -165.9515000
   44523640000    -1.0394050  -89.7479600   -14.0065300  167.6833000   -55.3559200  145.3421000   -49.6764600  114.5894000 
 		     -14.5835800  165.6957000    -1.0759980  -88.5968900   -51.3540600  161.6905000   -48.2380300   96.7417200
 		     -50.5263500  -33.9692500   -45.7460400  133.0665000    -1.8701820 -166.3098000    -8.1606970  100.6165000
 		     -50.3805900  107.1108000   -46.6949100   28.1725600    -8.1508680  101.1369000    -1.9261860 -166.9867000
   44593630000    -1.0216260  -90.1861600   -14.5523600  166.5967000   -54.7317100   88.2447600   -51.9365200   82.0934900 
 		     -14.5154100  164.7168000    -1.1799170  -89.6431500   -51.3370100  140.9999000   -50.1324800  118.4860000
 		     -55.0040000  -61.6237400   -52.6941200   38.1636900    -1.8818660 -166.4117000    -8.1427410   99.2033800
 		     -48.7328700   93.2551900   -41.9612400 -170.2417000    -8.1101040   99.4416100    -1.8768560 -167.4433000
   44663620000    -1.0568150  -89.5691200   -14.2051300  164.7874000   -50.4857500  151.7502000   -49.5023300  113.8385000 
 		     -14.2963000  164.6423000    -0.9745648  -91.2752400   -48.5129400  138.4323000   -50.2082600  178.3271000
 		     -45.9034800  110.7088000   -45.6417200   32.9004400    -1.8130440 -166.9886000    -8.0560420   99.9910900
 		     -55.2485000 -178.1922000   -50.7122600   15.4082400    -7.9985930   99.3499100    -1.8990300 -167.2322000
   44733610000    -1.0083350  -90.2523400   -14.5790600  167.3549000   -56.4520300  125.2698000   -62.4289000   58.7447200 
 		     -14.3683700  164.0869000    -1.0750520  -89.4595400   -54.7491900  141.6847000   -56.6192100  120.1062000
 		     -52.0474700   67.4835000   -56.9627700    6.8040200    -1.8691060 -167.2740000    -8.0708920   99.1228300
 		     -50.1350600  147.8556000   -42.0809500   88.9372100    -8.0510480   99.4103900    -1.9230160 -167.5540000
   44803600000    -1.1006440  -90.2766600   -14.3777000  164.8639000   -53.2193300  144.5331000   -52.5986600  103.1969000 
 		     -14.2995400  166.7461000    -1.0642450  -88.8601400   -52.5540500  -31.8473800   -50.3660800  122.2071000
 		     -53.1376600  174.9453000   -46.1396900  -58.0759700    -1.8170800 -167.4613000    -8.0745330   98.9864200
 		     -59.5844000   -9.5674540   -50.1190300  170.1790000    -8.1211180   98.5001100    -1.8827840 -167.9547000
   44873590000    -1.0768920  -90.0366000   -14.6048600  166.2795000   -52.4418300  126.2983000   -48.6125100  103.3197000 
 		     -14.1203100  165.1918000    -1.0662510  -88.8861000   -55.4021600   78.0299300   -50.8190900  144.4653000
 		     -46.9312100   62.3254200   -44.0830300   58.6942200    -1.8239120 -167.9268000    -7.9873350   99.2749200
 		     -43.2019400  115.6148000   -43.2104700  132.6437000    -8.0781560   98.5742800    -1.9185530 -167.9119000
   44943580000    -1.1696690  -90.7499800   -14.1681500  165.3583000   -47.9640700  135.1642000   -50.6654800  105.8422000 
 		     -14.3344100  166.4638000    -1.1401030  -90.3898800   -51.4006400   79.7947200   -48.8200600  133.1943000
 		     -50.0580900   56.6851500   -53.2227600 -131.2313000    -1.8465230 -168.2235000    -8.0785840   98.4638400
 		     -48.3960300   69.3048100   -45.7900900  167.7344000    -8.1144110   98.6048100    -1.9502230 -168.3995000
   45013570000    -1.0061120  -90.3763700   -14.3706100  165.0510000   -59.7483800  134.1704000   -50.0140600  147.4095000 
 		     -14.1384200  165.0451000    -1.1715420  -90.5601200   -49.2557900  143.0043000   -70.0623900 -161.4156000
 		     -58.9960200   16.6812700   -48.9204200   32.7050300    -1.8321980 -168.1275000    -8.0333470   98.7871600
 		     -54.3092200  175.5683000   -51.0367600 -167.4810000    -7.9776470   98.7053900    -1.8853850 -168.7061000
   45083560000    -1.0357100  -91.3669200   -14.1755800  164.5181000   -48.5262200  105.8314000   -51.2321600   97.7537500 
 		     -13.9727500  165.4606000    -0.8988388  -90.0867500   -60.1058200   91.5461900   -54.4713400  142.3339000
 		     -57.2956000   75.6097300   -51.8255000 -125.5165000    -1.9041550 -168.9033000    -8.0147140   97.8030900
 		     -44.3215100  158.2753000   -43.2457700   58.3839200    -8.0177490   97.3568300    -1.9294230 -168.9264000
   45153550000    -1.2190060  -90.7180700   -13.9831600  164.4147000   -51.1126700  113.9989000   -50.9735800  133.4354000 
 		     -14.1756400  164.2447000    -1.0453670  -91.3063400   -50.7620500  108.3190000   -54.9300100   90.1377700
 		     -49.6615800  159.6990000   -42.7483400  115.9981000    -1.9092630 -169.0984000    -8.0783240   97.5943900
 		     -63.2191800  -84.2977900   -43.8488200  138.4648000    -8.0689260   97.7271900    -1.9397400 -168.8566000
   45223540000    -1.0983440  -91.3351200   -14.1244700  167.0371000   -54.4716200   89.4872600   -52.7868700  127.1624000 
 		     -14.0774400  166.3041000    -1.2617070  -90.9534400   -49.9368800  132.0181000   -49.8835900  100.5179000
 		     -54.0718800 -144.1655000   -42.1665200  166.8751000    -1.8471130 -169.0275000    -7.9908990   97.4273700
 		     -63.5654200  161.8674000   -42.5920700   87.2024700    -7.9708410   96.6221500    -1.8810080 -169.1482000
   45293530000    -1.1341350  -91.9169300   -13.9469000  164.6898000   -52.8062400  114.6494000   -49.7259300  129.4991000 
 		     -14.0891900  165.0178000    -1.3217010  -89.7993900   -52.5082200  161.7064000   -51.3785900  117.9535000
 		     -52.6662900   90.8943900   -40.0623200  100.4745000    -1.8756830 -169.6069000    -7.9931310   96.9363500
 		     -48.4205600  145.2379000   -50.2310600 -137.7156000    -8.0595610   96.8745700    -2.0219800 -169.6538000
   45363520000    -1.0530580  -91.3719900   -13.7761100  165.5063000   -49.6597300  122.8886000   -50.2882900  129.0488000 
 		     -13.8224400  165.9346000    -1.2529340  -91.7350200   -58.7797200  170.4579000   -52.0066300  126.7608000
 		     -63.0708100 -123.2089000   -51.1294200   43.7723400    -1.9444640 -169.6113000    -7.9529880   97.0591100
 		     -45.2529100  165.9591000   -47.2584000   86.9524000    -7.9573580   97.2293900    -1.9391060 -169.6582000
   45433510000    -1.0579770  -91.1352300   -13.9742700  165.3835000   -59.5917100   89.3395900   -54.3388700  103.1920000 
 		     -14.0282000  167.2623000    -1.1764990  -91.7447700   -61.0051400  136.0659000   -48.1124000   84.1960700
 		     -52.7105900  151.5954000   -50.0273700  -96.3673200    -1.9357080 -169.7893000    -7.9397980   96.9866600
 		     -55.0491600  144.2605000   -43.1674200   65.5057700    -7.9297510   97.0645100    -1.8939770 -170.1628000
   45503500000    -1.1144400  -92.7557900   -14.0244000  165.6830000   -50.2532300   90.2200900   -51.9955900   82.5110300 
 		     -13.8141200  164.6216000    -1.1850240  -91.0740900   -49.4426300   80.0246400   -53.6727500   54.6271100
 		     -45.6568800   35.0291700   -52.7667800 -149.3796000    -1.9713190 -170.4152000    -8.0552890   96.2853400
 		     -44.2334600   84.5418100   -47.8270400   80.2791300    -8.0584640   96.1090900    -1.9735980 -169.9902000
   45573490000    -1.1874150  -92.3338900   -13.6562300  164.2102000   -55.8527300  127.3153000   -55.0931600  141.3412000 
 		     -13.9591300  164.9056000    -1.2423260  -91.4692800   -47.9139900  114.4074000   -49.5832900  133.9193000
 		     -59.2799000  102.2742000   -47.7059900  122.8977000    -1.9488420 -170.4226000    -8.1041470   96.7891800
 		     -56.2274300  144.1134000   -57.6857800   99.8662300    -8.0538390   96.8375900    -1.9700160 -170.0997000
   45643480000    -1.0851100  -91.9300400   -13.4640900  163.6658000   -49.5968700  134.8368000   -51.4018200  132.0363000 
 		     -13.7707000  165.1317000    -1.2468750  -90.9208400   -54.1792300  128.1051000   -49.1588600   89.4552800
 		     -51.6256500   99.1535900   -54.4458200 -129.3806000    -1.9311210 -170.9880000    -8.0121390   96.5008500
 		     -54.8955700   45.8136300   -50.0036200  128.2328000    -8.0378600   96.5796900    -1.9646440 -170.8516000
   45713470000    -1.1050530  -92.7200600   -13.3389500  166.8937000   -54.9608400  131.4903000   -48.3868000  119.3917000 
 		     -13.7329700  165.8556000    -1.1884220  -90.1313600   -50.8790500   97.1282500   -59.0805700   62.5385500
 		     -46.6027600  107.6611000   -42.6460000  126.3030000    -1.9064830 -170.9890000    -7.9940750   96.5643100
 		     -52.7956300   98.5060300   -46.5576100  130.0523000    -8.1566310   96.3391200    -1.9862300 -170.9430000
   45783460000    -1.1485550  -91.4097500   -13.5351500  162.3680000   -50.1861200   98.2827500   -53.7205900  123.5612000 
 		     -13.6623500  165.3641000    -1.1305860  -92.6022300   -50.0300800   81.7880600   -58.5652200  120.7210000
 		     -51.9705400   91.7021700   -46.7170000  -19.5744400    -1.9848440 -170.9280000    -8.0870270   96.1557800
 		     -62.4402900   57.8460200   -43.9002800  -14.3069900    -8.0207000   96.2517200    -1.9557240 -170.9125000
   45853450000    -1.1827650  -93.0410800   -13.5066500  162.9477000   -51.9139600  103.8765000   -51.2870800   90.0327200 
 		     -13.5611000  164.8960000    -1.1318400  -92.6871700   -49.9556800  123.0452000   -53.2268900  123.6946000
 		     -52.1453700  105.3868000   -44.4341600 -165.8501000    -1.9535370 -171.3331000    -8.0699130   95.8834100
 		     -57.8004500   90.2417800   -46.5346900  156.2279000    -8.0777790   96.2026000    -1.9392200 -171.4951000
   45923440000    -1.1615630  -93.8334100   -13.4364100  163.3987000   -52.9689800   59.5431700   -56.1162000   90.6923000 
 		     -13.4703000  163.2852000    -1.0869870  -92.5954800   -47.2060500   93.0909700   -55.1130100  145.7085000
 		     -50.2961700   -9.7633280   -46.0405200   27.2344300    -1.9553730 -171.6771000    -7.9672430   95.7455400
 		     -52.2262300  162.7191000   -41.0454500  140.1577000    -8.0174010   96.0801700    -1.9775230 -171.5249000
   45993430000    -1.0975350  -93.1177700   -13.6118500  164.6958000   -51.5239100  106.5470000   -49.3334200  106.0468000 
 		     -13.1917700  164.3824000    -1.2243460  -92.9167600   -54.6557800  126.5040000   -52.7639700  122.7444000
 		     -41.1600000  109.3878000   -46.5014500  128.2841000    -1.9982220 -171.6180000    -7.9261970   95.6951000
 		     -44.9323300  129.1911000   -45.1038700  162.4235000    -7.9600670   95.2193300    -1.9963370 -171.7442000
   46063420000    -1.1722200  -93.2340500   -13.6160800  165.4596000   -52.6340500  126.5715000   -52.1784100  140.9750000 
 		     -13.2202700  165.1346000    -1.0007230  -91.8825100   -54.4710300  115.8424000   -60.4832500 -165.0853000
 		     -51.8246700   80.3312700   -47.9273900  135.8826000    -1.9568560 -171.9504000    -7.9325900   95.4792100
 		     -56.5062700 -179.4972000   -46.0105400  117.0515000    -7.9544160   94.9814800    -1.9172450 -172.2550000
   46133410000    -1.2090320  -93.3535600   -13.3815500  161.7195000   -55.3284500  114.1534000   -49.8215100  130.0582000 
 		     -13.4312100  165.0369000    -1.4407550  -92.7865500   -52.0890200   97.2288000   -51.5872100   82.1486700
 		     -54.6993600  154.1011000   -42.8749500 -143.9526000    -1.9436640 -172.2174000    -7.9372970   95.5553700
 		     -45.9443500   92.9954400   -47.0240900   41.1053200    -7.8992250   94.6474500    -1.9179370 -172.4620000
   46203400000    -1.2217170  -94.0479700   -13.3521800  162.5539000   -54.0818100  141.4869000   -52.5714600   76.8418400 
 		     -13.2801700  165.3525000    -1.2606570  -93.3466700   -52.0931500  103.5999000   -55.9404000  113.6315000
 		     -64.9947200 -149.8884000   -42.6050600   86.8448600    -2.0154310 -172.2447000    -7.9002210   95.3837600
 		     -51.5828300   55.8264000   -45.1349800 -179.2210000    -7.8673670   95.0298600    -1.9745350 -172.2188000
   46273390000    -1.1821690  -93.9228700   -13.1672100  164.8513000   -53.4998000   69.8133900   -53.1395200  115.2732000 
 		     -13.2358600  163.7832000    -1.1981380  -92.8776700   -50.2389400  113.1168000   -54.9361600   88.6718200
 		     -52.3291100  148.3377000   -44.0366600  -62.6858300    -1.9780120 -172.4606000    -7.9232180   95.2781100
 		     -47.2440300   73.9117900   -45.5054900  120.7817000    -7.9876550   94.7855700    -1.8955280 -172.4820000
   46343380000    -1.2048160  -93.8725100   -13.0353700  163.1503000   -51.4133200   98.7735900   -51.0551400  118.3716000 
 		     -13.2183000  163.9955000    -1.2189800  -93.1421700   -59.9414300  -10.3075800   -56.3776200   94.6761400
 		     -48.4892200  104.3794000   -51.7736900  112.2947000    -2.0050850 -173.1508000    -7.9221060   94.3849900
 		     -59.4280200  111.4680000   -45.5495300  166.4826000    -7.9593080   94.9613300    -1.9655140 -173.1418000
   46413370000    -1.3456210  -94.1500100   -13.2390600  162.2375000   -54.6506000  108.9215000   -59.7941800  145.0647000 
 		     -13.1743800  163.1334000    -1.1945070  -93.0502500   -58.6652800  111.0465000   -54.5787600  164.9160000
 		     -46.0127300   24.0720500   -49.2297700  160.7940000    -2.0267260 -173.1831000    -7.9710890   93.6328600
 		     -49.4805800  179.3583000   -40.6689000  113.6185000    -7.8679270   94.0804500    -2.0003210 -172.9856000
   46483360000    -1.2044030  -93.9058600   -13.1761700  165.0822000   -49.5486000   96.1924400   -52.7928200  147.5319000 
 		     -13.1682200  163.9830000    -1.2254030  -93.0074200   -53.7224300   88.1226000   -46.7884000  116.5031000
 		     -49.2933600   68.8398600   -37.8377200  128.1452000    -1.9539440 -173.1493000    -7.8539130   93.5933400
 		     -48.3620800   93.5432300   -44.6457100   89.8353000    -7.8239560   94.4760700    -1.8745680 -173.5352000
   46553350000    -1.2998690  -94.3267300   -13.1659000  163.8604000   -47.7431900  123.7624000   -51.2041900  102.9465000 
 		     -13.1034000  163.1751000    -1.0516270  -92.9882400   -54.3148600  122.1835000   -51.9556700  122.9188000
 		     -46.8966300   72.2813900   -60.7230700  -34.0771500    -2.0138630 -173.5881000    -7.8185250   94.3759200
 		     -52.5746900  119.9573000   -50.3592200  114.7581000    -7.9156810   94.0279500    -2.0009420 -173.8682000
   46623340000    -1.2497620  -95.2829400   -13.0624600  164.1332000   -57.3124300   65.5689700   -55.9534000  152.2230000 
 		     -13.1160300  163.4683000    -1.2187820  -93.6622800   -57.2022200   36.7879200   -52.6574500  116.9151000
 		     -49.5834700  112.1711000   -45.7709200   16.9240600    -2.0364330 -173.6134000    -7.8053870   94.0824200
 		     -59.4471300 -104.7259000   -46.7716200  162.2025000    -7.8470280   93.8977400    -2.0129590 -173.4933000
   46693330000    -1.2597940  -94.0651900   -13.0231700  161.3460000   -50.3815800  112.9831000   -50.2743900  118.8479000 
 		     -13.0660100  163.0730000    -0.9974515  -94.0692300   -49.3628900   92.5730600   -50.3392400  126.1395000
 		     -45.3914000  109.4098000   -44.8347300  -89.3545200    -1.9532460 -173.7069000    -7.8951440   94.0276000
 		     -51.0161200   96.8829300   -41.8329400  109.4114000    -7.8230140   93.4696600    -1.8693330 -174.2726000
   46763320000    -1.2435540  -95.0085800   -12.9785500  162.5218000   -51.2573100  115.1625000   -50.3518400  149.3554000 
 		     -13.0516000  164.8053000    -1.2863440  -93.6853400   -53.1738500  133.6235000   -53.1150500  121.4435000
 		     -52.2050500  132.6064000   -54.7772300  127.0026000    -2.0018900 -174.4660000    -7.8069830   93.5054600
 		     -49.0651300   41.1528400   -52.8707000  145.4906000    -7.8297660   93.4774000    -2.0133060 -174.8554000
   46833310000    -1.2419510  -95.1488300   -12.7367900  164.6658000   -53.0340800   94.0387100   -55.4001200   69.1098600 
 		     -12.7577600  162.7683000    -1.1369990  -94.6899600   -56.5489000  133.0629000   -50.0530700  126.1853000
 		     -51.1187700  111.5031000   -49.8675600   91.4298200    -1.9857150 -174.3884000    -7.7476840   92.8195800
 		     -55.2564800 -127.4558000   -59.0600200   35.9947200    -7.8448920   92.6312200    -1.9773350 -174.5085000
   46903300000    -1.3283390  -94.2625200   -13.0347800  164.1955000   -58.4790000   95.0290100   -56.7246300   99.5054000 
 		     -12.9904500  162.8672000    -1.3664890  -95.4191400   -51.3009100   98.7718100   -54.4926800  173.4691000
 		     -56.9989700   47.7952100   -53.1120800   86.2327700    -1.9279660 -174.5115000    -7.8186760   92.9170800
 		     -51.2608800 -169.3757000   -53.6475700 -156.7942000    -7.7670180   93.0609700    -1.8547850 -174.9704000
   46973290000    -1.2786100  -95.2752300   -12.9664500  161.9557000   -58.9682200   84.7862000   -49.6761700  131.7120000 
 		     -13.1486700  163.1465000    -1.2371860  -95.9288400   -61.9381800   45.5639100   -52.1358700  105.5313000
 		     -67.4967300 -109.5699000   -48.7136800 -150.8172000    -2.0051190 -175.2218000    -7.8177450   92.5337800
 		     -56.5315200   95.4177200   -49.3902000   59.9449000    -7.7468990   93.0775400    -2.0654000 -175.4391000
   47043280000    -1.1876390  -95.4441800   -12.6689000  163.7409000   -50.0042800  144.4167000   -53.7989100  134.0705000 
 		     -12.7607400  161.3805000    -1.0668660  -95.5034300   -48.3137100  103.3952000   -54.2701700  127.8189000
 		     -52.9713600    9.9284010   -52.1223800 -135.6621000    -1.9959700 -174.8163000    -7.8101880   91.9717300
 		     -42.6555500  114.5887000   -49.2914900  -83.0350900    -7.7998840   91.8731800    -1.9811640 -175.4641000
   47113270000    -1.0537310  -95.6939300   -12.8312300  161.6990000   -50.6181000  124.9045000   -49.2574600  112.8086000 
 		     -12.6722800  162.7058000    -1.3374600  -95.2809300   -58.3043100  163.3053000   -48.5731900   93.4756600
 		     -56.0134800   95.4332000   -42.9892300  104.3261000    -1.9283340 -175.1647000    -7.7815660   91.8985400
 		     -65.8242400   87.1045700   -51.0209400   78.5373200    -7.8245150   91.6880200    -1.8870290 -176.3633000
   47183260000    -1.1353700  -95.7323500   -12.6622000  163.6928000   -51.9515800  135.4830000   -52.1342200   66.1501500 
 		     -12.8092700  163.6906000    -1.0668360  -95.4657100   -55.2599000  123.8389000   -60.6294800  152.6542000
 		     -57.2052800  -80.8914900   -45.6413200   85.1225500    -1.9402280 -176.2234000    -7.7404550   91.8019500
 		     -55.6303300   37.1144300   -45.4859500  155.2119000    -7.7932070   91.8276500    -2.0189510 -176.4680000
   47253250000    -1.3545450  -96.4360000   -12.9139400  162.2831000   -54.8126900  109.7482000   -50.6995500  106.5742000 
 		     -12.7152000  161.4303000    -1.3393370  -95.7190200   -59.6811700   81.5201500   -58.1880600  129.1482000
 		     -53.5644500   93.5208300   -51.7508200 -173.5955000    -1.9481510 -175.9216000    -7.7363670   91.6850000
 		     -54.0600400  110.1950000   -47.2230600  117.3320000    -7.7286770   91.7021000    -1.9530090 -176.2312000
   47323240000    -1.0869280  -95.8179300   -13.1043700  161.6846000   -55.2145500  120.2091000   -49.4031300  124.1687000 
 		     -12.7160600  162.0079000    -1.5285250  -95.7818300   -54.7708100  131.8310000   -56.3635200  118.0805000
 		     -61.0305800   37.9082800   -42.6253800   73.3466400    -1.9179020 -176.1331000    -7.8510270   91.2365600
 		     -62.6159300  -75.0799000   -50.3535700  136.1999000    -7.8213990   91.0366000    -1.9405100 -177.0062000
   47393230000    -1.1020870  -95.8213000   -12.3481200  162.8517000   -50.7526100  104.4233000   -51.0924500  129.0220000 
 		     -12.6229400  161.8512000    -1.1243300  -95.6770000   -59.6175000  108.0565000   -51.4535900  140.7540000
 		     -50.8949500  108.0952000   -43.4582100  140.1779000    -1.9349950 -176.7810000    -7.8613890   90.6582900
 		     -52.2046300  152.6614000   -53.1374900  -28.5673100    -7.8166750   91.2063800    -2.0290060 -177.2403000
   47463220000    -1.2991160  -95.4649200   -12.6544400  163.4032000   -55.0044600  109.4504000   -51.0404400  114.5611000 
 		     -12.6393600  164.0393000    -1.0680040  -95.3869900   -57.2043500  140.1339000   -50.7492500  143.8459000
 		     -49.3521300  156.2426000   -46.1851600  -13.0872600    -1.9949320 -176.3359000    -7.8369590   90.4281600
 		     -48.4697800  101.0273000   -41.6910500  125.8065000    -7.7528870   90.3399700    -1.9347110 -177.4339000
   47533210000    -1.3574030  -96.4601200   -12.4514600  163.3195000   -52.5574700  117.5079000   -48.3710300  106.9520000 
 		     -12.4726200  162.4841000    -1.0159480  -96.0416300   -58.9284000   78.7781000   -57.9963600  154.1963000
 		     -59.0702700   88.2666000   -44.7040200 -166.2483000    -1.9739810 -177.2626000    -7.7869060   89.8136400
 		     -54.6836400   90.1147100   -50.1330800  137.9377000    -7.7473300   89.8018300    -1.9236820 -177.8095000
   47603200000    -1.0489190  -96.5093300   -12.6162000  159.5371000   -52.7070500  116.7841000   -59.7360800  161.3391000 
 		     -12.6719900  161.9127000    -1.2138920  -97.9098000   -49.0240600  117.4737000   -50.7948700  124.7043000
 		     -61.6801500   50.7153500   -45.6296600   92.9230700    -1.9424700 -177.8433000    -7.7884960   89.7988800
 		     -49.8837500   54.2949300   -55.8861000  128.0165000    -7.8735430   90.0334700    -1.9723850 -177.8816000
   47673190000    -1.1010140  -96.6086900   -12.4735200  162.5418000   -51.4700700  101.0469000   -63.9603800  117.5783000 
 		     -12.5646000  161.5176000    -1.3580860  -95.3181200   -52.0853000  103.7515000   -52.7247600  106.7557000
 		     -46.7529300  149.9496000   -46.8844000  144.4384000    -1.9679590 -177.3074000    -7.7686510   89.9603000
 		     -57.5161400  106.3562000   -71.8398400 -125.5470000    -7.7705230   90.4364800    -1.9457190 -177.8942000
   47743180000    -1.2528330  -97.1842800   -12.3676200  161.7334000   -59.6622600  116.3346000   -49.8928900   73.0825100 
 		     -12.1902600  163.3502000    -1.1408650  -95.5768800   -48.0955700  110.3647000   -53.9169700  167.0347000
 		     -63.6010200   16.3482500   -49.3513400   45.3823600    -1.9499680 -178.0255000    -7.8053910   89.4990100
 		     -53.2620800 -160.2764000   -49.0538700  -17.4338800    -7.8478830   89.5679600    -2.0277220 -178.4175000
   47813170000    -1.1640090  -97.0060800   -12.5862800  162.8679000   -53.4962300   89.5250700   -59.1693300   82.4632300 
 		     -12.4487200  161.9606000    -1.4390690  -96.6585200   -50.0239200  148.1088000   -59.3351900   92.4341400
 		     -54.8187100   95.9666600   -40.9913300  146.9928000    -1.9930600 -178.3458000    -7.7467230   89.2078500
 		     -50.6919900  162.4136000   -40.9006200   95.8181500    -7.7176780   88.5496400    -1.9598740 -178.9281000
   47883160000    -1.2143210  -97.1261600   -12.2818100  160.6163000   -56.1679400  124.5610000   -56.8016700  113.6134000 
 		     -12.3703500  161.9365000    -1.2487160  -96.7237700   -68.9287900  122.7308000   -46.9424200   80.9099000
 		     -55.8810800   80.6484100   -45.4551300 -114.9099000    -2.0196750 -177.9526000    -7.7568120   89.3654100
 		     -51.5986800  105.6280000   -54.5702900 -135.6514000    -7.7245800   88.9223400    -1.9707340 -178.8246000
   47953150000    -1.2552370  -97.2434300   -12.4757600  162.2549000   -57.3931500  125.6765000   -54.7099600   71.4601000 
 		     -12.2491300  162.9097000    -1.1618890  -96.5384000   -50.4953000   94.1304700   -47.9297000  105.9190000
 		     -62.7735600   88.3612100   -45.2505100 -150.8836000    -2.0301570 -179.2282000    -7.8669080   88.7111500
 		     -47.5880400  122.8673000   -56.7718500  -95.2373500    -7.7351360   89.1405100    -2.0074250 -178.7675000
   48023140000    -1.1391060  -97.0917600   -12.0465000  164.0851000   -50.6023400  101.5174000   -53.8673000   98.9021800 
 		     -12.3284100  161.4174000    -1.3860470  -96.9041300   -54.9950100  117.3418000   -54.2916100   92.1532600
 		     -45.1733700   56.6800300   -45.2387400 -167.9261000    -1.9941540 -179.0194000    -7.7636820   88.3903000
 		     -47.4907100  149.4233000   -42.2039800  100.4603000    -7.7381050   87.8730200    -2.0120370 -179.4348000
   48093130000    -1.2284600  -98.6435600   -12.4947300  159.7789000   -55.9525900  101.4404000   -56.5274700  117.1426000 
 		     -12.1299900  160.0010000    -1.2623980  -97.5656400   -55.6157300  146.3508000   -56.2914700  127.5597000
 		     -49.7936100  120.2594000   -45.7231200   77.3916300    -1.9736320 -179.1216000    -7.8160890   88.8268400
 		     -50.7535200  126.0141000   -45.6738600   55.5295600    -7.8296590   88.5832100    -2.0420240 -179.5887000
   48163120000    -1.2916840  -97.8602000   -12.2624500  161.3293000   -52.9720500   76.8983000   -53.2215300  110.0474000 
 		     -12.2256400  161.8552000    -1.3528000  -95.6278400   -52.0463600  134.0979000   -51.3925700  151.2311000
 		     -44.6325600 -171.7686000   -43.9820100   67.9289300    -2.0624330 -179.4405000    -7.8020450   88.3484000
 		     -69.2968300 -167.3032000   -41.5805300  133.3742000    -7.7334400   88.2394600    -2.0306660 -179.5082000
   48233110000    -1.1027630  -97.9429700   -12.1105400  161.7280000   -57.7705600   85.1198900   -57.2136200  103.9118000 
 		     -12.2227800  162.3584000    -1.4747020  -96.5143400   -53.6267400  138.0043000   -50.2609500  138.7076000
 		     -52.8681400 -141.0666000   -45.0333800  132.6651000    -2.0139780 -179.9258000    -7.7610030   88.0168500
 		     -48.3858200  104.8272000   -43.0523800  106.8516000    -7.8415020   87.5797500    -1.9815540  179.3648000
   48303100000    -1.1978190  -98.6932100   -11.9475900  161.1417000   -53.8416100   74.4520300   -53.2511500  137.9887000 
 		     -12.0804800  160.5814000    -1.2755840  -96.9214400   -50.8775600   77.0162300   -53.4260400  112.8322000
 		     -43.2939600   92.2317000   -49.1555900  121.8344000    -2.0335570 -179.9115000    -7.7705980   88.1230400
 		     -46.7072700   89.2071000   -39.7297900  119.0992000    -7.7831880   87.7252900    -2.0433700  179.9526000
   48373090000    -1.2040200  -98.4451300   -11.9118100  160.9195000   -49.6446300  114.6822000   -57.1817100   68.0351900 
 		     -12.0557100  160.4555000    -1.3309230  -98.7374800   -55.3732200  109.2465000   -49.5840800  104.5836000
 		     -48.0829800  107.2504000   -51.4714400 -129.1405000    -2.0861900  179.6600000    -7.7732850   87.7037500
 		     -50.2185700 -176.5479000   -43.2254200  135.1589000    -7.7535650   87.6976600    -2.0304340  179.9863000
   48443080000    -1.2012540  -98.4460800   -12.0626100  161.1676000   -55.1441200  109.0716000   -52.3082100  126.5823000 
 		     -12.0743800  161.2467000    -1.5625990  -99.5660300   -56.9915200   45.5042300   -51.4372300   99.1361000
 		     -58.1583000  162.2739000   -47.2722700   74.4373800    -2.0101540  179.2661000    -7.7999420   87.4186400
 		     -68.6484200   97.3486000   -56.2762700 -144.6352000    -7.8177790   87.4385100    -2.0504450  178.8832000
   48513070000    -1.1408630  -99.7940200   -12.1090100  160.7039000   -53.4333200   93.8639500   -52.1782600   93.2321900 
 		     -11.9047900  159.2676000    -1.3313350  -98.8013600   -56.3023100  101.7784000   -54.3342400  112.8632000
 		     -49.9235900  143.8690000   -49.9304200  132.5611000    -1.9962110  179.3244000    -7.7378030   87.4505300
 		     -53.6165400  -23.1201300   -45.6611400  169.6705000    -7.7605240   87.8802500    -2.0454550  179.4335000
   48583060000    -1.2993270  -98.5261500   -12.1728200  160.2929000   -53.5010900  125.1282000   -50.9099800  124.5441000 
 		     -12.0914800  159.0389000    -1.4942500  -98.8914700   -63.1900400   70.0040100   -54.2790200   84.2512000
 		     -50.1190300   74.7520400   -47.3162100  134.0643000    -2.1084810  179.6475000    -7.7887230   87.6414000
 		     -42.0646100   65.1130900   -45.5179100 -116.3849000    -7.7151910   87.1030700    -1.9746800  179.0970000
   48653050000    -1.2027250  -98.9649300   -11.6143600  159.7562000   -55.1794600  108.4182000   -52.0248000  123.1362000 
 		     -11.8433200  159.8270000    -1.1013250  -98.7449000   -52.6515100  118.9465000   -49.1387300   87.7194700
 		     -49.0129700   77.3718600   -49.9027700  168.3615000    -2.0448370  178.6718000    -7.7956920   86.8747600
 		     -45.6950500  164.6115000   -42.7708300   81.5633000    -7.7133500   86.5759000    -2.0743230  178.4015000
   48723040000    -1.3168250  -99.2613400   -11.7579100  158.2049000   -57.7720700   98.1055700   -47.9264000  109.7235000 
 		     -11.7501900  159.7189000    -1.1174410  -98.5584700   -56.6417900   97.9341900   -66.5635800  124.6931000
 		     -44.7502200  161.8699000   -47.0086100   55.5399200    -2.0397690  178.4264000    -7.8038280   86.7198000
 		     -61.9641200 -154.4392000   -54.6080600   97.6755500    -7.8213950   87.0653900    -2.0489970  178.4709000
   48793030000    -1.2574460  -99.2314500   -11.6863600  158.9552000   -47.9796900  100.1296000   -56.2673900  148.8625000 
 		     -11.7061400  160.2922000    -1.6335730  -99.1292100   -55.9401400  162.5954000   -54.2867500  110.4885000
 		     -48.5721500  141.7255000   -55.1998600  158.8202000    -2.0510840  178.7809000    -7.6650610   86.6801900
 		     -46.3057000  150.2614000   -52.1720200  109.0360000    -7.7398450   87.0386700    -2.0007780  178.4687000
   48863020000    -1.2745430 -100.1381000   -11.9977000  160.8314000   -50.0733400   98.5793400   -64.7551800  138.8187000 
 		     -11.7574400  160.4871000    -1.2048540  -99.3229900   -51.3754700  132.9228000   -49.5323500   67.6175200
 		     -47.7961400  113.9503000   -42.7872400  121.2287000    -2.0260640  177.5367000    -7.8102210   86.3790100
 		     -54.4064800  127.7906000   -43.4673500   64.4558700    -7.8174160   86.0217000    -2.1185110  177.8074000
   48933010000    -1.2989300  -99.5109600   -11.7650800  160.4860000   -51.4035000   95.5231600   -54.7044300  124.2228000 
 		     -11.8586100  159.6521000    -1.3801590  -99.9930800   -66.2766700  129.0206000   -48.6983100   91.7674200
 		     -52.1602100  109.4180000   -42.0602200  164.6143000    -2.0143330  178.0366000    -7.7243860   86.8564100
 		     -50.2955400  126.0807000   -46.9136100   28.9635800    -7.6668210   86.1155300    -2.0220550  177.6414000
   49003000000    -1.0828240  -98.7549100   -11.7784500  160.0030000   -51.4395700   77.6867100   -55.8025700   92.9676400 
 		     -11.6598400  160.5543000    -1.4572880  -99.6597900   -47.5417900  117.4202000   -49.2203900  152.5688000
 		     -65.6845400  -71.4730000   -46.5970200 -176.6582000    -2.0729780  178.0763000    -7.7456040   87.1542200
 		     -48.3136700  159.4757000   -44.8645100   50.9022300    -7.7459000   86.9698000    -2.0011700  177.9231000
   49072990000    -1.4183610 -100.9163000   -11.6166800  159.6006000   -54.7316300   93.2720600   -50.4925200   93.9766800 
 		     -11.5939700  160.2056000    -1.1691490  -97.2013100   -53.6075200  114.8201000   -52.8909800  157.8368000
 		     -58.7013100   79.6942100   -44.3931400  136.0467000    -2.0346850  176.9293000    -7.7343630   86.1931500
 		     -45.0251200  149.1943000   -43.7816100   91.5026900    -7.7955640   85.5892500    -2.0704850  177.2814000
   49142980000    -1.2136330 -100.1098000   -11.6868400  160.5157000   -48.6908400  108.4713000   -54.4483900   93.0531100 
 		     -11.7059000  161.0514000    -1.3232240 -100.1340000   -48.7166800   88.9824900   -59.2794800  109.5267000
 		     -46.6787800  115.7800000   -48.3734100  117.5171000    -1.9883070  177.5870000    -7.7223050   85.8131000
 		     -43.1823800  125.6847000   -52.3344600 -161.5914000    -7.7227130   85.2639100    -2.0292320  176.7192000
   49212970000    -1.3498590 -100.8670000   -11.6716300  160.1094000   -56.4166000  151.1978000   -50.1630400   97.8294500 
 		     -11.5600400  160.3180000    -1.1966290  -97.9451000   -48.9919900   94.9031500   -50.3158000   96.1773300
 		     -44.0691000  128.0236000   -49.7799800   31.9737300    -2.0555930  177.0941000    -7.6530030   85.6079300
 		     -50.5553100  139.2994000   -44.0736700   67.0640600    -7.6009020   85.7849900    -1.9839400  176.8932000
   49282960000    -1.3486000 -101.4921000   -11.4749000  157.6243000   -48.0879200  118.6039000   -52.0292100   95.2250600 
 		     -11.6282600  159.0213000    -1.3581560  -99.3054700   -55.4838900   64.6441700   -48.8932300  101.2357000
 		     -54.1024100   98.2161100   -41.5171500  155.8986000    -2.0589460  176.1333000    -7.6740410   85.4175200
 		     -56.8215300 -142.7982000   -39.4429300  121.8059000    -7.8232030   85.8931200    -2.0510320  176.9025000
   49352950000    -1.2080000 -100.8387000   -11.3911900  158.0742000   -56.4110100   80.9551600   -53.9078700  136.5301000 
 		     -11.1530500  158.3854000    -1.4118670 -101.0610000   -51.6719400   28.6817300   -67.8959200   96.1069800
 		     -58.6676800  122.9443000   -45.0900800   48.3476900    -2.0127640  176.9649000    -7.7022710   84.9090100
 		     -62.3260700   32.2016600   -51.1776700  -27.7586500    -7.7285650   85.3292400    -2.0237710  176.2218000
   49422940000    -1.2539890 -101.1053000   -11.7756600  158.7499000   -53.5951200  101.6982000   -54.2747500  128.2068000 
 		     -11.6828300  159.9358000    -1.5776360  -99.7547800   -54.7631800  139.0081000   -50.1180500   83.2898300
 		     -46.0157200  119.6844000   -54.6833600  146.7913000    -2.0309240  176.6207000    -7.6046590   85.1370300
 		     -46.3740500  133.4058000   -45.5342100   41.1837500    -7.6594660   84.7052500    -2.0466460  176.2483000
   49492930000    -1.2897240 -102.0089000   -11.6580200  158.0580000   -53.5891000  125.5727000   -54.7445000   85.2686500 
 		     -11.5569400  158.9667000    -1.4054160 -101.0612000   -51.2068000   92.0172700   -49.2561800   95.6195500
 		     -55.7624100   67.2826200   -47.9313300  137.2446000    -2.1095490  175.7500000    -7.7892710   84.9646700
 		     -55.7223900 -125.7741000   -46.6089400   57.0999200    -7.8037700   84.3240900    -2.0233440  176.0078000
   49562920000    -1.2178760 -101.5009000   -11.5216400  159.6528000   -52.1107600  108.6853000   -63.4029600  174.3790000 
 		     -11.1452400  158.7443000    -1.4280690 -101.8307000   -52.7785500   75.9072700   -52.2000300   97.5527800
 		     -43.7348500  116.2825000   -60.6057400 -147.7206000    -1.9997640  176.0165000    -7.6838140   84.4054900
 		     -55.3039800 -123.7992000   -46.4085200   59.9793200    -7.7754680   84.0939100    -2.0344200  175.1173000
   49632910000    -1.2534230 -102.0126000   -11.2548600  158.4328000   -55.7729600   91.3255200   -54.1985600  108.3545000 
 		     -11.3786400  159.7322000    -1.6836300 -100.0685000   -52.5800300 -177.9688000   -55.2561200   70.6371700
 		     -50.4424200    3.5239140   -47.8444700   84.8161500    -2.0224260  175.3986000    -7.6564660   84.8100200
 		     -48.9992300  156.4401000   -54.0866500  171.9566000    -7.6121650   84.1231400    -2.0151150  175.7520000
   49702900000    -1.4454480 -102.0763000   -11.1699100  159.3812000   -54.0013800   77.7626000   -49.7526200  101.7518000 
 		     -11.4075600  158.2829000    -1.4444020 -100.5800000   -51.0981300   91.5285800   -50.6413700   71.9108800
 		     -52.9123300 -114.7990000   -44.4027700  135.4279000    -2.1051230  175.0230000    -7.7592230   84.1803900
 		     -54.3083200  167.6027000   -51.6393600   72.0288100    -7.7355820   84.3811400    -2.0357280  175.5163000
   49772890000    -1.3546630 -101.9760000   -11.3255200  157.8840000   -48.6551700  137.2322000   -75.8463700   22.3297400 
 		     -11.5389400  159.7764000    -1.3810760 -100.6502000   -50.3680800  118.3901000   -49.1742100  146.9992000
 		     -45.3809200   93.1964500   -46.5771900  156.8596000    -2.0160610  175.1853000    -7.7756130   83.2614000
 		     -53.2578700  129.9757000   -57.7268400  -64.5132900    -7.6207270   83.7920500    -2.0736420  174.4403000
   49842880000    -1.4445540 -102.8957000   -11.1758500  157.8511000   -49.9600600  108.1815000   -54.4816000  128.4441000 
 		     -11.3830400  159.2285000    -1.5202960 -101.4996000   -56.7667400  165.4882000   -52.7301600   73.8587800
 		     -48.5724900   94.6474200   -40.4778400   64.5531400    -1.9681580  174.8229000    -7.6748390   83.7550700
 		     -50.9383300   96.0730100   -54.7912200 -179.4901000    -7.7313800   83.6771600    -2.0965550  174.6479000
   49912870000    -1.4834860 -101.9949000   -11.3919600  158.3217000   -54.2098900   44.8666200   -52.8841400   95.8758500 
 		     -11.3610800  158.7761000    -1.3468160 -101.1006000   -45.1397700   88.1209400   -57.9311400  100.2930000
 		     -48.9414100  123.0076000   -47.0055000  148.1277000    -2.1503880  174.7977000    -7.6540340   83.0095200
 		     -48.5489700  110.9451000   -47.2775600  136.4630000    -7.5943410   83.5432300    -1.9708880  174.2972000
   49982860000    -1.2162800 -102.3144000   -11.0552400  158.8267000   -56.1305500   89.6631500   -58.4692800  116.5106000 
 		     -11.0849100  157.7396000    -1.2120230 -102.4379000   -48.1438500  137.0516000   -47.6916500   97.8101600
 		     -51.0659200  117.3494000   -51.5441100   23.2149400    -2.0618080  174.1185000    -7.7006620   82.4901800
 		     -53.6501700   81.0377300   -43.1174700   84.7569800    -7.6962000   81.9566300    -2.0505270  173.5604000
   50052850000    -1.4477470 -102.6309000   -11.1860900  158.8166000   -52.8130100  118.0156000   -51.9841800   99.7074900 
 		     -10.9613200  157.8007000    -1.1206090 -101.3830000   -47.3386300  119.0352000   -51.9075500   61.8586300
 		     -54.4681200 -164.6609000   -44.7320100  -51.9649400    -1.9620270  173.5373000    -7.6657300   82.2286600
 		     -44.1744200  119.6532000   -49.1641000   94.5456700    -7.6055040   82.7243100    -2.0619370  174.0453000
   50122840000    -1.5017250 -102.7657000   -10.9657600  156.5513000   -52.2888200   72.0260100   -52.4122100  141.4420000 
 		     -11.2026100  158.1485000    -1.5108170 -102.6399000   -47.5018500  110.0197000   -42.6237700   85.2233700
 		     -46.9792100  -12.7002700   -52.0978000  126.3712000    -2.0983470  174.2136000    -7.6821520   82.7002600
 		     -50.6992100   47.2579000   -42.8956800   99.9002800    -7.6330560   82.2510500    -1.9853830  173.1550000
   50192830000    -1.2977000 -103.4871000   -11.0329800  158.7524000   -55.8879300  147.0422000   -52.5539800   68.7957800 
 		     -10.9591500  156.1411000    -1.5278020 -102.0644000   -49.0690200  123.1998000   -49.4550600   73.2660100
 		     -47.4645300  102.0451000   -44.5161100  148.8905000    -2.0055330  173.3328000    -7.7714230   82.1061500
 		     -47.6122100   76.9319500   -41.7690000   77.8078200    -7.7761260   82.5327800    -2.1195020  172.6709000
   50262820000    -1.4497700 -103.6270000   -11.0216400  156.6973000   -50.8154100  115.2539000   -47.9220600  107.2779000 
 		     -11.1308500  157.1651000    -1.2267130 -103.2139000   -47.3676400  131.9229000   -59.5315600  120.4929000
 		     -58.4557300   96.3832000   -43.9996400   77.2061900    -1.9818440  172.9647000    -7.7406810   81.4753800
 		     -51.8178700   82.5870100   -45.5196900   32.4888500    -7.7821440   81.3875100    -2.0650850  172.7533000
   50332810000    -1.2653310 -102.9846000   -10.8368100  158.7181000   -50.5028800   77.3224000   -47.2125300   88.0798500 
 		     -11.0303600  157.8193000    -1.2419800 -103.6956000   -45.5992900  132.7141000   -52.3201500   94.1463800
 		     -47.6732100   87.7520800   -53.0011400  130.3219000    -2.0848820  173.3564000    -7.7410550   81.7195700
 		     -52.6400200   48.8507900   -44.5113100  110.5676000    -7.7918190   80.5472700    -1.9656250  172.2135000
   50402800000    -1.2678520 -103.9353000   -10.9803700  158.6265000   -54.4396100  129.7585000   -49.9992800  132.9411000 
 		     -11.0718800  158.1737000    -1.4050360 -101.3321000   -48.6662500 -178.4352000   -52.1085800   70.3088600
 		     -48.7307500  133.0143000   -40.1500100   71.8347500    -2.0343690  172.5807000    -7.7496030   81.6312700
 		     -47.3985300   61.1923700   -47.5845800    8.5043250    -7.7335830   80.8468900    -2.0872410  172.2737000
   50472790000    -1.4408330 -102.7873000   -10.7578300  156.7166000   -58.5261700   91.0798600   -47.8997400  100.1221000 
 		     -10.8782700  157.7483000    -1.1561400 -102.9769000   -51.7495800   93.9852900   -47.4736000  152.9139000
 		     -64.4203500   27.2304900   -50.3199200   67.9239000    -2.0050610  171.7875000    -7.7497670   81.2274500
 		     -47.6123800  136.2903000   -60.4543100  142.1263000    -7.7833660   80.8426400    -2.0838820  172.1772000
   50542780000    -1.2770700 -103.4018000   -11.0256600  156.1887000   -58.2522500  134.8787000   -50.6781700  102.2628000 
 		     -11.0092600  156.3961000    -1.5062120 -104.9273000   -58.1192700  117.7365000   -51.6550000  110.2334000
 		     -53.9907400   71.4488100   -56.4279700  152.5981000    -2.0830260  172.3209000    -7.7378200   80.8561700
 		     -47.0152700   56.5911500   -48.4100800  120.9537000    -7.6597810   80.5380200    -2.0054870  171.6104000
   50612770000    -1.4139970 -105.7833000   -10.8043600  156.4733000   -52.4146800  114.6185000   -53.3096200   86.7018000 
 		     -10.7128000  156.6036000    -1.2400610 -102.9007000   -62.5201000  117.2566000   -46.6412800  126.7957000
 		     -46.5446000  130.2841000   -44.5563700   41.4497900    -2.0452880  172.1113000    -7.7989440   80.5186800
 		     -49.8994400   84.2675100   -54.5376500  142.5142000    -7.7760560   80.5196100    -1.9984730  171.5805000
   50682760000    -1.3993590 -104.7589000   -10.7380300  157.1326000   -51.8955300  117.4087000   -50.0797100   82.7437700 
 		     -10.7955400  157.7974000    -1.5191120 -102.2888000   -53.9158800  111.9964000   -52.1621100  105.0224000
 		     -51.3776600  173.6210000   -57.1442600   61.5984000    -2.0698110  171.3741000    -7.7684550   80.5100500
 		     -53.7524000  161.8325000   -45.4865000   45.1130800    -7.8035840   80.8025700    -2.0421300  171.3231000
   50752750000    -1.3150940 -104.4972000   -10.6503000  155.5638000   -53.7914100   52.0801700   -50.5517900   92.0957500 
 		     -10.8250800  157.8321000    -1.4470090 -102.6318000   -59.6804100  106.9462000   -46.8984600  117.0880000
 		     -53.6872500  117.0164000   -55.5135700  -54.2951100    -2.0561380  171.3615000    -7.7734670   80.2454600
 		     -52.0678300  116.5001000   -44.0622100  108.3524000    -7.8213480   79.5251400    -2.0488170  171.2334000
   50822740000    -1.4534360 -104.1145000   -10.9491100  155.8957000   -57.3744900  157.8677000   -50.1051300   90.8967200 
 		     -10.8681100  156.9666000    -1.4175500 -102.3457000   -56.9680400  106.2621000   -52.8594900   87.9726300
 		     -62.9844500  110.3361000   -45.6471100  110.4945000    -2.0844230  171.1452000    -7.7764090   80.0962800
 		     -61.7931100 -135.8642000   -43.4607400   97.6787300    -7.7751650   80.3386600    -2.0542560  171.0186000
   50892730000    -1.3410630 -103.5812000   -10.4900100  157.0843000   -59.4668500   18.5967100   -48.3207300  105.5921000 
 		     -10.6724000  156.8953000    -1.1987520 -103.9328000   -47.2191600   91.6832300   -48.9455900   87.1620200
 		     -64.7160400    9.4732260   -42.9653600   97.0401400    -2.0837420  170.7488000    -7.7415210   79.8808200
 		     -42.1456900  112.1992000   -47.1594800   44.1983200    -7.6172350   79.8870600    -2.0758820  170.7214000
   50962720000    -1.2871950 -105.0060000   -10.6227200  157.0520000   -55.3190800   98.1615100   -52.3464600   84.2792100 
 		     -10.6645000  156.7448000    -1.6038950 -105.4195000   -65.8599700  -44.3418300   -48.2513000  120.6011000
 		     -51.9545500   91.5000300   -48.3452800  -82.9533200    -2.0649900  170.5465000    -7.7087990   79.2501000
 		     -46.6228300   87.8595000   -54.5150300    9.1426520    -7.7757120   79.5075100    -2.0733860  170.7399000
   51032710000    -1.5250950 -105.1239000   -10.7059100  156.7181000   -49.2890900  133.8427000   -52.4679700  112.3354000 
 		     -10.8234400  156.5549000    -1.4868120 -104.5219000   -48.1754300   78.5133400   -50.0944900  129.8635000
 		     -48.5490100   71.5301500   -44.2397300   25.9706700    -2.1100530  170.9905000    -7.7583290   79.4426100
 		     -53.9188700   -0.0787941   -46.7147600   82.4049600    -7.6888480   79.4403400    -1.9919580  170.2867000
   51102700000    -1.4104330 -104.8229000   -10.6290900  156.9907000   -53.1983300  121.3640000   -51.6918900  113.9548000 
 		     -10.6963100  156.3141000    -1.5344290 -104.7280000   -48.6213700   98.5907700   -53.5986400  129.8592000
 		     -46.0644800  150.5673000   -42.1556900  156.0745000    -2.0917310  169.8636000    -7.7610370   79.6422600
 		     -47.3962800   75.8375400   -61.0760000 -119.1253000    -7.8142380   79.5224000    -2.1292310  170.1217000
   51172690000    -1.5808990 -105.3691000   -10.7647800  156.6101000   -53.9613100  112.0639000   -54.3928300   37.6830600 
 		     -10.8200200  156.0871000    -1.6479440 -104.4206000   -47.3480200   79.4130600   -54.3223600  115.4994000
 		     -48.8185700   37.2534600   -50.9072900   50.5880000    -2.0929970  169.6260000    -7.7983340   78.9870900
 		     -50.4123100   92.4134400   -46.3468200  124.9059000    -7.8422950   78.7311800    -2.1024350  170.2177000
   51242680000    -1.4600380 -104.8950000   -10.6238100  156.7259000   -52.2014100   54.8425500   -51.2418700  103.8588000 
 		     -10.6015500  156.0700000    -1.3340200 -104.7785000   -51.7679600   89.1636400   -52.6189300   98.1878800
 		     -52.6795400   73.1011300   -54.0700400  -20.6860400    -2.0646940  170.0363000    -7.7340330   79.0629000
 		     -47.4215800   57.9641300   -50.6411200  116.1797000    -7.7404460   79.6988800    -2.0589030  169.0896000
   51312670000    -1.4175390 -105.8649000   -10.5501600  156.7656000   -50.6203800   93.1010100   -49.5612700   95.3897300 
 		     -10.4115100  155.6736000    -1.3925200 -104.3497000   -52.3060100   80.1388900   -52.0565600  118.8169000
 		     -55.5404600 -178.2859000   -54.0774600  147.1435000    -2.0750610  169.2825000    -7.7934480   78.9165600
 		     -45.4438900  114.2313000   -53.9958000   51.8853200    -7.8137590   78.8185700    -2.1085750  169.5405000
   51382660000    -1.5140470 -105.8873000   -10.6058700  156.4495000   -50.7718900   93.9241600   -54.0461300   87.6408900 
 		     -10.5447300  155.3460000    -1.5684530 -104.0137000   -53.6888700  148.2422000   -57.0082000  120.0704000
 		     -59.0056300  107.2510000   -46.7734000  123.0707000    -2.1085100  169.1743000    -7.7762340   78.6598400
 		     -51.3927300   63.8889500   -47.7427300 -140.4579000    -7.6796970   78.3523900    -2.0758200  169.7844000
   51452650000    -1.3570050 -105.2908000   -10.4238800  153.6785000   -53.4460500   86.4714100   -54.4521300   87.9503600 
 		     -10.3582100  154.6980000    -1.2844230 -105.9587000   -52.6787800   90.7525900   -52.3524300  108.4342000
 		     -45.4517900   77.2587900   -50.6436800 -137.1310000    -2.0509770  169.5390000    -7.8087600   78.2601300
 		     -58.6287300   91.8661600   -48.7049900  102.8400000    -7.8720040   78.0830900    -2.0803170  168.5235000
   51522640000    -1.4823650 -105.5457000   -10.3359800  155.6761000   -56.8160900   43.0802200   -53.7314600   80.2028900 
 		     -10.4581700  155.9715000    -1.4062200 -105.5344000   -53.7470800  131.0183000   -60.5083700  169.3470000
 		     -53.0031800 -108.1216000   -60.0652100    5.2787270    -2.1286220  168.9082000    -7.8011930   78.3333400
 		     -53.9747400   87.7925800   -54.0227100  -31.8566800    -7.7562310   78.4507600    -2.0786160  168.8680000
   51592630000    -1.6210240 -106.6942000   -10.2585300  156.0348000   -61.9993000  134.8557000   -51.5902000   89.6944300 
 		     -10.3717600  155.3084000    -1.4403820 -104.7010000   -50.1145400  133.8705000   -51.4839500   94.4667800
 		     -52.3306400   70.9109700   -42.6378400  105.2175000    -2.1528390  168.4834000    -7.8161220   77.9257400
 		     -54.8869600   67.9640400   -58.8138200   98.8504600    -7.7396730   78.2319400    -2.0876840  168.7614000
   51662620000    -1.4682380 -106.6485000   -10.5371700  154.9575000   -52.1288000   75.3447400   -50.4495100   42.8356400 
 		     -10.3180400  155.7903000    -1.4152890 -105.3312000   -60.8263200   76.3367800   -58.5008800   68.0756000
 		     -49.5106900  143.0690000   -54.9767000   49.0148200    -2.0501770  168.8380000    -7.6740810   77.9624000
 		     -47.5499300   56.0461400   -44.6650500  160.0544000    -7.7960320   77.1281700    -2.0513040  167.9761000
   51732610000    -1.3986970 -106.0474000   -10.2224700  154.7215000   -53.6908100   78.0195300   -51.2308100   82.2791800 
 		     -10.1850700  154.6793000    -1.1937430 -107.7309000   -47.6111900  101.1732000   -50.5873800   61.6467400
 		     -44.9035600  177.6198000   -54.9169200  -11.4686800    -2.0663260  168.2391000    -7.6362200   78.1215800
 		     -62.7449800  -78.5351900   -46.4845000   13.2456300    -7.6581490   78.1920200    -2.0826930  167.8478000
   51802600000    -1.5855180 -106.6733000   -10.2731500  154.7305000   -63.9087000   26.0794300   -52.3707400   71.9308200 
 		     -10.3511000  155.6461000    -1.5031880 -106.5382000   -49.2557200  126.7994000   -50.9622600  105.0249000
 		     -52.2241200   86.6379400   -46.0791100   20.4567500    -2.1119010  168.0038000    -7.7850840   77.6745200
 		     -57.2271300  -13.9986200   -49.0291400  157.9227000    -7.7440680   77.5867000    -2.0667270  168.2049000
   51872590000    -1.3342930 -106.2302000   -10.2440700  155.1878000   -53.9410900   48.4931900   -56.9542400   66.4218100 
 		     -10.5507900  154.3895000    -1.6576380 -108.5112000   -48.7286300  113.3765000   -52.8104700   79.4244500
 		     -48.6137500   65.5184100   -40.8473200  159.2714000    -2.1338240  167.8269000    -7.7847190   77.4542500
 		     -44.9096600   47.2269200   -46.3941200  111.1207000    -7.6569710   77.5619400    -2.0614260  167.6244000
   51942580000    -1.5376480 -106.2708000   -10.0789300  155.7822000   -52.1273200   86.1597100   -51.8277000   22.6102600 
 		     -10.2311700  156.1853000    -1.4297800 -105.5505000   -50.3905900  101.2503000   -47.0243500  122.0223000
 		     -66.3697200   86.6989100   -42.5820500  126.9993000    -2.0362320  167.4905000    -7.8280190   76.8293100
 		     -50.3572900   85.9248900   -53.5063600  113.8720000    -7.6854650   76.8577200    -2.0559420  167.2312000
   52012570000    -1.5954260 -106.8031000   -10.2047200  155.9498000   -54.6457700   56.6557000   -48.3915400   92.5299900 
 		     -10.2689900  155.6905000    -1.2994310 -106.9515000   -55.6314300  116.5208000   -56.1066800  106.2394000
 		     -53.1660400   69.8622400   -48.0531800   62.3488700    -2.1417590  167.0380000    -7.7494230   76.7583500
 		     -56.0495200  -82.8744800   -45.8829700  122.2438000    -7.7084470   76.7180300    -2.0232680  167.6119000
   52082560000    -1.4191920 -107.3369000   -10.2864200  154.6256000   -53.2318300  119.1592000   -49.1989700   88.2348700 
 		     -10.1958700  155.2406000    -1.7708130 -104.6153000   -52.4636200   69.2180900   -51.5909400   90.1194800
 		     -55.0301700  118.4433000   -46.4463600   73.7468900    -2.0966110  166.9791000    -7.8301230   77.2380000
 		     -55.0895700  110.0815000   -53.5477300  158.6283000    -7.6894410   77.0852100    -2.0148010  166.8482000
   52152550000    -1.4921960 -106.6654000   -10.0476700  156.0004000   -52.0973200   78.9654000   -52.0072300  108.4224000 
 		      -9.9612890  155.6054000    -1.3634040 -104.6307000   -51.3807500   99.4519700   -53.1137500  111.7307000
 		     -53.8982800 -155.6552000   -53.1221800  160.1257000    -2.0178330  166.7831000    -7.6525710   75.8341900
 		     -59.2727600  156.9833000   -53.7262200 -148.1012000    -7.6637490   76.7572700    -2.0948110  166.5128000
   52222540000    -1.7315500 -107.0996000    -9.9812010  154.4336000   -50.9866000   31.9355800   -51.0406300   87.6583300 
 		     -10.0534000  154.7914000    -1.4639320 -106.2991000   -53.5531400   39.5891500   -51.9115600   87.5849000
 		     -47.0592800 -174.6235000   -46.5325800   99.9820300    -2.1370660  166.5069000    -7.7440850   76.1961400
 		     -49.5381200  108.3881000   -42.5335900  103.4408000    -7.7556750   76.4978900    -2.0283330  167.0531000
   52292530000    -1.4968150 -106.9024000   -10.0266600  154.3370000   -56.2140000   72.7865500   -56.2164300   98.1460800 
 		     -10.1463200  153.8217000    -1.5157520 -108.3919000   -47.0930300   88.9446200   -51.1025900   22.6180700
 		     -59.7114900   36.1251300   -47.1730400  140.1462000    -2.0925450  166.5306000    -7.8068980   76.2593300
 		     -50.3154600   99.9978900   -56.5433200   -9.8816410    -7.8374940   76.6682100    -2.0146430  166.2676000
   52362520000    -1.3757080 -107.5679000    -9.9822700  155.0601000   -51.3030200   99.6296400   -58.0484700   20.2252200 
 		      -9.9814010  154.8231000    -1.5951030 -105.1385000   -63.6631600   83.8954500   -47.6476700   89.0049600
 		     -57.7646500  168.5234000   -49.2704600   -4.0605540    -2.0491310  165.8673000    -7.7724190   75.7204100
 		     -46.4853100   72.1657300   -43.0807300   99.2336900    -7.7528510   75.5167500    -2.1136350  165.8204000
   52432510000    -1.4587190 -107.7438000    -9.7726530  154.2556000   -52.0595000   85.5260700   -67.2848100   49.3493000 
 		      -9.8280480  154.6747000    -1.4686120 -106.2856000   -54.0011200   55.4467200   -52.8287400   95.1378000
 		     -47.8917100   67.8460700   -56.5201600   19.8068300    -2.1475240  166.1309000    -7.7040630   75.7830500
 		     -52.7925000 -149.0255000   -49.0105200  102.0895000    -7.6389510   75.5912300    -1.9902290  166.1933000
   52502500000    -1.4347820 -108.1485000   -10.0972800  154.0148000   -52.1277000   79.2606100   -54.7771800  105.9830000 
 		      -9.8995190  154.6047000    -1.6959380 -108.9181000   -48.7510900  117.9265000   -54.5373100   93.8334300
 		     -55.5649000  -62.9764600   -65.1709400  100.2367000    -2.1349060  166.1065000    -7.7372670   75.6973200
 		     -48.2700000   80.0960900   -48.1406900  111.1788000    -7.6494620   75.3392600    -1.9732660  165.6069000
   52572490000    -1.4814690 -109.2497000   -10.0721900  154.6076000   -55.2695100  -32.0759000   -55.3995900   87.8411200 
 		      -9.9106180  153.2795000    -1.7592340 -109.0361000   -63.5013600  176.4441000   -53.8231500   77.3981700
 		     -44.6550800   89.4454300   -46.7494800 -123.4778000    -2.0236570  164.9558000    -7.8182870   75.3443200
 		     -46.9218100   38.0291300   -45.1706800  136.5443000    -7.7606200   75.2124500    -2.1734620  165.3017000
   52642480000    -1.6199340 -108.5253000   -10.1985300  152.6803000   -56.1306600    0.1469668   -60.3516000    0.0432829 
 		      -9.9842700  154.2066000    -1.4424780 -108.1801000   -50.4132800   95.3714400   -61.4182200  117.0222000
 		     -49.2530000  132.6818000   -44.9929100   38.5774600    -2.0860500  165.5747000    -7.7677210   74.7083400
 		     -67.9847300  156.8883000   -60.4405300   40.8542400    -7.8041680   74.9645000    -1.9910150  165.3229000
   52712470000    -1.5290460 -108.4809000    -9.9648150  153.2006000   -51.7491700   98.5187000   -56.4962600  117.0011000 
 		      -9.9274380  153.1077000    -1.9043480 -108.1618000   -58.2692800   68.3739100   -59.0568100  118.7276000
 		     -46.4542300   99.0419800   -45.3268700 -102.9616000    -2.1000550  165.1155000    -7.7314910   75.2215000
 		     -58.9297300   81.1728400   -52.8895500  176.8573000    -7.8809650   75.2024700    -1.9752920  164.5187000
   52782460000    -1.5776360 -108.9727000    -9.8430020  153.7094000   -58.7195100   -0.3781185   -56.7548700  143.7065000 
 		      -9.9795980  155.3973000    -1.7577530 -105.9488000   -49.5594000  128.0331000   -49.5739700   97.3608200
 		     -50.0158400   80.0100100   -49.4953300   32.2210400    -2.0670140  163.9137000    -7.7963550   74.2683400
 		     -61.6087800  144.0903000   -51.7763300   62.0217100    -7.7110480   74.8473400    -2.1753740  164.7964000
   52852450000    -1.5595520 -108.3893000    -9.7223940  152.2520000   -50.3505900   23.3670400   -58.4039300  -41.6083000 
 		      -9.8450680  152.7832000    -1.4255490 -108.7469000   -75.2171500  177.0070000   -61.7311900  168.3701000
 		     -46.1576800   65.9353300   -42.1480700 -171.8808000    -2.0825720  164.7764000    -7.8211570   74.3448900
 		     -53.2080200 -120.0623000   -43.5388900   33.4807900    -7.7975250   74.2188200    -1.9748690  164.3491000
   52922440000    -1.7369550 -108.0656000    -9.8234880  153.5112000   -53.6931200   89.6279000   -53.1403000   64.8942600 
 		      -9.8990590  153.5421000    -1.5743960 -107.1072000   -54.5345800    7.3449520   -49.7668600   45.4397100
 		     -48.9992900  -19.8625600   -46.4524500   34.8407000    -2.0861460  164.4184000    -7.8190600   74.6793100
 		     -51.7104900   36.0069600   -43.0602000  126.9765000    -7.8421030   74.0257300    -2.0139120  163.8493000
   52992430000    -1.5573460 -109.8903000    -9.7636620  154.0089000   -50.1912700  125.3865000   -53.4056900  104.8185000 
 		      -9.7187860  153.1115000    -1.3264750 -108.0611000   -54.7204200   43.3931900   -70.7442400   56.7353000
 		     -45.7179300   22.6556700   -57.0876100 -124.6342000    -2.0245250  163.4046000    -7.7555630   74.0114700
 		     -53.7364300  -12.9715900   -47.7956200  166.5285000    -7.7889180   73.2132300    -2.1594230  163.9942000
   53062420000    -1.6241670 -109.3159000    -9.9059020  152.9949000   -54.3084100   33.0450600   -55.5280200  126.1873000 
 		      -9.7983310  152.7138000    -1.4210030 -108.4605000   -52.5635100   86.6788200   -58.9042800   35.2024700
 		     -45.4084700   53.1843400   -48.2024000  128.5242000    -2.0723840  164.3604000    -7.8243570   73.6638900
 		     -54.9596800   98.3376500   -44.3602000  113.8989000    -7.7990300   73.2347000    -2.0014050  163.2837000
   53132410000    -1.4194580 -108.8907000    -9.7093460  154.2144000   -50.7984900   97.8786800   -56.4197200   66.8394600 
 		      -9.5424450  152.5877000    -1.5942730 -108.9333000   -66.2489600  100.7956000   -46.8214200   59.5701800
 		     -48.9218800  175.0433000   -43.0934700   54.9237900    -2.1054060  163.6113000    -7.7794280   73.6144300
 		     -68.6652500   61.4782100   -62.9286300 -123.2406000    -7.7500480   73.5094500    -1.9847370  163.3770000
   53202400000    -1.5254050 -109.7351000    -9.6966050  153.3587000   -59.7592000  115.7182000   -53.7434400   70.5701100 
 		      -9.7840940  152.5270000    -1.6719980 -110.1367000   -48.7888100  -12.5215100   -54.2439100   39.2108000
 		     -53.5968500 -126.1094000   -44.9326400   89.4959600    -2.0630260  162.6236000    -7.8684260   73.1586500
 		     -55.4907800  140.2398000   -51.7626600   86.1013600    -7.8386890   73.4526600    -2.0726750  163.6428000
   53272390000    -1.6066790 -109.3980000    -9.9080640  151.8004000   -49.7440400   87.1880800   -51.4417800   81.2584600 
 		      -9.8601320  152.4857000    -1.8615080 -110.7564000   -58.6180800   35.9182200   -55.7653400  131.6055000
 		     -54.4152800   73.4740600   -43.6592400   51.7401300    -2.0824640  163.3176000    -7.8385660   73.0668400
 		     -54.8942300   94.8670000   -48.0329500 -168.9507000    -7.7232870   73.2223900    -2.0143050  162.5749000
   53342380000    -1.5075140 -108.7934000    -9.6680250  152.8294000   -62.8214000   79.7968400   -50.5839800   63.1531800 
 		      -9.7184070  152.2048000    -1.7125710 -110.1323000   -46.7704500   96.9352800   -48.4737400  120.1833000
 		     -54.3503200 -157.8812000   -48.7680600   11.1330600    -2.0431780  162.5630000    -7.7397680   72.7892800
 		     -59.8529200  142.3410000   -54.1355900 -165.0725000    -7.8588050   72.9800100    -2.0361220  162.5904000
   53412370000    -1.6086850 -109.8350000    -9.8645810  153.5083000   -52.9916300   15.0510300   -59.6327100    2.3004740 
 		      -9.6210210  152.8351000    -1.4833310 -110.1066000   -57.8670200   39.7246200   -50.7835400   75.5323800
 		     -45.3909600  125.8293000   -52.4092700 -105.4847000    -2.0894580  162.1643000    -7.7801890   72.5347700
 		     -51.3873000   40.7897200   -48.4645600  145.3439000    -7.7795620   73.5409200    -2.0527720  162.6183000
   53482360000    -1.6267680 -110.3050000    -9.6347920  152.0944000   -50.6077000   97.7529400   -52.1586900   91.3152100 
 		      -9.6997170  153.1316000    -1.6347330 -108.8179000   -67.5062000  166.5293000   -52.5735600   83.3506900
 		     -55.1525800   97.3691600   -50.0230000   64.4578800    -2.0903170  162.6212000    -7.8621430   71.8859100
 		     -51.0202600   79.5808600   -45.6230100  136.7382000    -7.8574200   72.0118500    -2.0136740  161.9111000
   53552350000    -1.5643660 -109.1704000    -9.6324170  152.1795000   -59.3560800   48.9021200   -58.4731400   73.7241500 
 		      -9.8241420  152.5875000    -1.6321190 -109.7547000   -57.2293100   15.9801800   -59.0642700  115.0618000
 		     -49.7801600  142.7941000   -44.1669300 -112.3344000    -2.0727110  161.7321000    -7.8893940   72.1247900
 		     -50.3266100   -0.8364536   -42.7340500  144.7869000    -7.8131980   72.0908100    -1.9979620  162.0346000
   53622340000    -1.5673430 -110.1670000    -9.6922120  151.6946000   -51.4292300   66.2436100   -61.8550900  128.8748000 
 		      -9.7587670  150.4665000    -1.5546320 -113.5930000   -56.0321400  107.4529000   -55.6783800   80.2068900
 		     -48.0460300 -114.4337000   -44.4937100  -73.0903500    -2.1049780  161.6249000    -7.9129510   72.2248000
 		     -46.6401400  145.2707000   -46.8229500   70.8561000    -7.8519900   72.4569200    -2.0367980  161.6969000
   53692330000    -1.6086960 -110.8239000    -9.7634140  152.6308000   -56.4885300   -0.2331702   -51.9141700   20.4053200 
 		      -9.6056550  151.1936000    -1.8039120 -111.5193000   -53.6908500   98.9722700   -60.9494900  103.2790000
 		     -48.2412900   34.6930000   -49.7415000   29.5879900    -2.1120720  162.0587000    -7.9091830   71.8559600
 		     -53.8840500  126.3246000   -50.3564100   63.2360700    -7.8535110   71.2576400    -2.0213120  161.1489000
   53762320000    -1.6072530 -110.5985000    -9.5175690  152.1116000   -55.3186200   94.0920800   -52.6480300   95.1203300 
 		      -9.2316620  151.5524000    -1.8239710 -111.5932000   -56.2704600  104.7212000   -55.7225000   25.1799700
 		     -53.4416300 -165.3535000   -50.7455100  139.4590000    -2.0114820  160.8596000    -7.8160990   70.7436100
 		     -56.8847100 -131.7037000   -51.6989000 -129.3963000    -7.7960340   71.1633700    -2.0177350  161.4664000
   53832310000    -1.5881380 -111.4316000    -9.4454980  152.2563000   -58.4972400   25.2160400   -58.8097500   65.9119400 
 		      -9.4824690  151.9952000    -1.5857790 -109.7933000   -61.7669600   16.0325400   -59.5246800   -4.5560220
 		     -50.2752900  100.8531000   -42.3281600   36.8854600    -2.0626050  160.9769000    -7.8400210   71.2017200
 		     -55.4374700   35.6557700   -47.4911700  148.6355000    -7.9564470   70.8564500    -1.9953720  160.7397000
   53902300000    -1.7006730 -111.9047000    -9.4939410  153.5252000   -62.5700400   55.1526600   -53.3332400  112.1567000 
 		      -9.3250220  152.2758000    -1.6288260 -111.0798000   -52.1991400  112.6673000   -51.6330900   32.9515000
 		     -53.3300700  134.3907000   -45.7074800   18.5484400    -2.1054290  161.3684000    -7.8263010   71.1978900
 		     -52.7129600  101.1887000   -64.1313800  -23.8044200    -7.8418150   70.9146700    -2.0519210  160.3945000
   53972290000    -1.5362260 -110.6748000    -9.1651940  152.3029000   -53.8066300   77.4810000   -52.1065200   58.4592800 
 		      -9.4522020  151.2925000    -1.5729980 -110.3360000   -51.6997700   93.3631300   -56.2610900  124.4641000
 		     -49.9975700  -32.1586800   -63.2018800 -120.7576000    -2.0796510  160.1087000    -7.8744330   70.9414000
 		     -55.3674500  130.6333000   -48.6968700   80.1848400    -7.6817200   71.1978700    -1.9999350  160.7590000
   54042280000    -1.4582260 -111.2117000    -9.5978160  152.9458000   -55.1301200  153.6804000   -62.7534800   76.4159600 
 		      -9.5624490  151.7121000    -1.6012340 -112.4505000   -56.5933600  -33.7444300   -52.1509900   87.8481300
 		     -47.3774400   85.6070800   -44.0737500   84.7466400    -2.1628470  160.0470000    -7.9034440   70.9775100
 		     -50.5668700 -106.9276000   -53.1901200   52.2224500    -7.7558360   70.8938400    -1.9779440  159.4978000
   54112270000    -1.5522990 -111.4960000    -9.1554180  151.3640000   -52.0520700  136.5211000   -61.4508700 -145.3042000 
 		      -9.2442160  152.8234000    -1.4853760 -109.4221000   -51.5628400   21.8896400   -55.6459600    4.5580810
 		     -46.3799100  102.4276000   -52.4523900   99.7053400    -2.0428930  160.2265000    -7.8535490   70.4083100
 		     -46.6028200  -56.6663200   -54.2995600  108.9766000    -7.8472190   70.3303800    -2.0903190  159.5371000
   54182260000    -1.5689210 -110.9917000    -9.3174750  150.0916000   -53.9536400   96.7707200   -54.6504400   48.4400700 
 		      -9.3205380  151.2770000    -1.7403940 -113.2265000   -56.7054600   23.2426000   -61.3768800   53.1798200
 		     -55.2938200   15.9987900   -48.7524100   91.9918100    -2.0417730  159.2822000    -7.8432820   70.0736100
 		     -50.1437200 -179.0278000   -50.6860000  -72.4775500    -7.7937360   70.6257900    -1.9700460  159.9927000
   54252250000    -1.5800660 -112.6958000    -9.3433990  150.0706000   -58.5904700   81.0261900   -59.1809800   46.4679700 
 		      -9.3283210  150.1249000    -1.7633430 -111.9260000   -51.7383600  -72.1778900   -56.8784200  140.6260000
 		     -54.7470900   55.0582900   -51.7726700  -47.6369900    -2.1255700  159.3238000    -7.9077050   69.4489200
 		     -49.8947600   34.2247300   -68.7604800 -177.5522000    -7.9160520   70.1076700    -2.0237470  158.7004000
   54322240000    -1.6807330 -112.0544000    -9.1790090  152.3964000   -61.3917700   80.5699400   -54.0140000  104.6479000 
 		      -9.2144770  152.2264000    -1.6236460 -109.2571000   -52.9129000  103.1344000   -50.8313200   94.3374300
 		     -58.0789300   98.4218900   -46.8004000   11.4490700    -2.0138360  159.2438000    -7.9120760   69.6366600
 		     -47.3178500   69.6850000   -64.2367900 -165.4270000    -7.8632970   70.2956900    -2.1388170  159.3078000
   54392230000    -1.4950710 -110.8167000    -9.1734160  151.0573000   -61.1468700   47.6236000   -62.5688100   85.9719500 
 		      -9.2770270  151.9156000    -1.5168420 -112.7160000   -66.7467000   -0.9615790   -58.7953400   92.2808900
 		     -58.7678800  109.1478000   -42.4119000  -27.7119900    -2.0673710  158.6729000    -7.8917980   69.7058200
 		     -54.4094100    5.6334810   -51.1197700   17.5062600    -7.9399200   69.3439400    -1.9576920  158.7694000
   54462220000    -1.5631260 -113.5322000    -9.0223970  149.9832000   -56.3735000   88.6962100   -49.5894200   43.5721900 
 		      -9.1136260  152.3836000    -1.6109030 -111.5293000   -57.7942000  -27.9970800   -69.8097800  -51.5036300
 		     -47.5212400  -15.5950300   -46.4106100  -99.8036300    -2.1286780  158.6080000    -7.9557930   68.4943200
 		     -52.8861300  178.2967000   -43.0010600  121.2542000    -8.2091820   68.0437900    -2.0211400  157.6187000
   54532210000    -1.7509520 -112.7277000    -9.1504460  151.0588000   -56.1918900  124.9427000   -56.1469200   47.6137800 
 		      -9.2027980  150.9767000    -1.5820160 -114.2579000   -55.0970800   73.8158300   -62.0442000   36.0592700
 		     -50.3078500 -175.0467000   -43.9381400   96.1578800    -1.9847350  158.4679000    -7.8881550   68.6715900
 		     -58.2558900 -178.9081000   -47.7319300   12.8284400    -8.0026530   68.4093900    -2.1079790  158.8661000
   54602200000    -1.6277420 -113.1978000    -8.9976430  149.5869000   -63.9052900  -51.5372200   -59.5021100  122.9782000 
 		      -9.1642350  150.7334000    -1.4316360 -112.6936000   -54.1933900   70.3403900   -57.8307400  125.9531000
 		     -49.1955200   96.1747700   -45.8489900  -52.0224200    -2.0179730  157.7296000    -7.9664320   68.6144400
 		     -57.9145400 -139.1755000   -39.0961000   38.4113300    -8.1004540   68.3206500    -1.9296700  157.9095000
   54672190000    -1.6448890 -113.0399000    -9.2514630  150.3655000   -67.5087500  117.5457000   -60.6923100   44.0036400 
 		      -9.0497610  151.3993000    -1.7132770 -112.7178000   -52.6569200 -129.4992000   -50.6905200  151.7130000
 		     -49.0910100 -152.4001000   -47.7015000   -9.7435770    -2.1409700  157.6893000    -8.1112130   68.4827100
 		     -48.7263000  -12.9751600   -49.6999400   15.4137900    -7.9964250   68.8487000    -2.0643930  157.0414000
   54742180000    -1.8321640 -113.0050000    -9.1925890  150.8799000   -55.2851400   65.6462200   -60.6286300  162.3190000 
 		      -9.0691460  151.2836000    -1.2666870 -111.4800000   -59.9142300   88.4459800   -58.5888700   18.2823400
 		     -55.9986400  -35.6876400   -44.3330300   98.4032900    -1.9698390  157.5617000    -7.9893090   68.5627600
 		     -48.8529200  179.9005000   -58.5753900   48.7707300    -8.2126700   68.5260000    -2.0880440  158.0484000
   54812170000    -1.6068390 -112.4155000    -9.2577800  152.8879000   -58.7552900  106.3063000   -54.2476800  149.1748000 
 		      -9.2358070  151.9689000    -1.6842090 -110.4805000   -63.1413600  -55.1904300   -49.0786400   71.6247700
 		     -58.3291500  172.1196000   -47.6879500 -141.5692000    -2.0742730  157.3998000    -8.0446680   67.8978700
 		     -48.6942400  -49.7016000   -49.4885600   19.5954500    -8.0643970   67.7569500    -1.9650910  156.9834000
   54882160000    -1.5820880 -114.5223000    -8.9508430  151.3861000   -72.0638800 -121.8810000   -50.8680000  107.3898000 
 		      -8.7856730  150.0507000    -1.5884620 -111.5790000   -53.6925700  -44.8740200   -57.3208800   68.6485900
 		     -50.3209200  -90.7084400   -51.8955900  117.7927000    -2.1366480  156.9133000    -8.0313760   67.6875200
 		     -48.3272100   22.8777400   -45.5452300  105.7949000    -8.0994420   67.5759700    -2.1073380  156.8721000
   54952150000    -1.6868540 -113.8507000    -9.1897590  150.3075000   -62.6822200   22.6485000   -58.5806000   66.5628700 
 		      -9.0000910  150.3722000    -1.6656100 -113.1455000   -53.3484200   42.5293100   -54.9027500   65.3039600
 		     -60.7769700  117.6768000   -46.7922600   -3.7821250    -1.9951430  157.1184000    -8.0703680   67.3950700
 		     -53.0639000 -144.1811000   -52.7770200   21.8963800    -8.0823790   67.5498700    -2.0446050  157.2621000
   55022140000    -1.4785420 -113.1827000    -8.8698090  150.9756000   -53.5402700   97.3108700   -51.6619300  120.2402000 
 		      -8.7198100  150.5894000    -1.4231290 -111.5711000   -56.4547700  165.1722000   -50.6468700   78.7192500
 		     -45.5276600  131.6769000   -41.6202200  -44.6095400    -2.1079330  156.8894000    -8.0290480   67.1445400
 		     -50.6090200   32.3579400   -43.3986300   20.2600500    -8.0370630   67.7915600    -2.0149660  156.4897000
   55092130000    -1.8081970 -115.6028000    -8.9255670  149.6741000   -81.1925700  -20.4600300   -56.4733200  104.3268000 
 		      -8.9940590  150.9757000    -1.7329200 -111.3860000   -55.8918600   53.4537000   -49.7232500   94.5779600
 		     -56.6906700   30.5288100   -54.5582900  148.4310000    -2.1790060  156.0717000    -8.1335760   66.7947000
 		     -56.0097500  117.0870000   -44.2748600   81.2162500    -8.0091020   67.3098000    -2.0793310  156.5879000
   55162120000    -1.5902350 -114.7431000    -9.0267600  150.1789000   -56.0339800  100.6902000   -63.7085600   91.0514300 
 		      -8.8765830  149.1777000    -1.6634590 -115.3548000   -57.3200800   30.0481800   -52.5037100  148.4281000
 		     -53.4761800  135.2324000   -44.9797400   55.6306900    -2.1077040  155.5178000    -8.1045990   67.0536200
 		     -54.0774700  144.4624000   -46.0703400  -41.5301200    -8.1025300   67.4428900    -2.0499980  156.4127000
   55232110000    -1.5627390 -113.8581000    -9.2362300  150.1829000   -52.8491900   34.4252000   -55.6840600   -9.1767850 
 		      -9.0340640  149.8816000    -1.9555940 -116.2019000   -50.2942800   44.8188700   -48.2655600  119.3844000
 		     -52.8267600  102.8236000   -44.3086900   97.5660900    -2.0338800  155.9159000    -8.1451020   66.4842600
 		     -52.4661900  -17.6694900   -39.6668900  -71.1144400    -8.1007650   66.6904100    -2.0532210  156.1290000
   55302100000    -1.5665650 -115.1092000    -8.9378720  151.3822000   -55.1757600   93.8732000   -54.9244800  -85.0997800 
 		      -8.7284350  149.0777000    -1.7103470 -113.1033000   -54.3129300   28.3726300   -61.1785500  -35.6058200
 		     -57.8463600  142.7270000   -63.6757800  172.9576000    -2.1255090  155.3522000    -8.2036190   66.8165500
 		     -48.9320800  157.8940000   -44.1479200   51.0714000    -8.0885590   67.0628200    -2.0564950  156.0049000
   55372090000    -1.6795700 -115.3960000    -8.8617740  149.5596000   -64.6252100  126.1480000   -65.1193500    7.1015170 
 		      -8.9789890  150.2305000    -1.4870320 -112.6373000   -59.9671900   37.0116300   -58.3721700   66.5528600
 		     -53.4075200  120.8639000   -49.2420300   53.7413400    -2.1576350  156.5270000    -8.1694870   66.6168300
 		     -48.3205800  149.9177000   -49.9949000   36.6892200    -8.2748310   66.7228900    -2.0814120  155.6915000
   55442080000    -1.7859720 -114.4946000    -8.9706870  149.4989000   -61.9308700 -134.7452000   -52.5429200  159.0479000 
 		      -9.0422340  150.2480000    -2.0198640 -113.3077000   -56.1378100   86.1285600   -55.1109100  109.9987000
 		     -49.3654300   47.6223100   -44.9284800   -2.0232610    -2.0336470  155.0199000    -8.1831160   66.8449700
 		     -45.6266900  107.6118000   -41.9415300   44.9698000    -8.1593410   65.6563100    -2.0730710  155.6348000
   55512070000    -1.7173460 -115.3304000    -8.6969000  149.0507000   -56.7500600   47.7471500   -62.0802900  150.1797000 
 		      -8.5923200  149.7107000    -1.6958580 -113.3411000   -61.1257900   78.6663700   -58.8846100   83.3953600
 		     -64.3829200  -16.1250000   -41.8898000   77.5254600    -2.1985290  155.1371000    -8.0815150   66.1578400
 		     -52.4184500 -135.5534000   -42.7364900  101.3626000    -8.1277580   65.2696700    -2.0426150  155.3019000
   55582060000    -1.6342830 -114.3199000    -9.1557750  149.7825000   -56.3214100  115.3830000   -57.3499800   32.2748700 
 		      -8.6141580  148.1247000    -1.7140870 -113.7046000   -53.7482900  151.1324000   -65.3747600  132.8906000
 		     -46.3517600   40.1974300   -44.1553300  -75.3703200    -2.0368260  155.3898000    -8.1791380   66.1329700
 		     -57.2235800  154.9345000   -44.9292800  -73.0636300    -8.1875750   65.9419700    -2.0752710  155.0744000
   55652050000    -1.9524770 -114.4751000    -8.6627460  151.3156000   -53.5121000   33.3655400   -55.8115600   -5.0038910 
 		      -8.5779590  149.6392000    -1.3983840 -113.3800000   -56.7554500   70.1017500   -61.6823000   77.5193900
 		     -45.0574000  -24.0395900   -51.9425400   10.0667800    -2.0545580  154.8997000    -8.0173890   66.2009500
 		     -49.1363600 -162.0963000   -41.6149700   81.8690600    -8.1559190   65.9237200    -2.0686550  155.0923000
   55722040000    -1.6502430 -116.1168000    -8.8375960  148.6398000   -60.9094400  -46.0523200   -56.9343500  -39.5537300 
 		      -8.7752800  148.2477000    -1.7586300 -114.5061000   -57.0739600  -18.6127500   -53.7630800   11.6149300
 		     -56.6720700  122.3524000   -49.7165500   35.3015800    -2.2013030  154.6631000    -8.1144490   66.4831300
 		     -53.9026600   -8.0244100   -78.2850400  -80.1735200    -8.0264970   66.9153700    -2.0522160  154.3920000
   55792030000    -1.6663410 -116.8582000    -8.8121550  150.1821000   -58.6221400 -177.0645000   -57.9324300   80.2336600 
 		      -8.7548270  148.6569000    -1.9683360 -114.5992000   -52.7956700  -15.0337400   -75.3497900  -45.6988800
 		     -50.9078300   94.0554400   -46.2704600  -54.0928800    -2.1363570  154.0892000    -8.2595790   65.5788800
 		     -48.9946000 -148.9818000   -44.9611700   95.8667100    -8.1482560   65.3191100    -2.0665330  154.5817000
   55862020000    -1.7805840 -116.3045000    -8.5214820  148.4564000   -57.3857600 -105.1296000   -69.1237800  122.0512000 
 		      -8.4750360  148.2309000    -1.6124650 -114.8898000   -52.6429400 -118.0720000   -50.0757800   75.8541900
 		     -57.2465200  -62.2415400   -54.3191600  -37.2503600    -2.0128940  154.1381000    -8.2042510   65.4658400
 		     -47.1976100  137.6561000   -51.7692000   86.3001700    -8.0956180   64.0479300    -2.0642540  154.4696000
   55932010000    -1.6858810 -114.2792000    -8.7274890  148.7993000   -66.7224300  -21.4998300   -58.5908700  -52.4361200 
 		      -8.5037710  149.0308000    -1.8284560 -114.5242000   -51.9221600 -125.4926000   -52.6303400   59.6937700
 		     -56.3492000   31.7715500   -46.8202500  103.2469000    -2.1920730  154.0727000    -8.1555490   65.3919700
 		     -43.3117400  -79.3953800   -49.8433000  -73.5851600    -8.1172380   64.6035000    -2.0164240  153.7826000
   56002000000    -1.7686620 -117.2677000    -8.6003870  149.5807000   -60.4708300   21.9392700   -65.4432100  108.1982000 
 		      -8.3984520  149.4520000    -1.7365850 -114.6035000   -58.7913400  165.3938000   -55.2528900   55.2912800
 		     -51.4170600   75.5121000   -41.1499700  117.3096000    -2.1184360  153.9718000    -8.1780110   65.2823600
 		     -56.7741100   78.6453200   -46.9203500 -135.9519000    -8.0841290   66.3267300    -2.0797810  153.9956000
   56071990000    -1.8272220 -115.2343000    -8.5872040  147.8333000   -54.1610500   43.8247800   -54.5633200   78.0826300 
 		      -8.6348710  149.2661000    -1.7128680 -116.1491000   -56.1861000   58.2910500   -64.1583000   34.4634600
 		     -49.4940500   73.9289100   -42.1750700   73.8204000    -1.9483910  153.1218000    -8.1522970   64.9566900
 		     -50.9082000   51.5450100   -38.2353000    5.9832980    -8.2067390   65.1847800    -2.0482300  153.6930000
   56141980000    -1.5370070 -116.3038000    -8.6135610  150.7849000   -50.1717500   72.0903300   -61.0153300   46.7117400 
 		      -8.5925280  148.3765000    -1.9964660 -115.3219000   -58.5282600   68.7869900   -60.5080600  125.2018000
 		     -51.8207200 -136.6646000   -41.3808000    1.0771300    -2.1819640  153.2271000    -8.1581490   65.0175800
 		     -48.8737100 -134.4861000   -52.9626800  161.3215000    -8.0516400   65.7916900    -2.0049690  153.2864000
   56211970000    -1.6860900 -116.8574000    -8.4466720  149.2372000   -64.1846100 -132.4096000   -55.6759100   52.0987600 
 		      -8.1775840  148.3983000    -1.6792960 -115.9223000   -59.2474900   85.2624900   -56.3850200  -93.6971600
 		     -56.8032500  112.5746000   -46.3907900   17.7716400    -2.0690560  153.0439000    -8.1695110   64.7181500
 		     -51.0215200   30.3492100   -43.1190800  -23.9068800    -8.2685190   64.6517000    -2.0123700  153.3315000
   56281960000    -1.8262870 -116.0835000    -8.2831820  146.7434000   -59.5870000  131.4871000   -57.4835100   26.1627900 
 		      -8.3960950  147.8539000    -1.5413370 -116.5185000   -57.2823800  114.8558000   -51.7529700  112.3017000
 		     -51.7284200  -66.5658200   -44.6209300   77.8851800    -2.0511720  152.2467000    -8.2102220   64.2230100
 		     -48.7501200  109.2326000   -43.0287900   30.9079800    -8.3617120   65.1369600    -2.0385060  153.2189000
   56351950000    -1.6019310 -116.6927000    -8.3709200  148.4681000   -67.0321800  -12.7394200   -53.1818400   89.4082000 
 		      -8.4507360  147.9849000    -1.9431080 -116.6487000   -51.2843700   83.5889000   -53.6735300  121.8182000
 		     -58.9494300 -177.1005000   -45.9652000  -73.1012600    -2.0734030  152.2682000    -8.1844560   63.8579100
 		     -49.4304200   57.0017200   -40.7251700   48.8375700    -8.1164280   65.5022100    -1.9708350  152.7955000
   56421940000    -1.7502940 -116.4134000    -8.4063400  147.9289000   -66.7159300  144.3442000   -52.6250800   30.7578400 
 		      -8.4317980  147.5331000    -1.9500380 -115.3606000   -60.8346600   77.8102600   -59.0375700   16.3374300
 		     -53.7701800  -55.5637200   -41.8023400  151.7057000    -2.0541160  152.6810000    -8.2233380   63.9967500
 		     -42.9513700  166.3498000   -38.6474800   58.0091900    -8.2689360   63.0724300    -2.0143350  152.6122000
   56491930000    -1.8371830 -116.5280000    -8.2460130  148.1186000   -54.4970400  142.5021000   -59.7647900   77.5307500 
 		      -8.4142460  148.1480000    -1.6614490 -115.0772000   -51.0611000   21.3417900   -51.7266900   23.9125200
 		     -57.6745400 -114.5153000   -44.3930000  -52.1345700    -2.0721150  151.9220000    -8.2527460   63.6187900
 		     -54.6820300  104.9719000   -41.6737400   84.8098700    -8.1133800   65.2759400    -2.0240510  152.2000000
   56561920000    -1.8111590 -116.2844000    -8.4030070  147.1414000   -65.0080600   95.8328500   -63.8357800 -153.6844000 
 		      -8.4453760  146.3210000    -1.6155730 -118.7644000   -74.1374200   90.5752700   -53.1322800   79.6547500
 		     -59.7899400 -160.1081000   -46.7378700 -110.5522000    -2.0916510  152.0086000    -8.1087960   63.0191000
 		     -43.7615100  -59.8775900   -44.9436700   18.5938700    -8.1036800   63.5201400    -1.9680860  151.8299000
   56631910000    -1.8004380 -116.2275000    -8.3094050  149.5758000   -62.9079500  150.4383000   -62.0928500   15.0064300 
 		      -8.3112670  147.5838000    -1.6873140 -118.0353000   -58.3615500    6.9496810   -56.3393300  153.8409000
 		     -44.9005100  151.3882000   -45.0387600  119.0351000    -2.1055660  151.8572000    -8.1638040   63.4347000
 		     -51.6498300  118.4396000   -41.4077300  137.9450000    -8.0911820   63.2211700    -1.9750950  151.7448000
   56701900000    -1.8302420 -117.2561000    -8.6243780  148.5879000   -59.9402600   79.5456500   -56.0762000  113.4370000 
 		      -8.4874520  147.1928000    -2.1194290 -116.1653000   -58.0557200   32.0976100   -60.3239700  116.4415000
 		     -56.0385500  -88.5333900   -45.5298000 -174.5955000    -2.0421120  151.3442000    -8.2540430   63.4325000
 		     -44.0752700 -155.7293000   -42.5967800  -46.9852500    -8.2704770   61.9875100    -2.0660760  151.2984000
   56771890000    -1.8099650 -117.0362000    -8.1143000  148.0417000   -61.8200300   41.2301200   -58.2279600  112.4214000 
 		      -8.1160000  148.4345000    -1.6243970 -115.2241000   -53.6904600  170.7758000   -52.7743500  -14.6026800
 		     -61.8570200   24.0437900   -48.9385600 -110.9651000    -2.0311180  151.3039000    -8.1139160   62.5220900
 		     -49.1254800  136.3327000   -44.5311800   26.4365500    -8.1609430   63.0476800    -1.9252570  151.0059000
   56841880000    -1.6912580 -118.8249000    -8.0872570  145.6884000   -50.4460800   58.0113100   -70.2467300 -167.9525000 
 		      -8.3401020  146.2122000    -1.7172590 -117.8762000   -59.1157300   14.0941700   -48.6617500   25.9873300
 		     -49.8264400  108.7912000   -50.9969900  -42.9679300    -2.0419090  150.8906000    -8.2698650   63.3001700
 		     -54.0755800   62.9796600   -39.2473400  123.4519000    -8.2909520   63.2084300    -1.9509240  150.7913000
   56911870000    -1.8560670 -119.7581000    -8.4176240  148.6147000   -58.0172800  135.8940000   -59.7115300 -151.7949000 
 		      -8.3997930  147.2650000    -2.0323000 -114.9448000   -52.3783400  -94.5937100   -53.9567500  174.1562000
 		     -49.4806200  114.0810000   -58.6252800  -41.8916800    -2.0833820  150.3277000    -8.2790070   61.6201000
 		     -49.8007500   21.0763700   -42.8476100 -133.1099000    -8.1284480   63.6693700    -1.9840160  151.1476000
   56981860000    -1.8184690 -117.1260000    -8.5016770  148.1985000   -60.7572400   31.3991000   -54.3061300  118.4043000 
 		      -8.3083930  147.2493000    -1.9548270 -116.7995000   -57.9066400  122.3591000   -52.4916800   45.4569700
 		     -64.5751500  -38.9344500   -39.2769400   48.4313000    -2.0156180  150.5863000    -8.3424290   62.5728700
 		     -49.6849600  119.0973000   -54.0238200  145.0397000    -8.3033490   62.9400300    -1.9210930  150.3043000
   57051850000    -1.6332760 -116.6969000    -8.3133810  145.8605000   -63.1427300 -155.6693000   -59.3105900  -47.2354100 
 		      -8.2797490  147.4230000    -1.8853210 -117.7066000   -69.6966400  160.7391000   -47.7993600   44.0915400
 		     -52.0459400   76.6736200   -52.5385700   69.0152400    -2.0924170  150.1422000    -8.3086880   61.1622900
 		     -43.7195400 -132.5793000   -44.7208700  -61.9318700    -8.1553610   61.2248000    -1.9347900  149.8682000
   57121840000    -1.7139970 -119.4055000    -8.3002340  146.5076000   -56.4203600  -73.8770400   -61.2204100  173.5278000 
 		      -8.2963690  147.4417000    -2.0588660 -117.5022000   -52.6512500  130.0749000   -56.0993700  109.9833000
 		     -55.6240600  146.3641000   -41.8008300 -101.6551000    -2.0612990  149.9696000    -8.3001550   61.1978100
 		     -50.5261900   53.1605400   -43.7949100   74.9768100    -8.2815210   61.0647200    -1.9891910  150.0049000
   57191830000    -1.7428470 -118.8148000    -8.1005560  148.0904000   -56.0286500  -20.3278300   -64.9971900  -10.8386500 
 		      -8.1599650  147.1360000    -1.9641050 -117.2218000   -57.9711200 -170.7444000   -54.6296700   43.6396800
 		     -56.7103900  -53.0466300   -38.9738200   94.2846500    -2.0125340  149.6473000    -8.2195010   61.5835200
 		     -54.5415500  -19.2770800   -52.7923900 -166.6846000    -8.3589740   61.0738900    -1.9404880  149.5669000
   57261820000    -1.7832270 -119.0167000    -8.5892960  145.2405000   -72.5304600   90.9564000   -64.4793200   13.1301400 
 		      -8.2739990  145.1327000    -1.9155180 -118.6885000   -67.8176400 -153.5910000   -55.4446800  -88.0513700
 		     -63.7840100    1.0922020   -56.8821000  -46.1091500    -2.1050750  149.0510000    -8.2994100   60.4517000
 		     -62.1932600  -83.1039800   -45.5889900  -54.8734400    -8.2445540   61.7410500    -1.9199790  148.9412000
   57331810000    -1.8969100 -119.5466000    -8.4628630  148.9240000   -59.9133000  -75.3692900   -54.8598900  106.1337000 
 		      -8.0883180  146.2708000    -1.3580530 -121.0159000   -50.7980000   59.4315000   -51.0449400   70.3875800
 		     -47.8907700  110.8496000   -52.4963300 -142.7467000    -2.0291200  149.1602000    -8.3804760   60.9990200
 		     -49.2388700   73.7523700   -47.5509100  138.0612000    -8.3770270   60.3934000    -2.0266230  149.7075000
   57401800000    -1.6993300 -118.3947000    -7.9167230  146.5043000   -51.7327500   62.4130400   -61.9529700  106.3002000 
 		      -8.1589760  146.4065000    -1.9475140 -116.7572000   -54.9311500   81.6836000   -60.2953100   87.1934200
 		     -54.9945100 -154.0029000   -39.3390400 -173.0810000    -1.9667040  148.5290000    -8.2996800   60.4020200
 		     -54.0767700  -70.7312300   -50.0081500  152.4070000    -8.4460920   60.5659100    -1.9119750  148.8399000
   57471790000    -1.6752030 -118.9345000    -8.2014200  144.8735000   -56.3127100 -105.9330000   -52.7259300  133.2930000 
 		      -8.0163460  144.3088000    -1.4353250 -118.8259000   -72.9188400   17.9391300   -59.5090900  174.8748000
 		     -56.3412200   48.1157400   -50.9842700 -110.5209000    -2.0942840  148.0008000    -8.3613420   59.6998100
 		     -48.3181800 -124.4584000   -46.2358700 -109.3033000    -8.3120530   60.2827100    -1.9874280  148.1429000
   57541780000    -1.8292450 -119.0421000    -8.0293730  146.5679000   -63.4222200  -76.2830400   -59.1627500  -14.8117100 
 		      -8.1652270  145.6699000    -1.6540100 -118.5931000   -59.6699400  157.3159000   -52.9679200   96.3149000
 		     -53.0465300  107.6626000   -52.4422400 -172.6906000    -1.9900400  148.4604000    -8.3226400   59.8485000
 		     -49.1539700   18.5912100   -42.2814900 -152.4845000    -8.3843710   60.0154000    -1.9724140  149.0858000
   57611770000    -1.8736350 -118.5891000    -8.0330300  147.5896000   -50.6548500   87.9042100   -60.8779200  -63.6492100 
 		      -8.1714650  145.6367000    -1.8347890 -118.4249000   -65.7285800  -89.9097000   -58.6826900 -137.1983000
 		     -52.1229000   30.0314400   -45.5303200 -134.0377000    -1.9915230  147.2899000    -8.4172590   60.2364000
 		     -47.9744200  -61.1502800   -48.3434600 -101.6104000    -8.5267100   60.4731800    -1.9165550  148.0157000
   57681760000    -1.8226140 -119.1613000    -7.7750270  144.4725000   -62.0984300   -1.5448080   -57.6288800  144.3829000 
 		      -8.2650640  145.4742000    -1.8135690 -120.7637000   -53.1588100  -11.2622300   -56.2634800  -42.9722800
 		     -47.8174400 -104.2206000   -55.5303200  -88.5161900    -2.1125690  147.5514000    -8.4689690   59.0200800
 		     -43.1579600  -63.6282400   -42.2939100   94.6793100    -8.5462500   59.9710500    -2.0511630  147.8259000
   57751750000    -2.1090800 -119.1591000    -8.2357930  146.9698000   -51.7437800   95.6727400   -65.8979300  109.5836000 
 		      -8.0446460  145.3956000    -2.0464360 -117.9712000   -59.7134700  -51.4501200   -57.3089800    7.2554150
 		     -44.9098400  126.1052000   -42.3412200 -131.0947000    -2.0368930  147.9205000    -8.4877170   59.0683200
 		     -47.5983100  -68.1295500   -45.8246200 -164.4486000    -8.3424650   58.1242400    -1.9456610  148.2936000
   57821740000    -2.0910300 -119.6701000    -7.9505030  145.9531000   -56.7508200  150.4597000   -58.5526300  -86.6679200 
 		      -8.0970650  145.5853000    -1.9153600 -120.2944000   -63.4418600   32.4562500   -52.5864200  165.8993000
 		     -52.2811300  -39.3186400   -42.7475300  -85.6833000    -2.0826090  147.0235000    -8.5761380   59.3160500
 		     -49.8277700  168.3321000   -48.9284200    4.1731070    -8.4854520   58.9473600    -1.9443740  147.0378000
   57891730000    -1.6743100 -120.4269000    -8.0019480  148.0392000   -49.1799400  113.5329000   -50.6734900   93.9371700 
 		      -7.9830470  145.8670000    -2.3588930 -118.7736000   -56.8349100  -57.3149300   -55.9435300  -37.6387700
 		     -57.1125100   79.6430700   -47.3356200   20.8016100    -2.1334860  147.0670000    -8.5852830   58.7458000
 		     -48.1215400  -46.3960600   -41.9887200  -95.7555600    -8.4753520   57.7424800    -1.9908130  147.1387000
   57961720000    -2.0159810 -119.4851000    -7.9011570  146.4380000   -67.4738800   98.1198300   -56.7208500 -115.4748000 
 		      -7.7775670  144.8651000    -1.6923910 -118.6642000   -50.3834600   82.9889700   -51.9091500   80.0097400
 		     -50.8617000   78.8565800   -39.2850500   93.2865700    -2.0336740  146.7999000    -8.4719550   59.1810000
 		     -52.2428600 -175.0681000   -52.1313200   53.9521300    -8.5599480   58.4180700    -1.9309140  147.6386000
   58031710000    -1.7453590 -119.9589000    -7.8207610  146.2156000   -55.9595300   17.2817000   -54.1461800  -34.6015300 
 		      -7.9515360  145.4734000    -1.7993280 -118.5907000   -53.6696200   41.2900800   -62.7645900  -39.0380500
 		     -45.6687500  120.6139000   -52.0912200 -163.5076000    -2.1004250  146.4529000    -8.5715510   59.0618500
 		     -50.5044900    6.2324220   -49.6735700   49.8371700    -8.5687780   57.6976400    -1.9967100  146.4610000
   58101700000    -1.7746210 -120.3752000    -7.7927480  146.1006000   -56.7486200  -25.1109800   -59.1335800  148.8773000 
 		      -8.1055190  146.0652000    -2.2482450 -121.7884000   -51.3942100 -110.6236000   -53.9815900 -127.6833000
 		     -53.8070500   96.9515600   -37.8767000  101.3895000    -2.0888540  146.2795000    -8.6361240   58.4983900
 		     -45.3886800 -160.4767000   -63.5591500  -56.1547000    -8.4984630   58.5383600    -1.9888360  146.4837000
   58171690000    -1.8316420 -121.5211000    -8.0915960  147.6091000   -65.2773400 -142.6131000   -61.8990100   37.9479600 
 		      -8.3375040  146.0685000    -2.4725470 -118.9790000   -57.7135400  129.8693000   -62.3908200   73.7295100
 		     -45.6067000   66.5241900   -45.2281400 -105.2753000    -2.0498810  145.7609000    -8.5877310   58.5208200
 		     -47.1208300  -32.3519800   -42.2537300  -27.6808000    -8.6877160   59.6021300    -1.9586660  146.4848000
   58241680000    -1.9176140 -120.1032000    -7.7433380  144.2955000   -50.8177400   62.6442900   -62.7019300   61.8137800 
 		      -7.5467160  145.5978000    -1.8528780 -121.6250000   -54.1711800 -122.1872000   -51.4538900  163.6067000
 		     -46.8827500  -20.2728000   -41.6890400  176.8706000    -2.1625310  146.0110000    -8.5630450   57.7646000
 		     -42.4506100  -95.2162700   -40.4331200 -100.6187000    -8.4757370   57.5613900    -1.9673690  146.0868000
   58311670000    -2.0733700 -121.7626000    -7.5688810  142.9301000   -61.1556300   68.4384700   -53.5927500 -101.9717000 
 		      -7.7976540  144.2638000    -2.1458260 -119.4232000   -63.1291200  -63.1876500   -48.9241600   14.6017300
 		     -47.9464300 -123.5733000   -40.9609900  119.5939000    -2.0578100  145.5177000    -8.5785640   57.6689600
 		     -66.0169900  -53.7840000   -44.7714900   70.6130900    -8.7101910   58.0265500    -1.9280250  146.3458000
   58381660000    -2.0106050 -120.7865000    -7.9335680  144.8716000   -48.9532100  127.9088000   -70.6435700 -178.1145000 
 		      -7.9323990  145.6607000    -1.6843250 -119.4847000   -57.5050500  -46.8323100   -59.6783400 -142.1300000
 		     -51.2397400 -132.6080000   -40.7249400    5.1938980    -2.1289690  144.9642000    -8.6049570   58.5470300
 		     -47.2404100 -102.7923000   -40.6117800  -64.9958500    -8.5922240   58.0395900    -1.9840430  145.8415000
   58451650000    -2.0504700 -122.3710000    -7.8164570  145.7147000   -53.1219300  113.2429000   -59.6662600   46.7307600 
 		      -7.8085230  144.8640000    -1.6359540 -121.0009000   -64.7933800  -76.9178700   -61.8423600   30.4673800
 		     -50.2612700 -149.6136000   -40.0200200  145.8643000    -2.0324280  145.2996000    -8.7208610   57.8972700
 		     -47.4141700  -13.0662100   -43.5428800  -21.0478500    -8.7692160   56.8322200    -2.0143900  145.5352000
   58521640000    -2.0278230 -122.9344000    -7.7965990  144.7754000   -61.3600500  160.8854000   -46.9546300   90.4253500 
 		      -7.5189780  144.4640000    -1.8166480 -119.0466000   -50.7770100 -167.6172000   -60.5398300 -104.3858000
 		     -44.2029700   -2.3992180   -39.3829400 -106.0061000    -2.0526710  144.9178000    -8.6527250   57.2594900
 		     -44.5221600  138.8815000   -35.5995300  -85.2284200    -8.5319650   57.8093600    -1.9221420  145.3217000
   58591630000    -2.0927390 -121.9330000    -7.7305480  144.6161000   -64.7575300  156.5911000   -51.0864300   69.9460000 
 		      -7.8355510  143.8745000    -1.7224850 -122.7215000   -58.1338300 -138.0337000   -52.6871700  -10.7624300
 		     -55.7151200   54.7319600   -42.5641600  170.8603000    -2.0720790  144.7950000    -8.5752900   57.6305200
 		     -54.6620600   90.8207800   -51.3991200  116.0432000    -8.6517730   56.4055800    -1.9774650  145.2699000
   58661620000    -1.8117760 -121.1491000    -7.7701970  145.4968000   -60.3285200 -151.3196000   -53.4588600  -92.4721800 
 		      -7.8452320  145.5451000    -2.1267520 -119.7380000   -50.4703400  105.3204000   -55.9200800  152.0356000
 		     -53.9644200  -90.3228300   -52.8780800   65.2183900    -2.0743030  145.1679000    -8.6166040   57.3839100
 		     -50.2719800 -166.2294000   -59.6303400   80.4518200    -8.6749610   56.5218000    -1.9823920  145.2704000
   58731610000    -1.9375870 -123.4675000    -7.5457710  144.2879000   -58.7195400  -78.1173700   -51.3700900 -157.6894000 
 		      -7.8481760  142.4171000    -1.7596670 -123.8473000   -54.6312100 -148.2628000   -46.1771400  157.8270000
 		     -44.6750700  -59.9880800   -42.5267800   38.7288400    -2.0594310  144.4109000    -8.6519260   57.8599400
 		     -44.9326600  -33.9505700   -37.6044400  103.4862000    -8.5166900   57.3003900    -1.8504150  144.3231000
   58801600000    -2.0934120 -122.1979000    -7.6649000  146.1032000   -54.0268800  -73.1433000   -53.4334300   97.2204400 
 		      -7.7097160  143.8125000    -2.0479800 -119.9959000   -50.5920400  125.0472000   -57.3076800   49.7148300
 		     -50.9319200  162.4279000   -42.3244300 -103.3724000    -2.0266180  143.8765000    -8.6801850   57.0292100
 		     -46.5623900   25.8872400   -45.9070200 -145.1196000    -8.6505070   56.2993800    -1.9355430  144.3368000
   58871590000    -1.8866790 -123.1108000    -8.0465840  142.8193000   -49.3413500   90.9512600   -70.1190500  172.2328000 
 		      -8.0861360  145.5338000    -2.1076480 -123.2132000   -62.4077200  158.2039000   -52.3394200   44.3867500
 		     -47.9677600  165.3493000   -43.0498700  143.8976000    -2.1037600  144.3801000    -8.5502840   57.1406400
 		     -43.2523900   76.4478300   -40.5598900  -93.3716900    -8.4004510   57.3351100    -1.9629840  144.1780000
   58941580000    -1.7223010 -123.2834000    -7.3423660  145.4638000   -59.3692800  158.8111000   -52.8691700   23.2283400 
 		      -7.6024110  143.4933000    -1.5587010 -119.2874000   -56.1451000  -95.4035200   -64.4271200  141.4689000
 		     -44.1372700  154.1473000   -42.4544400    8.5348970    -1.9532110  143.9833000    -8.6597420   57.1940500
 		     -45.4490300   66.3189000   -30.5387600  174.0532000    -9.0588340   55.7575100    -1.9151000  143.6715000
   59011570000    -2.1542810 -123.4049000    -7.6024260  143.8671000   -54.6416200  -93.8045000   -56.3775000   76.1691700 
 		      -7.7038880  145.4732000    -1.7197080 -118.5410000   -56.0995500   40.0431700   -79.0256400  136.4758000
 		     -46.2992900  101.2056000   -39.1356300  -85.8765700    -2.0768780  143.6129000    -8.8250740   56.4769500
 		     -42.8942400  -21.9186100   -36.0623500  147.8026000    -8.6014800   55.4244500    -1.8970530  143.7059000
   59081560000    -1.8917670 -122.8787000    -7.8708240  142.8405000   -61.1998900  114.4850000   -58.6394100  -15.7845100 
 		      -7.6229710  143.6175000    -1.8844250 -121.6015000   -54.4900000  169.4341000   -55.8912000   -7.1397910
 		     -45.6853700  -35.9514300   -53.8926000 -108.3620000    -2.0830470  143.8069000    -8.5888270   56.5404700
 		     -53.4280200  112.4128000   -48.1778800 -147.5654000    -8.5276970   56.1685600    -1.9476380  143.8517000
   59151550000    -2.1032430 -124.0648000    -7.8982740  145.8324000   -53.3657600  124.2384000   -63.7158200  -75.5937300 
 		      -7.5096440  143.3908000    -2.1898270 -121.1276000   -52.5461000  -45.7685400   -49.0159300  -40.9820900
 		     -59.0757200  107.7207000   -40.0979400   18.7109500    -1.9970330  143.1324000    -8.7513460   55.0284400
 		     -41.6525600 -108.1330000   -40.5869400  160.2737000    -8.7314520   54.5719300    -1.9072170  143.2399000
   59221540000    -2.0875990 -122.9601000    -7.4367870  144.9922000   -52.8651700  -76.0678900   -80.0178700  -10.1166800 
 		      -7.6377050  142.6223000    -2.0160700 -122.6770000   -56.3617700  170.5620000   -54.4801900 -169.4884000
 		     -49.5492500   -0.8010871   -44.5877200  -32.4327900    -2.0466570  142.3131000    -8.7783000   55.5984100
 		     -41.2244600   48.6656600   -35.5716000   34.0408400    -8.6813540   55.9717100    -1.9030850  143.2567000
   59291530000    -1.6870860 -124.4367000    -7.7169220  143.6032000   -61.2085400   83.7435200   -64.9208900  160.2443000 
 		      -7.4088900  142.7042000    -2.2914690 -121.7921000   -51.8248200  128.7500000   -55.8903100  153.0912000
 		     -47.8126100   21.8428800   -41.1463200  -20.8300500    -1.9811000  143.3086000    -8.7808240   55.6409600
 		     -47.3921700  152.7072000   -42.2159500  -67.9520600    -9.0015970   54.3903300    -1.9027500  142.7051000
   59361520000    -1.9322420 -123.9440000    -7.6093130  143.2457000   -48.6936800  -52.3173400   -54.2148800  124.2238000 
 		      -7.4359180  142.3512000    -2.0836370 -120.8285000   -52.3813200 -150.5010000   -52.7239800 -131.6065000
 		     -42.7623300  174.0248000   -44.5962800 -158.5819000    -1.9070070  142.7946000    -8.6403710   54.5489300
 		     -50.8000600  -33.9742400   -43.3286900  142.0796000    -8.9291370   54.4470600    -1.8976350  143.0636000
   59431510000    -1.7036680 -122.4049000    -7.4671060  142.9688000   -59.8512700  -86.4049000   -59.0783100  143.8527000 
 		      -7.1904490  143.4903000    -1.8432500 -119.0327000   -56.2025100  -23.6724900   -49.7065400   40.4339000
 		     -48.3284800  104.2564000   -43.6903600  144.1926000    -2.0766560  141.5992000    -8.8466590   54.0951700
 		     -47.3358800   47.9748000   -42.1507300   -2.9229390    -8.7788980   55.2588200    -1.9120650  142.1842000
   59501500000    -2.1428270 -123.7838000    -7.7756500  144.0135000   -60.9913900   -2.4587830   -65.5381200 -122.4618000 
 		      -7.5823240  143.8515000    -2.4823220 -123.6284000   -51.2394300   29.6175100   -56.3367100    3.3704440
 		     -50.6193600  -25.2163700   -36.5495100  132.2243000    -2.0634690  142.2807000    -8.7369750   54.8730200
 		     -44.8638000 -161.2395000   -50.2465000  -84.9831300    -8.7842060   54.0200800    -1.9554010  142.2967000
   59571490000    -2.1241410 -123.3918000    -7.3328690  142.5573000   -57.2606600   -6.5985760   -55.2926600  -37.9544400 
 		      -7.5685750  143.3990000    -2.1564650 -122.1575000   -59.2366300  122.1718000   -52.7420300   49.8948000
 		     -48.7799300  -73.5168200   -54.5628100 -119.2349000    -1.8995450  141.9837000    -8.8716620   54.3230600
 		     -46.1323200  -51.2193000   -39.3596900 -166.2559000    -8.9621650   53.1030600    -1.8815340  141.9306000
   59641480000    -1.9092570 -124.1461000    -7.6359410  141.5769000   -50.9908500   60.1735300   -55.7987300  -74.3775100 
 		      -7.3499690  141.4090000    -2.2008180 -124.4281000   -52.4108800  -97.9381900   -49.5302800   51.2700700
 		     -64.3960800  -95.9387800   -41.0200800   23.3134500    -2.0606690  140.6486000    -8.8954630   53.9231000
 		     -46.4382600  112.9289000   -50.0217500  -76.6138200    -8.6982120   53.5295000    -1.8678120  140.7840000
   59711470000    -2.1219980 -123.7510000    -7.6600440  141.5048000   -51.1447100  119.3816000   -51.8118400  120.2935000 
 		      -7.4590790  142.5547000    -1.7663480 -122.9976000   -62.8229400  -91.8044700   -53.0358400  -42.2038000
 		     -51.0485500  -53.9691200   -48.6056500   93.9566400    -2.0416320  141.6746000    -8.7763810   54.1127900
 		     -50.3662300  151.0085000   -46.3977600   71.9300500    -8.8094320   53.6634500    -1.9467540  141.4183000
   59781460000    -2.3336210 -124.4807000    -7.2944970  142.4757000   -59.4361600 -160.8844000   -55.4906100  142.1994000 
 		      -7.4313860  142.1343000    -1.9760740 -123.4890000   -54.8148300  176.6297000   -53.3640100   -3.5871770
 		     -53.9361600  135.9624000   -42.7121500   14.8552000    -1.9149170  141.4170000    -8.9050140   54.2109900
 		     -45.9767900 -120.4522000   -36.1099900   -0.2542143    -8.8152210   52.6914000    -1.8814980  141.1693000
   59851450000    -1.8296390 -124.1425000    -7.6116900  141.8407000   -55.2329900 -112.9824000   -49.2444200 -138.2686000 
 		      -7.2843270  141.6863000    -2.0209830 -125.8130000   -49.2177000  -41.6282300   -43.9675900   -8.4616510
 		     -50.5729300 -124.2397000   -42.0831700 -137.4519000    -2.0982620  139.9684000    -8.9632560   52.8535800
 		     -53.5790900 -153.1635000   -49.0193300   37.2942600    -8.8155680   53.0630400    -1.9223190  140.2230000
   59921440000    -1.9190150 -125.7249000    -7.1999690  142.2979000   -55.9567800  105.6265000   -51.4454300   12.7595300 
 		      -7.5209160  142.9906000    -1.8317610 -120.6405000   -47.5978400 -132.1820000   -47.4909600  153.9780000
 		     -49.2475500  105.6301000   -37.0220500 -126.5282000    -2.0769980  140.9651000    -8.9858930   52.0611900
 		     -43.9765900  -79.3410900   -58.9285000 -101.1682000    -8.9032250   53.0637200    -1.9466580  140.9040000
   59991430000    -2.0176690 -123.1770000    -7.1945920  142.3035000   -62.4033100  127.1543000   -52.6894500   11.7645800 
 		      -7.6157400  142.1101000    -2.1594100 -124.3767000   -65.2993600  175.9588000   -56.1539300    5.6694310
 		     -40.8730500  -65.3359000   -42.8078800  128.9517000    -1.9039430  140.2588000    -9.0128580   53.5074200
 		     -51.6886100  -26.3532800   -40.9025000  -58.5724000    -8.9628870   54.0376900    -1.8080950  140.6038000
   60061420000    -1.8097540 -124.7372000    -7.2263270  141.5448000   -55.9542300   29.2458400   -61.0053700  -80.5826800 
 		      -7.1477910  143.3681000    -1.6214890 -120.8981000   -61.2649300 -100.6206000   -62.4815900  162.2719000
 		     -64.2260300 -156.5005000   -42.3598600  141.7064000    -2.0713320  139.4055000    -8.9867010   53.0199300
 		     -45.1588600  -39.3777500   -42.1103700 -172.3010000    -9.0618550   53.6153500    -1.9347420  139.5554000
   60131410000    -2.0498980 -125.8079000    -7.2556540  140.4276000   -61.1376000  100.1482000   -71.7926400  -33.7775300 
 		      -7.3215500  142.1989000    -1.8624040 -125.9334000   -47.6694900  -65.7539900   -59.0274400  -80.6744100
 		     -47.0394400 -119.6020000   -39.2996700  103.8304000    -1.9867930  140.0912000    -8.9109140   51.6602600
 		     -48.7681200 -126.8976000   -42.5236700   14.4913000    -9.1593850   53.2669000    -1.9678660  140.4484000
   60201400000    -1.8970780 -123.8758000    -7.1229260  142.5258000   -53.1952300 -145.7447000   -49.8695900  -21.8752500 
 		      -7.2372110  142.4382000    -2.1949580 -127.4968000   -52.5908700  101.1842000   -68.4849100   56.5365000
 		     -49.9395000 -168.9152000   -38.7945800   31.4286900    -1.8871510  139.6528000    -8.9409870   53.0379300
 		     -46.1329900 -145.9509000   -39.8272200   59.3233600    -9.1195600   52.1906000    -1.8434730  139.8541000
   60271390000    -1.7796740 -125.5421000    -6.8406580  140.8840000   -59.0807000  -40.9777100   -54.3277300 -109.9439000 
 		      -7.0839560  141.7501000    -1.4463520 -120.2215000   -52.1288600  163.4058000   -60.8279200  165.6523000
 		     -47.0886500  -68.3925600   -46.0420400   13.1548300    -2.0925100  138.6473000    -9.2257430   52.0323100
 		     -50.9949200   44.7429500   -42.2224800  129.2366000    -9.1366520   51.2551300    -1.9225750  138.6832000
   60341380000    -2.4383250 -125.8447000    -7.2519170  142.5984000   -67.8828600  -33.8625400   -51.2514300  123.6354000 
 		      -7.2517290  142.8408000    -1.6026470 -125.2407000   -59.7375000 -135.4304000   -52.2746500 -116.4316000
 		     -46.7108000  148.3398000   -42.4809700  -35.0908400    -2.0484200  139.4643000    -9.1371660   52.7466100
 		     -54.0964100  101.8980000   -41.8852600  -78.6124000    -9.1373410   53.0706800    -1.9211230  139.6894000
   60411370000    -2.0851220 -124.4562000    -7.4262520  140.6425000   -53.7825000   49.2316600   -55.1426700  -65.3912400 
 		      -7.2920530  140.9539000    -1.7007100 -125.7227000   -59.0980600   93.9282700   -52.8891000  140.8618000
 		     -48.6906500   66.7072000   -38.6006300  107.0672000    -1.9124640  138.1422000    -9.1911050   52.3558300
 		     -41.5753700  -35.5376500   -40.2608700   49.6372100    -9.0187200   53.1510700    -1.7816430  138.9683000
   60481360000    -1.8051320 -124.7185000    -7.1249340  140.5175000   -55.2256300  154.3573000   -54.1946700  -49.6256600 
 		      -7.3396580  141.7612000    -2.1578650 -125.6767000   -47.2924800  -22.7061900   -56.4083800 -107.3470000
 		     -47.1088400 -162.0504000   -40.1108000   32.6446500    -2.0470690  137.8798000    -9.2396340   51.3627100
 		     -56.1911000   36.2187600   -43.9015200   11.0840900    -9.3039530   52.0589000    -1.9216440  138.0841000
   60551350000    -2.0172080 -125.9493000    -7.3977880  140.5419000   -57.6396900 -129.6767000   -62.5730300  -77.9856000 
 		      -7.2273870  143.0555000    -2.1354620 -125.2698000   -66.8814400  -59.4003100   -64.7939500  110.9999000
 		     -45.4498300 -145.5581000   -52.5772200  -82.7993500    -2.0456800  138.9724000    -9.1940900   51.7998200
 		     -54.4346200  176.6066000   -45.6777000 -129.2786000    -9.0787950   51.1156700    -1.9007460  139.0288000
   60621340000    -2.0651310 -126.0758000    -7.2290730  140.1190000   -53.0200200 -103.2591000   -66.2737400  158.7518000 
 		      -7.4307920  141.5504000    -2.2447260 -125.3823000   -51.5172200  -96.4984100   -67.1308900   37.5840600
 		     -44.3979900   72.6225400   -42.2590300   -0.5364214    -1.9548140  137.5172000    -9.2575610   51.3479500
 		     -56.8415100 -128.2673000   -41.9770100  -66.3779900    -9.2000750   52.6657600    -1.8057730  138.0839000
   60691330000    -1.6593310 -125.9584000    -7.1551730  141.0851000   -51.6884600 -115.6670000   -51.2507400  -98.5207200 
 		      -7.0493190  141.2704000    -2.3774120 -126.0916000   -56.3443700   -2.5007730   -53.8201200  -45.7718500
 		     -45.0655100  106.7665000   -37.2906800  -86.7962800    -2.0948980  137.3787000    -9.2163520   50.5976700
 		     -49.9020700  -59.0262300   -34.8532600 -148.5101000    -9.4709230   51.2758800    -1.9365390  137.7587000
   60761320000    -2.1251430 -125.4235000    -6.7744300  144.2197000   -53.1256400  -12.3440300   -54.0032400 -134.7401000 
 		      -6.9682630  142.0855000    -1.9157300 -123.7969000   -50.2895300 -105.0333000   -52.4406500  -25.2111900
 		     -53.4437300 -145.6690000   -43.6259900  113.0549000    -2.0252680  137.8057000    -9.1492070   50.9004600
 		     -51.7666500 -165.0893000   -47.7142700 -117.2065000    -9.3617440   50.5531500    -1.9039240  138.5477000
   60831310000    -1.9164030 -125.8256000    -6.8764640  138.4921000   -57.6354400  156.0578000   -59.5156100   16.0138000 
 		      -7.0513370  139.4158000    -1.8047570 -127.2444000   -52.1236700  -53.5957000   -51.8939900 -178.9527000
 		     -48.0815700 -168.2375000   -41.1502300   63.5531400    -2.0207600  136.9306000    -9.3271960   50.3430600
 		     -44.9104800 -139.4543000   -41.1028200 -163.3284000    -9.0734410   51.1704500    -1.8567090  137.4523000
   60901300000    -2.0399220 -126.5240000    -7.0430810  141.9259000   -57.0694300  178.5040000   -53.0739600  -95.0657400 
 		      -7.1338280  140.2846000    -2.0568920 -127.1868000   -51.4894100  -76.4389400   -71.4758500  147.9323000
 		     -48.5041800  167.5163000   -51.4088800  -49.5515500    -2.0730450  136.5533000    -9.3284400   50.5011300
 		     -51.8791700  -51.1063300   -44.5258700  -85.3420300    -9.2747030   51.0457400    -1.9436390  137.1816000
   60971290000    -1.8646110 -126.9334000    -7.1082400  141.4498000   -53.6791600 -136.8285000   -59.6820500  101.3439000 
 		      -6.9345710  140.0151000    -2.1360090 -123.9357000   -54.4111200   40.5161800   -55.7387500 -116.9953000
 		     -50.9592800  -78.6522400   -38.9175000  -89.5795200    -1.9929050  137.0830000    -9.3340330   49.8225200
 		     -64.7358700 -145.3174000   -45.6097600   93.0675600    -9.4366190   50.3600400    -1.8295060  137.4982000
   61041280000    -1.9997320 -126.4159000    -7.2356350  142.6684000   -50.3356400  -80.2042400   -58.5617100 -109.0386000 
 		      -6.9190070  141.8492000    -2.3280970 -122.4307000   -51.7666000 -159.1916000   -53.5438200  178.7194000
 		     -45.9219700  162.9355000   -45.4950400 -166.7029000    -2.0177540  136.4455000    -9.2941200   49.2549200
 		     -47.3785200  153.4202000   -43.8057300   -0.6904174    -9.3491350   49.7067200    -1.9232970  136.6568000
   61111270000    -2.1869980 -127.3326000    -7.0920240  139.1126000   -67.3848300 -173.3130000   -52.6681900  -21.8311100 
 		      -7.1819280  140.5448000    -2.1378880 -127.5912000   -53.2904600  -59.9102400   -65.0390500   36.3438500
 		     -45.3665500   46.3258600   -36.1065000 -115.1364000    -2.1048120  136.5039000    -9.3291580   49.5675800
 		     -54.4610200  159.2219000   -45.5069400 -148.1743000    -9.0851730   49.3479900    -1.9049280  137.0191000
   61181260000    -2.0065210 -129.2263000    -6.7097710  139.2920000   -68.2743300  -54.4389500   -49.9855100 -130.6851000 
 		      -7.1246250  140.0854000    -2.4127080 -124.9714000   -48.4718500 -107.3249000   -57.1034600 -100.2217000
 		     -41.6410100  175.6893000   -35.8683500   77.3665000    -1.9969990  136.2142000    -9.3229120   49.8682700
 		     -51.6878900    6.0924960   -52.3346700   33.2472900    -9.4493430   49.4395100    -1.8959390  136.5626000
   61251250000    -2.0404380 -126.9046000    -7.0509380  141.1175000   -54.8395900  -38.3241400   -47.2439300  -51.0752400 
 		      -7.0435740  141.6098000    -1.7792050 -127.7028000   -53.1209800  -87.8786300   -53.3200000 -111.0862000
 		     -53.1170700   98.1512000   -40.7513700   73.3504900    -2.0249510  135.7388000    -9.4136390   49.1379800
 		     -65.1410500  -70.7494700   -52.5104100 -147.4844000    -9.3753460   49.4625100    -1.9285610  136.2652000
   61321240000    -2.0336700 -128.1380000    -7.1393150  142.6956000   -58.3015000 -142.5465000   -49.5043400 -115.5040000 
 		      -7.2171280  141.4653000    -2.6962330 -126.5445000   -58.5637700  119.1309000   -55.2880600 -159.4779000
 		     -54.0897900  -68.7121000   -40.1190600  -64.6133200    -1.9834730  135.7706000    -9.3780440   49.5419800
 		     -58.5763900   -1.5266460   -37.6580000  -90.3561900    -9.5110280   50.0344200    -1.8766730  136.2879000
   61391230000    -1.9062080 -128.5066000    -6.9100240  136.9066000   -52.7498100 -147.9355000   -63.2983000  -93.2035500 
 		      -6.7381210  139.6835000    -1.9383040 -127.5913000   -56.0724100  109.3210000   -53.8842800  -29.5405200
 		     -43.5395100   10.0432400   -39.0490600  164.3355000    -2.0372400  135.6557000    -9.4368730   49.4286200
 		     -48.8936000  -35.9076200   -43.9390200 -135.5695000    -9.1816230   48.9698400    -1.8685770  135.7070000
   61461220000    -2.1085000 -128.4322000    -6.9723870  142.3455000   -63.7483200   41.4352800   -53.3355900  121.3329000 
 		      -7.1649380  141.7173000    -2.3875730 -125.6634000   -63.8766200  105.7013000   -52.6524700 -119.3300000
 		     -41.9439900 -123.1220000   -42.8245500 -126.0007000    -1.9836030  135.1002000    -9.4483950   48.3994800
 		     -57.8744300 -146.0776000   -43.3704800  122.2660000    -9.7368060   49.6548900    -1.9550180  135.9359000
   61531210000    -2.0352400 -128.2499000    -6.9821070  140.5979000   -60.0407600  165.8187000   -46.6275000  -71.4963900 
 		      -6.8132660  139.2683000    -1.8875890 -129.2343000   -55.2634100  159.1742000   -50.1125300  174.3141000
 		     -45.6208700  -88.8908800   -37.8936000  167.7784000    -1.9714630  135.1318000    -9.4743330   49.2883500
 		     -50.1498000   63.5675200   -45.7919700   10.1363200    -9.7467860   48.8343300    -1.8729650  135.4961000
   61601200000    -2.2042630 -129.4219000    -7.0183190  141.9025000   -54.0392600 -169.5751000   -55.8422700 -158.5386000 
 		      -6.9523720  139.0675000    -2.0386360 -128.4688000   -61.4782900  -32.2360600   -51.5566500   11.5781600
 		     -52.0159800  179.2100000   -38.9300600 -171.3701000    -2.0262410  134.6088000    -9.4471960   49.1885500
 		     -53.5713700  -53.2061000   -44.3853300  147.2858000    -9.3943170   47.8349200    -1.8755860  134.9108000
   61671190000    -2.1907030 -127.8822000    -7.0746820  140.7872000   -55.0550500   92.8324700   -57.7650300 -142.6471000 
 		      -6.7211280  141.1496000    -2.0988540 -127.5895000   -55.7045700 -127.8328000   -61.3424800   65.1337700
 		     -66.0250600  103.0400000   -34.2202300  -26.8459800    -1.9729690  134.5493000    -9.4458590   47.3536600
 		     -43.2251500  -77.0628300   -35.7834900 -167.3191000    -9.6542600   48.6598800    -1.8416600  135.5646000
   61741180000    -2.2666430 -128.4262000    -7.1541670  138.8051000   -60.1633700  -58.4664300   -52.0584900  -32.2783400 
 		      -6.9428340  140.6113000    -2.0645240 -129.9659000   -70.6725500 -115.7271000   -56.1848500 -139.0833000
 		     -46.6402900   93.1825800   -36.1972500  -72.2889600    -1.9647780  134.0994000    -9.6482760   48.4011100
 		     -52.1648400   78.8913000   -40.1804200  145.6142000    -9.5694240   49.5980300    -1.8037510  134.3665000
   61811170000    -2.2360900 -129.5329000    -7.0677940  138.0305000   -63.8096500  135.2157000   -61.6015700 -176.2102000 
 		      -7.0853110  137.8363000    -2.0460390 -133.2709000   -54.0150800 -112.5538000   -57.5759300 -101.7635000
 		     -45.3500700  -84.1547900   -52.0313600 -111.9321000    -2.0353120  133.5163000    -9.5456300   48.8886100
 		     -56.2068200   58.9295200   -38.3698300 -134.4699000    -9.5725460   48.1700600    -1.9229120  134.5469000
   61881160000    -2.1494720 -128.2143000    -7.0953660  141.3224000   -51.4742600  176.0533000   -55.1448500  -91.1288500 
 		      -6.7245790  141.5591000    -2.1089260 -127.7576000   -46.6534300 -133.0515000   -48.6857800 -125.9506000
 		     -39.9877900  128.0732000   -57.1049400   62.4775100    -1.9543360  133.9807000    -9.4796280   47.9055000
 		     -42.1826600  157.9403000   -40.5608600 -168.4526000    -9.6643300   47.3557800    -1.8384930  134.7496000
   61951150000    -1.9712590 -130.3992000    -7.0668310  138.6504000   -52.0398000 -102.1700000   -50.3117200   98.5228400 
 		      -6.7546900  137.4429000    -2.2374200 -130.4379000   -49.7638400 -120.7177000   -46.1986700  -94.6891300
 		     -50.6083900   98.1597600   -47.7767400   93.6346500    -1.9446180  133.3607000    -9.6066290   48.4642600
 		     -59.6282800 -124.1238000   -41.7439000 -153.1681000    -9.5393380   49.6188900    -1.8052690  134.0621000
   62021140000    -1.7874800 -129.9601000    -6.5039610  138.2852000   -67.2576100 -132.7805000   -62.0864700  116.1643000 
 		      -6.9097670  139.1873000    -2.9855590 -130.1971000   -52.4189000  -84.1368000   -54.6833100 -110.6418000
 		     -45.4098900    5.2813440   -42.1500500 -125.3154000    -2.0103240  132.9828000    -9.6613530   46.6547800
 		     -41.6674200 -102.3792000   -38.1314900 -150.7506000    -9.6078300   46.1584800    -1.8711110  134.0747000
   62091130000    -2.1984160 -127.7094000    -6.4386650  139.4432000   -59.8493200 -165.9895000   -49.6525700 -119.6128000 
 		      -6.6769790  140.7936000    -1.0433150 -128.5487000   -49.3481400  169.3964000   -48.9407600  103.8234000
 		     -51.2952000  -59.6239300   -49.0034800  -70.8445400    -2.0280940  133.5403000    -9.6105380   47.3004300
 		     -39.4510500  126.6805000   -35.1740500   34.8040000    -9.3443300   46.9697900    -1.7917940  133.9990000
   62161120000    -1.8185700 -129.0570000    -7.0125380  135.9674000   -49.3863000 -152.5496000   -52.9679200 -156.7530000 
 		      -6.6963690  137.3940000    -1.7815700 -127.9550000   -56.3747700  106.0049000   -55.1120500 -175.4619000
 		     -58.7389000  -42.7728600   -43.4672000  -82.9019900    -2.0321030  132.2206000    -9.5630190   47.0922200
 		     -49.3660400  159.9403000   -36.1057400 -146.9978000    -9.6613800   49.4011700    -1.8897060  133.2642000
   62231110000    -2.1828440 -128.8844000    -6.5684000  136.7863000   -56.4874500  164.4306000   -54.7188900 -155.2977000 
 		      -7.0814180  139.8130000    -2.3774610 -127.2203000   -55.6756200  -87.5656100   -54.4342400  -13.3268700
 		     -56.2793000 -137.2149000   -36.0284800   84.7281700    -2.0378590  132.7994000    -9.6015260   46.6723500
 		     -46.1464900  -33.6241800   -36.3708600 -153.5403000    -9.6298580   45.9758600    -1.8580380  133.5998000
   62301100000    -2.1250600 -128.8186000    -6.7464120  138.4336000   -52.1784200 -134.3927000   -53.2517700  178.7377000 
 		      -6.6949990  138.3684000    -2.4999900 -128.8267000   -49.4751500  -57.7627100   -50.9773600 -137.6951000
 		     -51.9094900   19.0304100   -59.2213400  -32.1230900    -2.0250660  132.6945000    -9.6608420   47.0916500
 		     -45.9474500 -118.1180000   -35.6091500  -24.1563900    -9.5778070   44.8164700    -1.7837710  133.0783000
   62371090000    -2.2807200 -129.9068000    -7.0798030  139.7422000   -55.3757300 -127.6470000   -53.5268200  -70.2272100 
 		      -6.8372990  138.2578000    -2.0317150 -125.0178000   -66.3763300   19.2209200   -50.4571100  -57.4491400
 		     -42.5224200  -42.3088000   -55.3990100 -105.8131000    -1.9630960  132.3154000    -9.7834930   47.1541100
 		     -44.4215000 -148.6073000   -48.4491200  -25.3189900    -9.8697760   46.7769200    -1.8768900  132.7172000
   62441080000    -1.9868120 -130.4613000    -6.8874860  139.6944000   -65.3940800  -96.5159800   -53.4772700  -87.2682300 
 		      -6.5557870  137.2151000    -1.9426780 -127.4140000   -49.2333600 -116.4926000   -50.2195800  -61.8447600
 		     -49.5505000   96.7167700   -37.9748600   17.7235400    -1.9829630  132.1333000    -9.4800940   45.5958600
 		     -41.2121400  -77.5071900   -39.3893900  148.8428000    -9.7280970   44.4214400    -1.8500020  132.7838000
   62511070000    -2.3630980 -130.9724000    -6.7238780  138.2415000   -56.4432600  -82.7751200   -63.1708400  -77.3221300 
 		      -6.5642890  138.8164000    -1.8836980 -127.4920000   -60.0697300  167.9775000   -53.6042600  -42.6523500
 		     -57.0932100  -32.0260200   -60.9323300   16.1402000    -2.0322300  131.8450000    -9.8277740   45.8287900
 		     -48.0898700  -64.7328700   -32.1215100  -75.7811900    -9.7159880   44.7036300    -1.8608300  132.1054000
   62581060000    -2.4410810 -130.9072000    -7.0166920  139.3871000   -60.0430500  -97.6499600   -58.4200400  -68.5014300 
 		      -6.8501420  139.3531000    -2.1933280 -125.4822000   -68.0311800  -79.9288400   -59.1772000  171.9872000
 		     -48.0854400 -133.4297000   -30.8907800  138.0152000    -2.0142810  132.0309000    -9.8121440   46.2614900
 		     -50.0493900 -118.2001000   -37.1509200  160.7325000    -9.8113690   45.6716900    -1.8541090  132.3648000
   62651050000    -2.2914730 -129.4427000    -6.3913340  138.9138000   -55.6660800 -121.4173000   -53.0756000  -33.1931600 
 		      -6.5031100  138.1319000    -2.0197710 -129.2363000   -53.2157100 -132.3363000   -46.1455100  -98.6941500
 		     -52.4451400   48.9054100   -57.5047700  -88.7116300    -1.8839560  131.0724000    -9.8634740   45.7378300
 		     -55.0328100  -76.0690400   -41.8337400  -82.9134100    -9.9477470   45.9529100    -1.8371470  131.5741000
   62721040000    -2.0133500 -130.2533000    -6.5846700  139.0269000   -51.2778900  171.6998000   -56.3159700 -128.5182000 
 		      -6.5632720  138.0615000    -2.4327240 -132.0771000   -49.2692000 -179.6619000   -49.3932100 -127.0833000
 		     -45.9853700 -103.6795000   -39.0773600  106.2399000    -2.0901660  130.8326000    -9.8219810   45.3631800
 		     -39.4191000  -15.3485300   -34.0192800  132.6371000    -9.6763310   44.7064300    -1.8603960  131.4272000
   62791030000    -2.0697260 -131.0336000    -6.5122390  139.0003000   -54.8502800 -100.8328000   -52.8215000  -71.7461000 
 		      -6.5580150  138.8794000    -2.0460950 -128.8258000   -49.7259300  -91.7035400   -50.1980400 -122.4307000
 		     -41.0715100 -132.0807000   -38.4817000   41.7653100    -2.0075540  131.5030000    -9.8435470   44.8320300
 		     -44.1282400 -140.6933000   -36.9192000  113.4761000    -9.7561060   45.1212900    -1.7969820  131.8752000
   62861020000    -2.0004930 -129.6342000    -6.6389760  139.6696000   -53.4177200 -121.1580000   -65.4722900  -38.6741700 
 		      -6.7503500  138.3655000    -2.5897670 -126.4895000   -49.0719000  -75.8862500   -51.5925100 -112.0812000
 		     -49.6636000  -57.2292400   -39.6224300  -29.9465600    -1.8848760  130.5150000    -9.6919960   45.8097300
 		     -55.2395100   13.2037200   -41.9509200 -173.2801000    -9.9332890   45.2588700    -1.7994840  130.6294000
   62931010000    -2.2334340 -130.9722000    -6.3630320  137.8732000   -53.0100400 -170.7810000   -55.9988300 -175.9361000 
 		      -6.5301740  139.3396000    -2.3573250 -131.6736000   -51.6560100 -102.9541000   -60.6637600    0.9778629
 		     -64.2576300 -122.8817000   -49.2015100   32.1315800    -2.0378140  130.0010000    -9.9337970   46.1658500
 		     -65.4521300    9.9174610   -37.1146700 -102.6889000    -9.9671250   45.1655700    -1.8914250  131.0601000
   63001000000    -2.2789350 -131.2008000    -6.2503820  139.3232000   -52.9108600  166.4143000   -75.9208600   42.6849500 
 		      -6.5173810  138.6892000    -1.6758140 -131.1783000   -62.1568100  165.5328000   -57.6537700 -137.3817000
 		     -50.5816300  -48.6673300   -43.4175400    6.1895970    -2.0059540  131.1087000    -9.9637310   44.4801500
 		     -41.0950200  -19.7627200   -39.6911600 -134.4585000   -10.2532900   45.1748800    -1.7103290  131.2467000
   63070990000    -2.2769960 -132.3997000    -6.4755780  138.5636000   -50.7130700   27.2496000   -53.2013900  164.2522000 
 		      -6.3492390  137.1384000    -2.5149360 -130.7828000   -54.2485800  172.9127000   -59.7946500 -128.3444000
 		     -55.8868300  103.1267000   -37.9228000 -106.8824000    -1.8803890  129.4217000    -9.8479350   43.4598300
 		     -53.5450000 -130.5277000   -40.8475500 -142.8602000    -9.9912030   45.1508000    -1.8339570  130.1125000
   63140980000    -2.6010810 -130.7419000    -6.5243480  139.4121000   -59.4548600   20.2990200   -49.5829600 -146.7913000 
 		      -6.5156560  137.9037000    -2.1853100 -131.6827000   -55.0176000 -144.1373000   -51.2841200 -179.6465000
 		     -38.6322700 -104.7529000   -34.9896700  117.1502000    -2.0796310  129.2406000   -10.0579600   44.6929900
 		     -43.3294500 -100.9888000   -32.7907600  -43.6961600   -10.0129100   44.4044700    -1.9062600  130.9248000
   63210970000    -2.3354330 -130.3719000    -6.1530720  135.8651000   -50.9993400   70.4187300   -64.6591900 -174.6992000 
 		      -6.3074590  136.6042000    -1.9496690 -134.3062000   -47.6605000  -50.7658200   -60.9601400   96.1372600
 		     -39.6947500 -118.5866000   -39.2610800  167.7216000    -1.9996860  130.1637000    -9.7436700   44.5091000
 		     -49.1860100 -114.3325000   -57.0976000  -27.9502400    -9.8127440   45.5799400    -1.6820120  130.4817000
   63280960000    -2.0362860 -133.7662000    -6.4961090  140.1516000   -59.4989200  133.3963000   -53.4658800  123.2740000 
 		      -6.6342410  138.3085000    -2.8888130 -127.5062000   -49.1222000 -110.4681000   -50.2059000  163.6602000
 		     -47.5845000 -145.9961000   -52.2688400   33.2067000    -1.8210550  128.7207000    -9.9133280   44.5712800
 		     -46.3120200  -23.4429900   -34.2173000  138.7944000   -10.0569100   45.2873100    -1.8413460  129.0098000
   63350950000    -2.4360280 -131.7273000    -6.1636100  136.5021000   -58.1443600 -111.9732000   -49.0328800 -113.7051000 
 		      -6.5255170  135.2152000    -2.0244110 -134.3743000   -59.1636000   13.9345500   -52.2388900  136.8907000
 		     -56.7667700  -63.0156800   -31.8296900  -90.1483000    -2.1003410  128.4638000   -10.1138000   42.9963500
 		     -58.9386000  -76.8192900   -57.2991300   21.0386200    -9.9238090   45.2475900    -1.8289850  130.4656000
   63420940000    -2.3600440 -131.0574000    -6.4624900  135.8143000   -53.0065200 -117.5461000   -55.6121000 -154.9432000 
 		      -6.4634070  136.0997000    -2.6837240 -133.9285000   -47.1601500 -163.2582000   -53.0286000 -169.7029000
 		     -45.9356700 -113.1229000   -43.0511000   65.8814100    -1.9232800  130.4388000    -9.9360230   43.4982100
 		     -48.8812700  -46.1951500   -34.1466100  -23.1912600   -10.1771200   42.1934400    -1.6221300  129.5649000
   63490930000    -2.3148610 -133.5196000    -6.4791560  135.6564000   -46.5527200 -111.3151000   -53.9733700 -168.3919000 
 		      -6.3498790  134.7976000    -1.8147520 -137.0501000   -60.3721300  167.2315000   -46.8246000 -164.5919000
 		     -42.6254500 -154.6750000   -38.6504400  132.9921000    -1.8324940  128.1864000   -10.1622100   43.8445200
 		     -49.2122100   82.2151600   -36.0190800   46.0056500   -10.1381500   43.2405200    -1.9169370  128.6778000
   63560920000    -2.3578730 -133.4205000    -6.3911960  138.2254000   -48.6079500  -89.7157100   -49.0490000  171.3073000 
 		      -6.5858450  136.8542000    -2.1077560 -133.7451000   -44.8131900 -132.8122000   -49.3714000 -162.3640000
 		     -40.7382700 -147.1045000   -38.2889900   85.0346700    -2.1028980  128.4904000   -10.1254800   43.7741100
 		     -40.4758800  -67.2175100   -40.7474700 -113.3711000    -9.9179640   40.0710900    -1.7790110  130.3483000
   63630910000    -1.9805850 -131.8738000    -6.5971300  136.5899000   -51.2517800 -165.4866000   -47.4055400 -110.9615000 
 		      -6.6594900  137.5206000    -3.4376700 -126.6841000   -49.6571500 -152.3360000   -53.3428500  128.8168000
 		     -38.8209000  -43.5159200   -38.4785800   48.8494900    -1.9240820  129.1344000    -9.8923530   43.7556600
 		     -41.3610800  131.1139000   -32.0995600  116.3419000   -10.0432800   42.7209400    -1.6506020  128.3804000
   63700900000    -2.1329430 -134.1369000    -6.6956670  134.0592000   -47.5507000 -144.5236000   -49.2005300 -121.8127000 
 		      -6.2544620  137.1003000    -1.9992860 -132.1117000   -69.9320100 -102.9840000   -58.4491200  -85.1238100
 		     -41.5882100 -163.9605000   -34.9071100   79.1869000    -1.9132640  127.5956000   -10.1293600   41.5999400
 		     -40.7075700  155.9217000   -37.5300000   67.4922300    -9.8607220   41.6245000    -1.9172240  128.6001000
   63770890000    -2.6152220 -135.0654000    -6.1348290  137.3348000   -53.1924800 -123.2515000   -59.2692600  -84.2348900 
 		      -6.3846720  136.4839000    -2.2184970 -130.4048000   -45.7919200 -174.1893000   -45.8952100 -123.9576000
 		     -49.0731700  -74.5087100   -37.3765400   16.8906800    -1.9731320  127.7168000   -10.0985200   42.3113300
 		     -46.2119900 -118.5183000   -31.8736600  116.4120000   -10.0693300   42.6900900    -1.6977270  129.3559000
   63840880000    -2.0166680 -133.7270000    -6.4549260  136.0743000   -58.1840200  159.0504000   -50.6319700 -124.5815000 
 		      -6.1764610  136.4894000    -2.5037920 -128.1188000   -48.1515200 -137.8563000   -51.0399800 -116.8906000
 		     -42.9425200  -33.1351000   -42.1808500  144.3774000    -1.9836990  128.3963000   -10.1136700   42.7357200
 		     -44.2032200   78.7960000   -43.9064000 -136.7117000   -10.1375500   41.7194000    -1.7539770  127.0373000
   63910870000    -2.0197510 -134.8935000    -6.3652420  137.6541000   -58.5533800   19.6618500   -56.1481900  -82.4099800 
 		      -6.3653050  136.7764000    -2.5104790 -131.9968000   -47.3729200 -145.5477000   -45.9876300 -155.7750000
 		     -42.1164600   -6.6899320   -34.7530800  101.1067000    -1.8857750  127.3212000   -10.0004800   42.2839600
 		     -50.9665000   -6.9031600   -43.1504500 -122.5262000   -10.1374600   42.0934100    -1.9715030  128.3964000
   63980860000    -2.3815300 -132.5450000    -6.8036120  134.2729000   -56.7305000  -65.9174400   -50.1772800 -163.7728000 
 		      -6.1442000  136.4317000    -2.1038520 -132.0481000   -49.4497600  -94.5113300   -45.3361300 -173.3601000
 		     -39.8042000   35.1741800   -35.4869900  -74.1772700    -1.9863330  126.5010000   -10.1306100   42.3218800
 		     -47.6862000  -31.9799700   -36.2197900 -166.1501000   -10.3126100   43.2864900    -1.6265210  128.1624000
   64050850000    -2.2008340 -133.3260000    -6.5887000  137.4708000   -51.5640000  -93.8216200   -54.4286000 -151.2304000 
 		      -6.1842090  137.2192000    -1.6506200 -130.6610000   -55.2225700 -119.3853000   -58.7425400  172.8567000
 		     -45.8323100   84.2543900   -44.9618800  156.8707000    -1.9683860  127.5270000   -10.1631200   42.1403200
 		     -51.8988000  -99.7651700   -42.9429700   35.8212200   -10.1138300   41.1533400    -1.8610870  126.5488000
   64120840000    -2.2968310 -133.1858000    -5.8908860  138.7083000   -62.0373200 -114.2292000   -58.2301300 -102.0422000 
 		      -6.1683330  137.4404000    -2.7267010 -131.4199000   -44.2703300 -103.4348000   -48.3743500 -129.8447000
 		     -42.9852600 -175.9537000   -45.3668900   45.5118100    -1.8456110  126.6431000   -10.2332700   41.3681400
 		     -46.4075100  -25.9371800   -52.0119100  -16.8253700   -10.1881200   41.8034600    -1.8000550  128.0888000
   64190830000    -2.2952120 -134.2630000    -6.3973390  134.2285000   -56.5190500 -157.1192000   -50.4916200 -135.7264000 
 		      -6.3663200  135.5989000    -2.5107480 -133.6086000   -49.4142600  -84.9219600   -55.1956500 -103.1392000
 		     -44.4775200  -97.0687600   -43.1389800 -121.7359000    -1.9966350  126.1136000   -10.1566200   41.7838500
 		     -45.1176400  130.5458000   -48.7632800 -114.0979000   -10.2194900   41.2298300    -1.6473540  126.2816000
   64260820000    -1.9419980 -135.1334000    -6.7097930  135.7873000   -51.7926100 -118.8894000   -47.3038400  169.8361000 
 		      -6.3934370  134.6999000    -2.4942110 -135.8484000   -45.9520600 -129.3114000   -60.5650600   49.7150300
 		     -36.8090900 -154.4953000   -38.8042200   16.4158700    -2.0004290  126.7081000   -10.2378900   39.8878400
 		     -46.9752700 -156.5417000   -37.3886500  141.2445000   -10.1256500   40.3100100    -1.8663230  126.4814000
   64330810000    -2.5433410 -135.3400000    -6.3784020  133.6222000   -50.4434500 -100.0485000   -51.1635200 -133.0125000 
 		      -6.0485710  137.8135000    -2.0910190 -128.8840000   -47.3822400 -115.9012000   -49.5705900 -141.6933000
 		     -42.0731500 -168.8341000   -40.6668400   69.7687500    -1.8409500  126.0685000   -10.2275200   39.1311300
 		     -37.8866700 -108.9866000   -39.6734900  -62.5138900   -10.3159500   41.0784500    -1.7012500  126.6873000
   64400800000    -2.6205750 -135.9452000    -6.4127390  137.4836000   -49.4764000  -87.0933000   -51.1752400 -101.7949000 
 		      -6.3154640  135.1050000    -1.8707270 -134.5345000   -73.3809700   60.3385000   -48.3135000 -120.0651000
 		     -46.4072800  -91.7892200   -47.7686700   28.3074600    -1.9007320  125.1487000   -10.3936900   41.3343700
 		     -41.5678600  162.3937000   -43.3243000  128.8339000   -10.7844000   41.1304900    -1.6553090  125.6453000
   64470790000    -2.4008860 -135.9531000    -6.3405020  136.9083000   -58.3075600 -155.2783000   -48.6611500  -96.1244500 
 		      -6.4023040  134.1815000    -2.3831600 -132.8111000   -46.8940900 -142.2633000   -47.7311500 -138.1937000
 		     -40.1219500   -8.8534070   -42.9519000  -91.2481800    -1.9521950  125.5394000   -10.3135700   40.0943900
 		     -44.7208300   58.0692300   -48.2707400 -158.4462000   -10.5184200   40.3606000    -1.8259710  125.7559000
   64540780000    -2.4290250 -135.9909000    -6.2728610  136.7212000   -56.2630100 -137.6461000   -47.3969900 -137.3528000 
 		      -6.0299740  133.9570000    -2.6009970 -131.4349000   -48.2832700 -135.5475000   -45.1264900 -135.6956000
 		     -51.4875100 -176.3560000   -38.7314300  -88.9580500    -1.8836820  125.5312000   -10.3309900   39.3016700
 		     -43.1572500  173.2462000   -39.7173600   44.0314400   -10.3287100   39.8188100    -1.6409170  126.0342000
   64610770000    -2.0874770 -135.7355000    -6.2162200  134.4780000   -48.2206300 -161.0105000   -48.4996500 -140.9652000 
 		      -6.1747050  136.0651000    -2.6073650 -132.6987000   -50.6998400  174.9425000   -53.1406300 -131.4283000
 		     -48.2575800 -119.7507000   -45.1469100  -44.5999900    -1.9418000  124.3337000   -10.4483300   39.5198700
 		     -44.1432300  149.5819000   -34.3572200 -136.7517000   -10.3788900   40.8056100    -1.6959300  125.1623000
   64680760000    -2.1439720 -135.0031000    -6.5685860  135.0379000   -61.7364300  -83.2348500   -46.3986200 -142.3569000 
 		      -6.3326890  135.7153000    -2.8369240 -138.1934000   -48.7335200 -149.6343000   -51.9088100  176.9687000
 		     -44.9707000  165.7247000   -45.0606500 -135.5305000    -2.0095350  124.9415000   -10.5381300   39.7908400
 		     -49.4528800  -51.6480300   -42.2160900 -111.1650000   -10.3186000   38.2102400    -1.7770830  125.3686000
   64750750000    -2.4955790 -134.9713000    -6.2288310  131.9233000   -48.1989700 -166.6665000   -50.8724100 -120.4568000 
 		      -6.0428960  135.6962000    -2.2821140 -139.1401000   -54.9169200 -130.7981000   -44.6302800 -116.4939000
 		     -48.2313300 -150.6075000   -46.9923800 -161.1880000    -1.8671870  125.0315000   -10.6116800   39.0006000
 		     -40.1667800 -118.7080000   -43.7626600 -120.5874000   -10.4225500   38.5594900    -1.6756330  125.2468000
   64820740000    -2.1182050 -134.6418000    -6.0955720  134.0628000   -62.2010800   53.8733500   -44.5611300 -127.0052000 
 		      -6.2444200  133.2711000    -2.2874820 -135.6493000   -46.0559200 -126.1794000   -50.9479700  155.6307000
 		     -39.2737700 -140.0456000   -36.2315000 -179.8323000    -1.9743710  123.3629000   -10.6530000   38.6839600
 		     -41.3898400  124.0144000   -35.5138800  175.6329000   -10.0845300   37.8367000    -1.6592390  124.5150000
   64890730000    -2.3884840 -135.7105000    -6.1135740  136.6941000   -52.6032600 -101.7763000   -45.7401700 -115.5909000 
 		      -5.9243910  134.1259000    -2.3222900 -135.9087000   -44.3072900 -134.2785000   -46.7805500 -148.3315000
 		     -50.4205100  175.0031000   -38.5415000  -44.9575600    -2.0368250  123.8218000   -10.6843900   38.6239900
 		     -40.4628000 -130.0979000   -41.0741300  112.0540000   -10.6930000   38.8625400    -1.7619760  124.7226000
   64960720000    -2.4603860 -133.8026000    -6.1372850  134.4819000   -52.7677700 -151.8739000   -45.9736500 -148.0795000 
 		      -5.9644980  134.7067000    -2.2101600 -135.1553000   -50.4730900 -160.8220000   -48.3683600 -110.2076000
 		     -47.5205900 -106.2910000   -50.6087200   55.0643200    -1.8347980  124.1340000   -10.7296000   39.1712000
 		     -46.7986900 -133.9384000   -47.8727300  170.4398000   -10.6473800   37.6145700    -1.6799170  124.7772000
   65030710000    -2.4392360 -135.9363000    -6.4457380  129.9032000   -49.0234600 -155.9552000   -47.5311100  175.0875000 
 		      -6.3680260  132.7027000    -1.9125620 -138.9752000   -47.8721300 -153.4005000   -56.4153300  -55.0343300
 		     -40.5453300  132.2180000   -37.1598900  -61.4721900    -1.9370780  122.6290000   -10.8776300   38.9817000
 		     -44.6189700  119.5191000   -37.9484300  140.9533000   -10.7742400   37.1305700    -1.6988510  123.5310000
   65100700000    -2.2289170 -135.6936000    -6.1213550  134.4637000   -54.1893900 -162.2174000   -48.4670000 -126.3649000 
 		      -6.3275370  134.8733000    -2.4409630 -134.7806000   -46.7122800 -154.0352000   -47.5948700 -175.3608000
 		     -49.2326700  -14.2323800   -39.5328300 -156.0793000    -2.0667190  123.5247000   -10.6900800   37.4184300
 		     -37.3469800 -158.9987000   -40.0691400  176.9887000   -10.7260400   37.7617800    -1.7835060  123.9088000
   65170690000    -2.5533370 -136.8988000    -6.0323780  135.5115000   -57.1338500 -109.8604000   -48.5475300 -124.2127000 
 		      -6.0715290  135.1095000    -2.6883440 -130.0777000   -47.0476600  158.1473000   -49.9577700 -110.4095000
 		     -48.5732800 -179.8885000   -53.1741400  -83.1461100    -1.8399390  122.9047000   -10.7959000   38.6811300
 		     -50.4507000   47.1178600   -46.2618000 -101.7816000   -10.7749500   38.1460400    -1.6617980  124.0649000
   65240680000    -2.1433380 -136.7444000    -5.7816050  133.4341000   -58.9140500 -128.4254000   -45.7216300 -140.6673000 
 		      -6.1289510  132.9153000    -2.1516250 -134.3969000   -52.1456600 -122.4882000   -52.7087000  -46.3773100
 		     -44.2197600 -120.9284000   -41.0585700 -135.1891000    -1.9655790  122.0953000   -10.9724000   37.5132500
 		     -45.6034700 -108.2908000   -37.8142700  139.4788000   -11.1864300   35.9775100    -1.7403300  122.9593000
   65310670000    -2.5944280 -135.1209000    -6.1631590  136.8770000   -54.8990600 -119.7619000   -49.0020400 -123.4370000 
 		      -6.0679490  135.0064000    -2.0676290 -132.5685000   -45.1760700 -168.6669000   -46.6069700 -135.9049000
 		     -46.1916600   99.2442900   -44.6216800  111.2011000    -2.0210620  122.5713000   -10.8235500   37.6765300
 		     -43.1998300    6.0206490   -51.3057500 -165.2852000   -10.9362600   38.3075800    -1.7922730  123.3084000
   65380660000    -2.1514870 -136.6571000    -5.9755280  133.4149000   -50.1845500 -130.8073000   -47.7626200 -153.8853000 
 		      -6.1242110  133.7391000    -2.2064120 -135.4873000   -53.1772000  144.2104000   -47.2770000 -155.6382000
 		     -49.1282000   11.9401200   -46.7642600  -22.2515600    -1.9270460  122.2791000   -11.0417600   36.7038400
 		     -42.3058900  178.1987000   -40.3764500  171.3290000   -10.6682200   37.4078900    -1.7243540  123.0978000
   65450650000    -2.4195680 -136.9447000    -6.1630200  134.0064000   -50.0088500  -92.3475000   -47.3302800 -127.1257000 
 		      -6.1653070  133.4412000    -2.2806540 -137.1160000   -49.0072700 -146.9236000   -63.9184300  -78.8098600
 		     -37.0724100 -119.3502000   -36.7892100  128.6972000    -1.9278180  121.0218000   -10.9096700   37.0574000
 		     -41.6051500  179.2117000   -47.1297300 -159.9303000   -11.0838500   36.9128400    -1.7875020  122.0975000
   65520640000    -2.3108490 -135.4127000    -6.0486370  132.9630000   -46.8130100 -145.4339000   -49.3158100 -162.4362000 
 		      -5.9360690  133.1601000    -2.5603170 -139.7377000   -47.4675600 -138.9157000   -45.8043500 -171.7831000
 		     -46.4536100 -112.3699000   -45.5802500  -19.4714500    -2.0418210  122.3228000   -10.8569700   36.8879400
 		     -41.1494500  154.5095000   -40.3623900  -53.8480600   -10.9644500   36.7565500    -1.8062900  122.6829000
   65590630000    -2.4319530 -137.1893000    -5.6008000  132.8825000   -52.3695800 -133.9112000   -52.9573400  -99.9385000 
 		      -5.9547800  132.8021000    -2.0320370 -131.8826000   -43.9277100 -164.2172000   -44.0269400 -158.5079000
 		     -36.8812200 -159.9870000   -34.9641000  153.4973000    -1.8628430  121.5464000   -11.1262100   35.9682400
 		     -46.3403500 -117.6747000   -36.2732500  171.7349000   -11.2345600   36.4602400    -1.7105180  122.3926000
   65660620000    -2.4262370 -135.7202000    -5.6884770  133.4569000   -50.8574900 -131.1276000   -50.7999700 -149.7489000 
 		      -5.8802720  132.5154000    -1.7198690 -134.6282000   -54.7260600 -114.9667000   -51.8644100 -110.7949000
 		     -40.4060400  125.8592000   -38.7409100   52.9022700    -2.0446010  120.7279000   -10.9530500   36.4390300
 		     -41.3874600  -91.7946000   -44.2820000   60.6444300   -10.9613900   36.5386400    -1.7711660  121.8014000
   65730610000    -2.4615220 -137.6432000    -6.2227500  134.8537000   -52.4226800 -136.1489000   -48.4912300 -134.3855000 
 		      -6.1258750  132.2457000    -2.3398120 -136.7719000   -49.4689100 -121.4937000   -49.6087800  -87.8260700
 		     -37.6766700 -172.5524000   -43.3364300   49.2827600    -2.0146200  121.3838000   -10.9925400   36.6956300
 		     -59.5714400  112.9784000   -44.7153500  131.0146000   -10.6400100   36.1876800    -1.8539500  121.9630000
   65800600000    -2.1192700 -138.5749000    -5.8929430  131.5679000   -48.5571300 -120.7114000   -54.2140300 -140.9196000 
 		      -6.1224790  134.2935000    -2.6503970 -133.4454000   -49.6389400 -142.1869000   -47.1173300 -116.0693000
 		     -44.5550700 -135.2465000   -38.5164900  173.3846000    -1.9287990  120.7838000   -11.0718000   35.2135400
 		     -47.0814500  -57.6593000   -38.4149900  159.5348000   -11.1464500   37.1216900    -1.6709510  122.0210000
   65870590000    -2.1936660 -138.7311000    -5.9153890  130.7346000   -52.2437100 -156.1822000   -51.6522200 -175.5686000 
 		      -6.0094840  131.2192000    -2.1191380 -138.2850000   -53.4330500  -54.6031300   -49.8832900 -179.1514000
 		     -38.5110100  165.2096000   -42.1194400   68.5275000    -1.9707280  120.8334000   -11.1512800   35.7817100
 		     -42.7312300  -48.3312200   -35.4960700 -131.7242000   -11.2085400   34.4960800    -1.7776750  120.6101000
   65940580000    -2.6349690 -138.0397000    -6.2565160  130.1711000   -46.3164700 -148.1720000   -49.7436800  146.1966000 
 		      -5.7649080  131.7594000    -1.7663710 -141.2650000   -55.0802000 -105.6549000   -44.8154300  151.9839000
 		     -43.0237200 -128.1983000   -44.1914900  -63.8470600    -1.9694420  120.4232000   -11.2100400   35.3937900
 		     -45.0374600 -104.8405000   -40.4135400   24.9108400   -11.0668100   34.9597700    -1.8116310  121.4213000
   66010570000    -2.2323440 -138.2270000    -6.1287810  132.9014000   -56.8993800 -144.6955000   -42.3989800 -130.8180000 
 		      -6.1406810  132.9883000    -3.1671700 -136.7988000   -56.3071700 -134.2493000   -46.1571300 -100.5529000
 		     -41.8045000 -143.6695000   -58.0958000  163.5526000    -1.9999580  120.1300000   -11.0841300   36.2144600
 		     -44.8466300 -104.0250000   -51.5269800  -58.5574200   -11.2214500   36.0002100    -1.6646150  121.2832000
   66080560000    -2.4830430 -139.1449000    -5.9393230  134.6260000   -47.8813600 -102.1058000   -46.1192100 -132.8255000 
 		      -5.6775270  132.6450000    -1.8947690 -131.7133000   -48.3694900 -112.2120000   -43.3074900 -145.2935000
 		     -72.0492400  -48.7032400   -41.5745200   64.5089000    -1.9073480  119.9568000   -11.1205300   35.3411700
 		     -37.8722200  136.7850000   -35.3580400  -54.7920400   -11.1821400   35.5701700    -1.7147450  120.0752000
   66150550000    -2.6625440 -136.7742000    -5.7090510  132.8537000   -44.1862100 -166.7215000   -44.9425900 -160.1529000 
 		      -5.7577320  134.3829000    -2.4417510 -136.8753000   -49.1271100 -130.8704000   -45.4085100 -126.9702000
 		     -56.7378900 -101.9384000   -31.3028900  116.9116000    -1.9066570  119.4831000   -11.2930900   35.1455500
 		     -45.9997400   -3.2179620   -37.5560100   82.3037300   -11.3705200   34.2310300    -1.7998060  121.0884000
   66220540000    -2.0626020 -139.7035000    -5.9790000  133.3867000   -47.6471100  157.5130000   -46.2620700 -136.5338000 
 		      -6.0088760  132.6785000    -3.2150810 -132.3188000   -51.2537800 -176.8227000   -42.7549700 -148.3828000
 		     -44.8607300  -71.0024200   -42.0586000  175.9405000    -1.9809290  119.8517000   -11.3297800   35.3405300
 		     -45.7765400 -151.9810000   -44.3028900 -127.7022000   -11.2763200   37.2531900    -1.6445610  120.7951000
   66290530000    -2.5500510 -139.4754000    -5.8553490  131.9750000   -45.3287500 -170.5118000   -46.0074800 -151.0022000 
 		      -5.8569350  131.1982000    -2.5817960 -137.6230000   -47.1572900  177.4686000   -51.7706100 -128.5385000
 		     -36.2594300  142.6727000   -46.8498000   72.3837600    -1.9461830  120.1220000   -11.3955200   35.3901700
 		     -46.6003900  177.2787000   -44.5195800  -78.8962400   -10.9321300   33.1934400    -1.7272300  119.8296000
   66360520000    -2.6734550 -139.2307000    -5.5106550  136.2373000   -50.1621900 -166.0387000   -52.6718000  -93.8671300 
 		      -5.9015130  136.0889000    -2.2551330 -128.0090000   -53.4602400  -74.6585200   -44.0473500 -161.8669000
 		     -46.1395600  -42.9552900   -38.4762600 -100.6843000    -1.9257620  118.8117000   -11.2546900   36.2629700
 		     -54.7871900  -59.2693400   -36.3705300   27.6505500   -11.4694500   35.1797600    -1.8333500  120.5624000
   66430510000    -2.0473100 -138.7693000    -6.4782840  132.3433000   -47.3050100 -150.0756000   -43.2863200  179.9071000 
 		      -6.1346830  130.5783000    -3.3760730 -135.6797000   -47.6563000  -75.4772800   -41.7131800 -174.2878000
 		     -61.3442200  139.0633000   -43.7502600   40.7725200    -2.0296490  119.8108000   -11.4316800   34.0455600
 		     -36.4560200 -147.5982000   -37.2183500   87.4104400   -11.2124800   34.0861100    -1.5842300  120.6916000
   66500500000    -2.4693380 -141.0226000    -5.7327050  134.1036000   -49.5284700 -177.2584000   -57.5356100 -126.5427000 
 		      -5.7785240  135.2180000    -3.0205310 -135.1652000   -45.4380100 -159.2703000   -43.1121500  162.5899000
 		     -38.0663100 -114.5553000   -39.5602400  -43.7685700    -1.8811270  119.0814000   -11.3141200   34.2784100
 		     -36.0721000  164.1958000   -44.0128400  -91.5953400   -11.2568700   33.8035900    -1.7819750  118.8395000
   66570490000    -2.5617600 -138.6109000    -5.7337140  132.3348000   -50.4302300  166.7660000   -51.9244000 -158.4678000 
 		      -6.0270920  131.2742000    -2.8800790 -138.3650000   -47.1931400 -153.9035000   -47.1106100  -75.8758300
 		     -42.1219000   18.7202600   -35.9114500  143.6356000    -1.9369290  118.2491000   -11.2787600   34.2790300
 		     -49.2981800  -74.4800900   -37.0983900  158.2310000   -11.3071900   35.4391000    -1.7960270  120.0122000
   66640480000    -2.3320380 -140.8780000    -5.8816930  135.4883000   -49.7995800 -160.4513000   -42.3812900 -149.7164000 
 		      -5.9076190  133.0125000    -2.8745610 -135.9441000   -52.4994700  158.5964000   -49.1351200 -172.5135000
 		     -57.7140700 -138.0041000   -35.9628300  165.1167000    -1.9685520  118.9683000   -11.2789800   33.6009000
 		     -39.3676300 -171.2146000   -44.7799500  -80.4137400   -11.0409600   32.6208800    -1.5847850  119.1921000
   66710470000    -2.1629320 -142.0121000    -6.1535910  133.1635000   -54.5226800  126.4312000   -49.5612100 -152.8829000 
 		      -5.9689810  131.1764000    -2.9891030 -137.9363000   -45.8994300  168.0341000   -50.5256300 -163.7341000
 		     -46.9015100 -142.0634000   -51.1907800  -62.6049300    -1.8618930  118.0536000   -11.4906300   34.4521900
 		     -36.9477300 -121.0023000   -31.5245300   94.1418800   -11.5983900   34.8383800    -1.8155110  118.6894000
   66780460000    -2.3207540 -139.3384000    -6.2304470  132.9940000   -44.1233900 -138.6541000   -60.4166500  153.7615000 
 		      -5.8448220  135.2626000    -3.2509580 -139.8810000   -44.8084300 -106.9228000   -49.2535400 -137.7766000
 		     -45.3742600   84.3301200   -40.6203800  -24.8213900    -1.8810350  117.9996000   -11.4111000   33.4830900
 		     -42.5990900  154.5026000   -36.2136500  143.3988000   -11.6339500   33.3153300    -1.7472510  119.3199000
   66850450000    -2.1601570 -137.7977000    -5.8103880  124.6901000   -45.0428700 -167.9634000   -43.7351900 -170.5418000 
 		      -5.5970140  129.1959000    -2.1758010 -144.7373000   -47.3302100 -110.0766000   -39.4090200  178.8012000
 		     -40.5658200  123.9100000   -37.9586000   50.5928300    -1.8980840  117.9818000   -11.5387900   32.1228300
 		     -45.1314200 -100.1668000   -29.7219800   13.3040400   -11.5942900   34.5689800    -1.6517080  118.3307000
   66920440000    -2.3159930 -140.3605000    -6.1513860  132.6482000   -46.3102300 -132.1687000   -41.3257800 -174.3341000 
 		      -5.8865270  132.6963000    -2.3116640 -135.9407000   -45.8443300 -139.1709000   -45.2622600 -156.3000000
 		     -41.8923500  -25.3852800   -38.2890000  -46.8811000    -1.9181980  118.0095000   -11.5510700   31.7621000
 		     -36.6053100  -65.2706000   -28.5804200 -135.0709000   -11.7239200   32.1269300    -1.8600700  118.3034000
   66990430000    -2.6732300 -138.2115000    -5.6561990  130.3273000   -46.8283300 -147.2101000   -46.6192200 -174.5938000 
 		      -5.8091490  131.1548000    -1.9586940 -140.0607000   -44.4464500 -167.7282000   -47.0846300 -146.0263000
 		     -42.2965200 -116.3523000   -33.8519200  -79.7736400    -1.8873570  117.3450000   -11.6099000   33.1099700
 		     -33.2447600  -77.9107400   -38.2603600   39.3815200   -11.9484000   33.7223200    -1.7277980  118.4237000
   67060420000    -2.8122250 -143.7896000    -5.6716450  133.9335000   -52.8622900  -94.4764900   -46.1255000 -166.7725000 
 		      -5.8909040  129.1993000    -1.5785160 -136.9555000   -42.2389100 -172.2223000   -43.1063200  168.8895000
 		     -37.3171500  167.2576000   -45.5023200 -166.0328000    -1.8909450  117.3749000   -11.4535400   31.6160000
 		     -40.0530200  -98.2546600   -40.5659700  -42.2143900   -11.4927900   31.3923000    -1.7093740  117.2665000
   67130410000    -2.9385650 -140.2934000    -5.8992690  136.2790000   -45.7502600  173.2638000   -54.0550300  -66.1232000 
 		      -5.4856500  134.6908000    -2.4423480 -132.5536000   -47.5752300  -99.2641600   -43.2742100 -107.7472000
 		     -41.7177700   36.5431100   -31.7481200  -24.0820200    -1.9109770  117.3187000   -11.6207900   31.0289000
 		     -53.9042300 -114.3995000   -38.3276700  152.7679000   -11.7742400   32.5765200    -1.7328680  118.0857000
   67200400000    -2.2084790 -140.6587000    -5.2298760  133.3235000   -53.6878400 -158.6553000   -43.8643400 -163.1941000 
 		      -5.1064730  130.4895000    -1.5990900 -138.5526000   -43.8954300  156.9033000   -46.2724900 -136.6131000
 		     -49.9285000 -178.0504000   -35.6165200 -159.6652000    -1.9132390  116.3447000   -11.9738400   29.5225900
 		     -36.8482900  -87.3345300   -35.2222400  169.2249000   -11.8550100   32.4760100    -1.6635220  117.4737000
   67270390000    -2.8113020 -140.2218000    -5.5449150  127.6771000   -53.4805300 -122.3847000   -50.1396700  169.9726000 
 		      -5.5759950  132.2956000    -1.6021300 -145.6734000   -42.3967400 -153.9239000   -43.6398700  -97.7008700
 		     -42.3284500  161.4906000   -31.9254000 -149.2168000    -1.8446790  115.9676000   -11.7276100   32.1171200
 		     -39.0725100  110.4070000   -38.8517800   31.9981200   -11.4447700   34.5723500    -1.6769860  116.5531000
   67340380000    -2.3199250 -137.9152000    -5.1242210  131.4820000   -45.8130500 -117.9559000   -47.4682600 -156.9935000 
 		      -4.9797290  130.2269000    -1.6247950 -141.5542000   -54.6508700 -175.1223000   -48.4800300  177.3253000
 		     -39.9696700 -134.1472000   -33.9839200   32.8569900    -1.9469690  116.6284000   -11.9379300   32.5344500
 		     -40.5775400   55.2830800   -44.1093500  103.9512000   -11.8593700   30.0656900    -1.6516450  117.2022000
   67410370000    -2.6939320 -139.6555000    -6.1214350  131.7594000   -45.6053400 -145.0547000   -46.8866700 -144.5882000 
 		      -5.6683220  130.2785000    -2.9076980 -142.8231000   -43.6185200 -143.7300000   -39.1777300  -98.5835300
 		     -48.5105900 -150.4533000   -44.9310900  -67.9672900    -1.8456330  116.1296000   -12.0094600   30.8129500
 		     -37.5497200 -157.1737000   -40.5026200 -161.7822000   -11.9243600   28.6542700    -1.6431990  116.4449000
   67480360000    -2.8453090 -141.9979000    -5.5376360  131.4906000   -45.7935500 -170.6925000   -44.8379700 -146.2712000 
 		      -5.3245640  133.0570000    -2.2970680 -129.4873000   -45.3300400 -130.2214000   -45.4822000 -175.1571000
 		     -45.2600800   94.3672800   -28.3368000 -158.0960000    -1.9311000  114.9829000   -11.5174200   30.9239400
 		     -41.2054300  120.4110000   -32.1191900  137.1953000   -11.3280000   31.1808100    -1.6962460  115.8246000
   67550350000    -3.1220320 -140.4232000    -5.7435420  130.1970000   -48.2390300 -142.6021000   -45.3765200 -170.0324000 
 		      -5.5941490  132.1971000    -2.1109830 -143.5817000   -46.8375600  117.3339000   -56.1335800   83.6285300
 		     -36.3417100  -79.9063300   -27.6185700  136.3869000    -1.9593310  115.9939000   -11.8930900   29.8044900
 		     -38.8473600 -142.7090000   -38.1501200 -104.9247000   -12.3626800   31.5919200    -1.6492550  117.1461000
   67620340000    -2.4214200 -136.3426000    -5.7916380  130.2578000   -53.4113500 -158.9559000   -48.7714400 -125.2791000 
 		      -5.5074990  131.9670000    -2.9025160 -149.0063000   -55.4184100 -124.7371000   -45.3414700  174.3186000
 		     -42.8019600  161.8062000   -25.9309300 -135.0678000    -1.8205690  115.3925000   -11.8289100   30.2191200
 		     -39.2838800  175.5378000   -43.2984600  149.5232000   -11.9056600   29.2416100    -1.6051350  115.7667000
   67690330000    -3.1898270 -141.7804000    -5.3654530  131.2524000   -51.6418300  146.8309000   -46.2784400 -138.3788000 
 		      -5.4183340  132.6625000    -2.1633650 -137.6081000   -40.1339500 -179.7624000   -45.2335500 -169.1701000
 		     -35.2895800   54.8055500   -26.7526000  170.3705000    -1.9631230  114.5476000   -12.0621400   28.8494000
 		     -42.0814700   54.3557400   -30.1443200 -145.5888000   -12.3039400   27.8278600    -1.7342030  115.6011000
   67760320000    -2.4000870 -145.3400000    -5.7900690  132.8773000   -44.2079200 -121.8733000   -41.2769500 -135.1113000 
 		      -6.0070590  132.4115000    -3.5667810 -130.7055000   -49.5473000  -61.2511600   -46.4055100  -45.2644400
 		     -43.6908800   64.0194500   -48.1010300  -92.8466000    -2.0902550  115.4152000   -11.9774500   30.7125000
 		     -39.1204000  152.4268000   -37.3831300 -165.8602000   -11.9884700   29.0772400    -1.6513410  116.2763000
   67830310000    -2.0962710 -140.8154000    -6.2286840  134.0650000   -43.6006500 -156.4624000   -44.4484400 -165.2882000 
 		      -5.8107900  131.4824000    -4.6377320 -146.4169000   -52.7950800 -170.6550000   -47.1637000  150.7839000
 		     -38.1865000   34.6731200   -31.7228900  -24.6816900    -1.8733460  114.1585000   -12.0936800   29.1412800
 		     -33.5109900   75.3004700   -38.1425500  -96.5318800   -12.1516000   26.8213700    -1.6534550  115.4598000
   67900300000    -2.7398580 -139.1771000    -5.1294380  131.9914000   -45.5769500 -112.9937000   -47.8102300 -108.7639000 
 		      -5.5023860  132.7728000    -2.4195690 -132.9400000   -50.7225000 -167.4759000   -42.5031200  170.3906000
 		     -35.4384800   53.4542800   -40.3763200   39.6811800    -1.9103230  112.7328000   -12.0282500   28.7233300
 		     -42.7275700  -55.4267000   -48.8135700   25.9198800   -12.2934900   29.9024700    -1.8155700  115.2224000
   67970290000    -2.8901750 -140.6940000    -5.5992420  126.0230000   -44.2391200  178.1105000   -40.9619500  168.6560000 
 		      -5.4852750  128.4987000    -1.4261750 -145.5893000   -49.5309300  159.7012000   -39.2853000 -159.4230000
 		     -42.1760400 -162.6381000   -25.6197900  -93.3554700    -1.9419080  114.7798000   -12.1206900   31.0972800
 		     -43.8639000 -138.8498000   -35.5920300   71.3548400   -12.2421300   29.9604500    -1.6461430  115.7874000
   68040280000    -2.5666760 -139.9857000    -5.1553350  127.0949000   -49.1103400  143.2488000   -42.3557600  161.0517000 
 		      -5.0790620  128.8108000    -2.1323920 -139.8731000   -48.8332400  179.8141000   -44.3294400 -139.3221000
 		     -38.8253800 -109.4583000   -28.6788800  158.4780000    -1.7370470  114.2972000   -12.1969400   31.2998300
 		     -34.4717600  170.3314000   -37.9747800   23.1466700   -12.6707100   27.1804300    -1.6188550  114.8818000
   68110270000    -2.4103760 -141.2195000    -5.2859880  129.2014000   -45.4830500  166.2762000   -46.6631000 -155.3849000 
 		      -5.1898810  130.4960000    -2.7026800 -141.6063000   -55.4944600  -97.0426300   -41.4132900  163.9141000
 		     -43.2181400  -43.2618500   -30.5663800  171.6159000    -1.9839870  112.2446000   -12.1724900   28.3987000
 		     -31.4062000 -179.6613000   -27.5055800   28.8470200   -12.4253100   29.2489300    -1.7685490  114.5922000
   68180260000    -3.0446080 -141.6694000    -5.0506110  136.2307000   -44.1827300 -167.1414000   -46.9168300 -117.0520000 
 		      -5.2926700  131.2049000    -2.0190880 -143.4857000   -38.6549300 -149.2532000   -48.1290700 -147.5324000
 		     -32.8255200 -152.2838000   -40.0804400  154.7299000    -1.9694290  113.6943000   -12.3389200   28.7575000
 		     -40.3716500 -152.9059000   -25.4582300  107.4933000   -12.4611000   27.6330500    -1.6804960  115.1433000
   68250250000    -2.3760830 -143.6134000    -5.4251960  135.7324000   -42.0706800 -165.8048000   -40.8905000 -163.3584000 
 		      -5.7330750  131.9655000    -2.6371970 -131.7664000   -41.7919500 -161.1971000   -42.4047500 -154.8820000
 		     -37.4554400  153.5454000   -24.3967800   60.7510500    -1.8253440  113.5125000   -12.5565300   28.2438900
 		     -42.6209000  -21.8451800   -29.1168500  112.1526000   -11.8205400   24.4727400    -1.6013860  114.2809000
   68320240000    -2.5976450 -141.2302000    -5.2903190  134.7576000   -49.5254100  141.7538000   -44.9939500  173.0054000 
 		      -5.1170440  132.4417000    -1.7238320 -134.5108000   -42.9560300 -166.4352000   -43.1543900  167.4185000
 		     -37.1216400 -109.9747000   -28.6081000 -168.2676000    -1.9531550  111.4959000   -12.3653000   26.9095000
 		     -42.0183400  -42.7837600   -30.8597700 -112.2597000   -12.0727700   28.5631400    -1.8078150  114.2990000
   68390230000    -2.8780010 -144.1423000    -5.0743290  131.1087000   -51.7059000 -158.4975000   -45.3947100 -149.1932000 
 		      -5.0372170  128.3943000    -1.8433900 -147.5383000   -42.7694700   76.6889900   -44.9223000  129.0592000
 		     -35.8053400   50.3019600   -29.4348300  125.7447000    -1.9556030  113.0677000   -12.2285000   27.5130500
 		     -45.7612500  -55.0709500   -25.0087400   64.5074200   -12.4093000   26.6428300    -1.6796470  114.2504000
   68460220000    -2.4103160 -142.3722000    -5.2363310  127.9933000   -41.7956800 -109.0213000   -45.6790700  162.8321000 
 		      -5.3329050  131.8622000    -2.5975560 -146.5199000   -54.8177000  130.0133000   -37.2627800  163.9542000
 		     -37.3787000 -179.0239000   -38.3456200  -85.2770700    -1.9073390  112.5898000   -12.8753000   26.4673700
 		     -45.6794500   69.3878300   -19.2014100   31.2922200   -12.1813400   30.5202500    -1.6815210  113.7936000
   68530210000    -2.3455280 -139.6041000    -6.6785930  129.1823000   -45.4183700  176.5735000   -55.1922000   99.4377700 
 		      -5.8235040  126.1671000    -3.4921200 -156.9445000   -45.1027300 -109.1779000   -40.5590100 -160.1866000
 		     -31.1636200 -171.6952000   -33.6800500  114.7747000    -1.9389080  111.1392000   -12.5538300   24.3831300
 		     -33.9841200  -74.3769300   -28.6023900 -169.9576000   -12.7865000   29.5478000    -1.6657030  113.1841000
   68600200000    -1.8663690 -144.6947000    -3.8300140  134.0684000   -42.2948400  176.8628000   -46.3625000 -159.0298000 
 		      -4.7562360  128.9761000    -1.8623640 -141.0869000   -41.4671500 -161.9054000   -43.5747600  164.9261000
 		     -34.5519600  110.5588000   -29.4734900   65.7766800    -1.9594640  112.1866000   -12.8130600   24.3994800
 		     -36.0841900  168.4787000   -28.5261700 -104.9653000   -12.2730100   28.8433100    -1.7360710  113.4694000
   68670190000    -3.2743070 -143.9195000    -5.3135650  131.3056000   -45.7947800  161.7574000   -43.7158500 -138.8965000 
 		      -5.8203960  128.6261000    -3.1488240 -145.9371000   -41.4021300  175.3921000   -42.9842800 -130.7650000
 		     -37.9331200  -65.7164200   -29.6315200  166.8980000    -1.8878950  111.6705000   -12.7111200   30.0956600
 		     -40.0429900    9.4262830   -30.8918800  -74.1675700   -12.5431100   25.1625800    -1.5886200  113.0543000
   68740180000    -2.1291060 -145.0518000    -5.3599700  128.8539000   -49.7354300 -134.5897000   -45.5972700 -174.0201000 
 		      -5.6683140  130.3416000    -4.8060150 -137.9495000   -42.7696000  169.8421000   -40.0138000 -151.7466000
 		     -44.7893200 -178.7280000   -35.8724600    6.8020630    -1.8496350  111.8215000   -12.7712400   28.8905400
 		     -34.0183800 -150.4810000   -35.9344600 -132.3969000   -12.7000400   30.1866400    -1.6290600  111.7684000
   68810170000    -2.1964010 -144.5186000    -5.3398160  136.5560000   -48.4896900 -178.3093000   -41.1717200 -150.4331000 
 		      -5.8502800  133.6108000    -2.1996070 -132.0971000   -51.4407300  123.1094000   -48.7148100 -158.6000000
 		     -39.2448900  114.9645000   -27.1332700  -71.5463200    -1.9307750  110.5829000   -12.8579200   25.5600400
 		     -40.7064400  142.5910000   -31.9620600  145.4549000   -12.6623900   22.4686800    -1.8212220  113.0351000
   68880160000    -2.4052260 -145.3654000    -5.7750110  139.7626000   -47.8901400  179.6212000   -44.2043400  170.5363000 
 		      -5.2781740  133.3341000    -1.4901170 -120.1614000   -46.6985700  149.0542000   -38.4855500 -124.1493000
 		     -36.7789500   -6.8989170   -31.1186700  -51.6805900    -1.9781110  111.7273000   -13.0129900   25.6402100
 		     -32.4550400  151.4066000   -21.7486600  139.7792000   -12.9390000   21.3552200    -1.3783580  112.8559000
   68950150000    -2.0638880 -144.5683000    -5.5489830  121.9385000   -53.2546800 -142.8311000   -49.6448500  163.8876000 
 		      -5.8825300  126.5973000    -2.4775060 -157.5617000   -48.6470900  138.9044000   -44.8451600  167.3002000
 		     -42.1702100   87.3005100   -30.6198800 -141.6188000    -1.8493320  110.8022000   -12.9057500   25.6934600
 		     -36.1703200  160.3112000   -31.0027400 -113.1636000   -12.5452600   26.0610100    -1.7772750  109.7677000
   69020140000    -2.9873890 -145.7224000    -7.1219060  129.0165000   -60.2072600 -146.4784000   -41.6472100 -166.6150000 
 		      -6.1485840  130.9252000    -3.2397270 -150.5914000   -47.1479000 -135.7166000   -58.3865100    4.1801250
 		     -29.8001800  169.9960000   -39.0585900 -100.0328000    -1.8905440  109.4756000   -12.9963100   26.9431600
 		     -34.2043200 -161.1488000   -23.4941700  141.2367000   -13.2831200   23.9062400    -1.8155170  113.4235000
   69090130000    -3.7778210 -139.1794000    -5.6440990  125.9755000   -44.0602100 -144.4558000   -45.6070500  172.2539000 
 		      -5.1628440  127.9337000    -1.2879090 -140.6728000   -51.8159600 -100.2794000   -50.0869100  142.0915000
 		     -37.5860600 -136.3727000   -33.2023900   19.8430200    -2.0183660  110.9189000   -12.7905900   28.3982200
 		     -40.4612700  133.3967000   -37.6349400    9.5297810   -12.4827600   27.3240800    -1.3536220  111.3368000
   69160120000    -2.5054760 -147.1086000    -4.0639860  138.9889000   -45.7546100 -179.8389000   -41.1034200  177.5092000 
 		      -4.5940290  130.0999000    -0.5884266 -137.7171000   -45.6921200 -112.9034000   -64.8075600 -113.7745000
 		     -39.9880600    6.3573010   -22.8508600   -3.5853380    -1.7040190  109.7631000   -12.6334400   22.9632500
 		     -42.1981700   43.4465600   -24.7437300  112.1305000   -13.2296100   28.3247300    -1.7978490  109.2571000
   69230110000    -2.3764060 -143.2869000    -5.1706490  130.4249000   -53.4040600  -82.6420400   -45.6967000 -140.9146000 
 		      -5.0646220  132.7328000    -5.5888630 -152.9498000   -43.3752100 -163.1824000   -41.3669700 -143.5192000
 		     -38.5400800    1.3174690   -28.7976300 -153.8354000    -2.0219950  109.2676000   -13.0220200   23.3280500
 		     -42.0419300  -94.5351000   -35.0133300  130.8602000   -13.3169100   17.4344200    -1.8788360  112.8918000
   69300100000    -2.8051200 -142.7373000    -5.6017170  125.8754000   -45.3881800 -108.3322000   -38.2172600  158.0940000 
 		      -5.4235430  130.6968000    -2.4618210 -143.9865000   -42.3605700  165.8857000   -41.6293300 -171.0615000
 		     -35.7477500  119.2519000   -33.4636200  -72.1426800    -1.8930120  111.3593000   -12.8028200   25.7038900
 		     -32.3170600 -144.3494000   -31.1196400 -127.5837000   -12.8736500   24.0199300    -1.1833760  110.4365000
   69370090000    -2.5039310 -146.7815000    -6.0669230  125.8592000   -45.7860000  133.2251000   -45.8503500  129.7592000 
 		      -5.9389680  126.0730000    -3.2051780 -157.5666000   -58.3099100  119.6895000   -46.5057200 -115.3384000
 		     -34.8418400  -99.7940000   -31.5527000   39.1466100    -1.6425080  109.3464000   -13.2689400   24.5293600
 		     -33.0528900  -78.1047000   -24.8965700 -121.3830000   -12.6067200   19.8914000    -1.9485230  108.4036000
   69440080000    -3.5762080 -138.3605000    -4.6715560  124.6913000   -53.0750100  147.9926000   -38.6461800  162.5569000 
 		      -4.1269660  126.1384000    -0.0086195 -144.6578000   -48.2993400  143.2850000   -38.1920500 -162.4936000
 		     -38.5278100  -66.5335500   -29.3930000  -28.4729700    -2.1984780  107.5961000   -12.8553200   26.6971400
 		     -45.2689600  -63.4091600   -20.6599300 -123.3510000   -12.9811500   26.9010600    -1.6774730  113.1202000
   69510070000    -1.9089810 -145.1398000    -4.9022490  129.8064000   -50.5583000  128.1315000   -41.9443000 -141.1036000 
 		      -6.2291490  126.3764000    -3.6449150 -144.1211000   -42.3803300 -151.8811000   -44.5636900 -124.1430000
 		     -52.1679300  145.7554000   -28.8626300  177.3054000    -1.8063520  110.8805000   -13.5583500   24.5073400
 		     -36.3373500 -160.5473000   -41.1485900   71.2935700   -13.1812800   24.3264900    -1.2303030  108.6263000
   69580060000    -1.8575910 -144.3449000    -5.3458170  131.4312000   -49.1979400  136.4122000   -38.4300400  177.6603000 
 		      -6.0358690  129.9779000    -3.2312810 -154.4323000   -53.2341700 -147.9506000   -44.4720900 -110.2511000
 		     -36.8231700   10.8049200   -32.7668200 -171.8185000    -1.7346260  106.7925000   -13.2650000   21.6932400
 		     -33.8857700  123.7828000   -34.8899000 -129.8271000   -12.9906400   22.1915800    -2.2287100  108.2389000
   69650050000    -3.3420900 -146.3189000    -4.5633110  123.6341000   -44.1182400  172.4215000   -41.5922900 -179.7829000 
 		      -5.4602720  125.1257000    -1.0575450 -151.5928000   -41.3548900  162.2803000   -49.8412500  158.3758000
 		     -39.3663700   49.0736400   -31.7036300 -139.6745000    -2.2164700  108.4650000   -13.2366100   20.8711500
 		     -43.0349700   62.0578800   -30.9138800  148.1483000   -13.8397600   20.6710800    -1.2801500  112.4490000
   69720040000    -1.8256940 -145.4456000    -6.1699400  127.3325000   -47.0140500 -153.5127000   -40.2986600 -156.8145000 
 		      -5.5221460  133.4229000    -5.3955300 -135.2508000   -40.6704700 -171.2913000   -40.5711900  -40.1369000
 		     -34.2918300  175.0459000   -24.1144700 -126.5803000    -1.6539560  110.8282000   -13.5404600   21.7416800
 		     -29.7753400  123.3726000   -22.5545200  -86.5194500   -13.1568100   19.8546400    -1.8154250  104.7989000
   69790030000    -2.8083460 -146.8410000    -4.4421240  118.9566000   -43.4493700 -127.7323000   -48.6710500  177.6747000 
 		      -5.1939330  130.9789000    -3.4774090 -144.6790000   -57.4461700 -169.7691000   -45.5508800 -136.0727000
 		     -32.4906800  136.8907000   -24.7587400  -37.5216200    -1.9500840  102.6572000   -13.1944100   21.6792900
 		     -33.5624100  159.6293000   -13.6487900    1.7679050   -12.0153200   32.0396600    -1.8253510  114.9924000
   69860020000    -2.9241740 -152.4198000    -4.0751700  132.6666000   -50.9227900  -20.7764300   -36.1691300  147.7480000 
 		      -4.7044530  127.3436000    -1.8222720 -134.3193000   -40.8812700 -168.4820000   -39.8181000  121.9273000
 		     -26.7356900  -96.2347900   -27.2339200   29.5032600    -2.4850660  111.6893000   -13.0541900   25.8881900
 		     -28.5904700   68.3319200   -15.6272900  153.5135000   -13.2787600   24.7633600    -1.5373770  102.7432000
   69930010000    -1.4257240 -148.7164000    -6.2593450  125.6373000   -45.3116400  -21.4193600   -37.6137700 -161.4796000 
 		      -5.6519740  124.1223000    -6.5898360 -133.0347000   -41.8464100 -120.0661000   -37.7792500 -156.0927000
 		     -24.7352200   65.1008500   -14.7793100   13.1472000    -0.9885603  108.2150000   -13.9031100   21.8956200
 		     -30.5517700  119.1505000   -29.4039700  123.9019000   -13.7535300   23.0023700    -1.0849450  118.0172000
   70000000000    -4.4759900 -153.8727000   -11.4204000  164.6756000   -47.5158000 -169.1547000   -44.1859600  149.8721000 
 		     -10.9383900  156.7270000    -0.9586948  -53.8374500   -56.3009700    3.6735410   -41.3663400  -96.0430300
 		     -25.2666600  165.3706000   -17.1152000 -178.7035000    -3.6308130  107.2118000   -13.7384000   21.6283700
 		     -35.0626300 -171.5474000   -23.4955600 -156.3596000   -13.2658500   20.4433800    -1.2863900  100.4224000
