! 4/13/2026 10:32:17 AM
! C:\ANRITSUVNA\DATA\SARA\2026-04-13 T5 MZDRV\DEEMB STRUCTURES\SHORT_1.S4P
! CHANNEL.1
! TR.MEASUREMENT
! CORRECTED.DATA
! RF.CORRECTION: FULL.FOUR.PORT.CAL.PORT.1.2.3.4
! AVERAGING.OFF
! IF.BANDWIDTH: 1KHZ
! SWEEPTYPE:  FREQ.SWEEP(Linear)
! Reference Plane Port Info
! PORT:              PORT1              PORT2              PORT3              PORT4             
! DISTANCE:          0  m               0  m               0  m               0  m              
! TIME:              0  s               0  s               0  s               0  s              
! PHASE.OFFSET:      0 °                0 °                0 °                0 °               
! LOSS:              0  dB              0  dB              0  dB              0  dB             
! REF.LOSS:          0  dB              0  dB              0  dB              0  dB             
! REF.FREQ:          0  Hz              0  Hz              0  Hz              0  Hz             
! Power Info
! POWER:             -20  dBm           -20  dBm           -20  dBm           -20  dBm          
! EFF.POWER:         -20  dBm           -20  dBm           -20  dBm           -20  dBm          
! SOURCE.ATTEN:      0  dB              0  dB              0  dB              0  dB             
! TEST.ATTEN:        0  dB              0  dB              0  dB              0  dB             
# HZ S DB R 50.0
! FREQ.HZ         S11DB        S11A          S12DB        S12A          S13DB        S13A          S14DB        S14A 
!		      S21DB        S21A          S22DB        S22A          S23DB        S23A          S24DB        S24A 
!		      S31DB        S31A          S32DB        S32A          S33DB        S33A          S34DB        S34A 
!		      S41DB        S41A          S42DB        S42A          S43DB        S43A          S44DB        S44A 
!; PortSelection: Port_1234
      10000000    -0.1058519  179.8733000   -56.3899200   14.5698900   -83.8390000  -10.8864800   -80.6401100  -77.0795100 
 		     -57.0702600   12.8745300    -0.1785504  179.9109000   -80.4043100  -32.5701900   -82.2496700   -8.1523040
 		     -78.9637100  -99.5706800   -73.6990500  124.6869000    -0.2841770  179.9442000   -51.1074700   13.5670300
 		     -77.5492900  170.6753000   -70.4813800   -1.4895020   -51.2600000   15.0941100    -0.2851469  179.9445000
      79990000    -0.1723768  179.7299000   -49.2046700   52.0544900   -83.6057100   22.6200400   -80.8443600    9.2235910 
 		     -49.7027100   51.5080700    -0.1804500  179.6561000   -83.1635200   19.0349700   -79.5160200  -37.5975600
 		     -82.9369500 -145.2774000   -79.7758200  142.4640000    -0.3105218  179.4619000   -45.2407500   39.7888300
 		     -73.3321900   15.9928600   -78.0899400   23.9760600   -45.2349700   39.7950600    -0.3097617  179.4686000
     149980000    -0.1786071  179.5356000   -46.1838000   58.1240100   -80.7997600   84.4215600   -79.1083400  -54.2338700 
 		     -45.7338600   58.3400700    -0.1942592  179.4632000   -87.7202000   26.8301200   -75.0432700  -18.5703800
 		     -78.2587500   24.6361900   -76.3931800   87.1368000    -0.3292552  179.0551000   -42.7038000   42.3733900
 		     -73.9174100   26.7143900   -75.5944000   79.4080600   -42.6400900   43.7921900    -0.3288612  179.0978000
     219970000    -0.1769246  179.2632000   -43.9410200   58.3433800   -75.6549100   87.8492500   -80.5498100   10.6266200 
 		     -43.8964300   57.3632500    -0.1930574  179.2295000   -78.5017200  -45.6878500   -74.5036900   48.0938800
 		     -73.0548200  -76.2787600   -79.7247500   17.5390200    -0.3474244  178.6939000   -41.1227600   44.0686200
 		     -85.2455300  110.0945000   -74.0174200   84.4648700   -41.2648200   44.5851200    -0.3392078  178.7136000
     289960000    -0.1878121  179.0676000   -42.4159800   59.9053000   -83.1603400   13.0771100   -76.7291600   55.2184600 
 		     -42.3753400   59.3825100    -0.1989286  179.0178000   -70.5564800    2.3893670   -68.0001100   24.7222900
 		     -69.3778700   29.0804200   -77.9001900  124.0912000    -0.3581707  178.3540000   -40.0036800   46.4505000
 		     -81.9764100  -42.8581000   -81.7619700  100.8355000   -40.0114800   46.4888800    -0.3571476  178.3766000
     359950000    -0.1895524  178.8230000   -41.1892100   59.6775100   -81.8686800   21.7362900   -68.0079800   35.8128800 
 		     -40.9662800   62.9228700    -0.2068192  178.8063000   -72.8777200  -18.7224700   -77.7617500   32.8383200
 		     -72.5246700   46.2336100   -72.8845100   -9.9597420    -0.3650613  178.0008000   -39.1704300   47.6127300
 		     -73.7569200   51.7639400   -72.7359100  -28.6388800   -39.2212100   48.7777100    -0.3582172  178.0472000
     429940000    -0.1972929  178.6255000   -40.1367600   61.4600300   -76.7224000 -124.2952000   -77.5042800    6.5204230 
 		     -40.2544000   62.9365500    -0.2066251  178.5489000   -74.5532500   36.0768900   -80.0776800    3.5367820
 		     -74.1655200   35.9350900   -89.5146300  -80.7654600    -0.3670805  177.6637000   -38.3684100   50.7881000
 		     -81.4601800   63.1060800   -72.8570700   18.0819000   -38.3917100   50.6468700    -0.3749155  177.6645000
     499930000    -0.1968774  178.4447000   -39.3062400   63.4871600   -73.2109800  -22.3358200   -76.0395400   91.3085900 
 		     -39.3853800   64.4571900    -0.2057136  178.3750000   -76.3320300   85.1380100   -74.8053300   74.9654600
 		     -84.2779500  101.3009000   -75.2627700   71.1174000    -0.3817939  177.3145000   -37.7454500   51.8577700
 		     -81.3077400   46.9505000   -81.3650700   15.1289500   -37.7876000   52.4045100    -0.3817054  177.3761000
     569920000    -0.1961453  178.2586000   -38.8916700   67.5712000   -64.6630100   74.2291900   -69.2160100  -35.2950900 
 		     -38.5869800   63.2914200    -0.2113423  178.1698000   -67.7416700 -132.9317000   -82.2249600  166.4802000
 		     -74.7975600  165.8356000   -64.6774100   50.2708900    -0.3864385  177.0387000   -37.2778000   54.5447700
 		     -65.8306500   56.8288500   -64.3685900  166.9903000   -37.3208400   51.9197100    -0.3916814  177.0762000
     639910000    -0.2014412  178.0748000   -38.0310000   66.7451700   -73.5660800  -90.2404300   -62.3927300  -83.5564000 
 		     -37.9143800   66.3090100    -0.2268799  177.9670000   -61.8069100   53.2900800   -69.3573300   83.5732000
 		     -78.4663200  -13.0256500   -65.6636700   99.7144300    -0.3947383  176.6514000   -36.1873300   58.3674800
 		     -65.3335600   -0.6698074   -59.4204900   25.8387900   -36.0645900   56.1943600    -0.3908018  176.6765000
     709900000    -0.2122716  177.8417000   -37.1859400   68.8083300   -76.5312000   23.3064100   -67.1809500  111.7749000 
 		     -37.1781200   68.1428300    -0.2157967  177.7928000   -70.7305300  -19.9436600   -84.3217800   24.9791200
 		     -70.5273200  146.3588000   -71.7284200   68.6089700    -0.4004621  176.3385000   -35.9639600   55.7553700
 		     -77.6454100  117.3600000   -72.2110400   79.3622100   -35.9562700   56.7347500    -0.4004907  176.3801000
     779890000    -0.2114453  177.6478000   -36.3720800   68.5359000   -71.5452500   36.4975500   -77.4881600  109.0433000 
 		     -36.3582500   67.1744100    -0.2263440  177.5082000   -79.6266600  -15.5051100   -81.1783200   28.9046500
 		     -71.6550300   18.7017500   -73.7971700   84.5858400    -0.4083103  176.0218000   -35.3119300   58.4779800
 		     -76.5083000  -12.9134600   -69.8932300   36.3765700   -35.3554100   58.9927100    -0.4089172  176.0311000
     849880000    -0.2169093  177.4200000   -35.7865800   69.6973300   -69.0619900   60.1601400   -74.8326400   59.2212600 
 		     -35.7462000   70.1913000    -0.2389762  177.3154000   -73.3141600   55.5402600   -76.1334700   62.9610600
 		     -64.0236700  113.0446000   -67.3995100   51.8477600    -0.4183995  175.6192000   -34.7223100   59.3523400
 		     -65.9925500   55.3150700   -71.3541100  117.8261000   -34.7694400   60.1275700    -0.4137949  175.6736000
     919870000    -0.2130507  177.2397000   -35.2782000   69.5014600   -83.0216100   20.9048200   -71.8708500   33.5801600 
 		     -35.3448400   71.2953900    -0.2329508  177.1897000   -74.6028100   82.6786900   -70.6609900   47.8455400
 		     -69.6326100   29.2106200   -65.5044700   59.7126200    -0.4251856  175.3360000   -34.3020600   60.6110800
 		     -65.4436400   66.0671700   -73.9405200   15.3658400   -34.2563900   60.8155900    -0.4155017  175.3781000
     989860000    -0.2188913  177.0468000   -34.6557300   70.9436000   -74.5971800   93.6968600   -76.0130200   17.8936800 
 		     -34.7269500   70.8153000    -0.2349677  177.0021000   -78.0169300   34.3814700   -78.0165300   30.8211400
 		     -69.6181100   77.5714100   -74.5892200  -88.0699100    -0.4235552  175.0809000   -33.7328900   61.4485300
 		     -77.5626700   66.9635800   -77.1859400   71.3110000   -33.8694000   61.5879200    -0.4218835  175.0458000
    1059850000    -0.2176756  176.8618000   -34.2272500   69.2014700   -72.1141900   89.3020900   -74.3302600   43.0221700 
 		     -34.2533900   71.7557000    -0.2386866  176.8273000   -74.3284900   51.8972900   -74.7141700   32.2608800
 		     -69.0830100   71.7006800   -64.3722300   72.2249500    -0.4300490  174.7384000   -33.3215400   62.2036100
 		     -86.6224700 -110.6676000   -77.6874100  -72.6511200   -33.3379200   62.6368000    -0.4327284  174.7504000
    1129840000    -0.2332193  176.7081000   -33.4570200   72.9355100   -75.0954700  124.8446000   -77.4474800   68.5572400 
 		     -33.6862300   72.5612900    -0.2510133  176.5993000   -77.3987900   85.2613000   -68.3745000   50.4332400
 		     -67.7062100  116.8958000   -73.0506400   96.0114900    -0.4420130  174.3678000   -32.9948500   63.5178900
 		     -87.7891600   59.1621100   -64.1197700   94.5645600   -32.9591100   63.0679100    -0.4365508  174.3837000
    1199830000    -0.2309151  176.4936000   -33.3156600   73.1964400   -71.3201700   67.0062500   -71.8876000   45.2686000 
 		     -33.3343200   72.9029600    -0.2471463  176.4059000   -74.3489800   46.8059500   -69.8324100   71.1435200
 		     -71.8293800   54.2045500   -70.1365800   54.8778500    -0.4437475  174.1140000   -32.4825200   64.0340000
 		     -83.0163400   49.2145600   -70.0384600   68.7677500   -32.5070700   64.1266400    -0.4461324  174.1148000
    1269820000    -0.2310584  176.2903000   -32.8096500   72.4146300   -71.0164600   59.4514000   -73.5697100   22.2730200 
 		     -32.8253200   72.0875800    -0.2428420  176.2169000   -76.6303300   64.5292400   -71.1848300   34.1885500
 		     -73.1676800   15.4428000   -71.9694500   86.3800500    -0.4438490  173.8152000   -32.1366400   63.7471700
 		     -74.7579600  -25.8400700   -72.6583300   18.5783300   -32.0741100   63.8980000    -0.4500022  173.7767000
    1339810000    -0.2320831  176.0892000   -32.3877000   73.0617800   -71.3857400   85.1769200   -72.2423600   79.3956100 
 		     -32.3536600   73.9385500    -0.2490884  176.0436000   -79.5967600   74.1435300   -83.9226400   63.6416900
 		     -67.6225900   77.6252100   -78.0394100   58.3010500    -0.4596113  173.4202000   -31.7317700   64.8763000
 		     -70.0059200  129.6731000   -82.1207700   47.4926700   -31.7731700   64.6668400    -0.4625413  173.4452000
    1409800000    -0.2362202  175.9137000   -31.9831700   73.1139500   -77.9176200  100.1511000   -72.4932600   31.8857800 
 		     -31.9396200   73.2415400    -0.2465422  175.8791000   -75.0292800   66.3124800   -63.3924300   68.6643600
 		     -66.1292300   46.7517300   -66.7703500   74.5150300    -0.4628607  173.2417000   -31.3310000   65.1048100
 		     -67.2830500   37.3535000   -67.0564600   80.3908500   -31.3054600   64.9348300    -0.4647571  173.1808000
    1479790000    -0.2436064  175.6930000   -31.5855600   72.4091400   -68.9418200   32.6554700   -67.9352100   -2.5502730 
 		     -31.6555200   73.2979000    -0.2469970  175.6454000   -78.5518800   25.5661300   -72.9920400   73.0522200
 		     -73.3916600   53.7106900   -64.9291200    9.1714580    -0.4691889  172.8973000   -30.9819400   65.1399600
 		     -68.8212300   93.4060100   -67.0530800   95.1926900   -31.0498300   65.7398800    -0.4654034  172.9026000
    1549780000    -0.2475681  175.5091000   -31.2741600   73.8558800   -73.9521200   44.7933300   -73.1288800   34.0579500 
 		     -31.1184100   74.1886700    -0.2666120  175.4464000   -71.2791700   76.1604800   -68.3495500   50.4108300
 		     -65.5994600   48.6980700   -80.1356100   52.0773900    -0.4654984  172.5883000   -30.6245000   65.9354600
 		     -67.2541100   31.1991200   -70.1305400   65.6498700   -30.6490900   66.1078600    -0.4720357  172.5977000
    1619770000    -0.2466085  175.3757000   -30.9468700   73.5223600   -67.3549000   78.1898600   -75.9382900   72.5220000 
 		     -30.9659700   74.0798000    -0.2665341  175.3155000   -70.3841800   43.3063100   -68.2125800   72.0244900
 		     -75.9336700   73.0166400   -68.0175700   19.2424200    -0.4769267  172.2531000   -30.2462400   66.2782900
 		     -67.6531100   60.1697300   -72.0241500  -37.0902200   -30.2786400   65.4548300    -0.4797320  172.2798000
    1689760000    -0.2468244  175.1430000   -30.6618700   74.3839400   -71.4928700   31.0738700   -75.0111500   90.0043300 
 		     -30.6267500   74.6379800    -0.2605594  175.1148000   -74.0123100   31.9499100   -65.8740500   38.0445900
 		     -61.1081100   43.9063700   -77.8290300  -72.6525600    -0.4835101  172.0275000   -30.0240900   65.8407700
 		     -62.2369800   45.9925000   -66.5621800   78.1710100   -30.0319600   66.5779700    -0.4845880  171.9721000
    1759750000    -0.2504553  174.9728000   -30.1877900   74.3194000   -70.3014700   76.6650600   -83.2737400  142.4136000 
 		     -30.1735900   74.1283500    -0.2607941  174.9850000   -71.9389200   70.5312300   -68.0096000  -17.3312400
 		     -69.5830400   29.0058900   -63.9435000  159.1689000    -0.4818932  171.6927000   -29.7799100   66.7751800
 		     -66.4602800   29.8809100   -66.8376900  148.5130000   -29.6851600   66.3822800    -0.4828024  171.6315000
    1829740000    -0.2553118  174.7928000   -29.9182900   74.1085400   -68.3816200   68.5840900   -68.9989200   81.3279800 
 		     -29.9995200   74.5111800    -0.2718297  174.6720000   -69.7381400   83.7121700   -79.7855000   28.8949400
 		     -77.0205100  166.9849000   -64.3302100  133.9999000    -0.4894732  171.3615000   -29.3525800   66.2811800
 		     -65.7772100   46.0473500   -68.6800700  -87.0353600   -29.4389700   67.0820100    -0.4888854  171.3806000
    1899730000    -0.2634536  174.5796000   -29.5571900   74.2982300   -68.3394600   81.6935400   -70.3700700   97.0193600 
 		     -29.6074400   74.0988800    -0.2715054  174.5385000   -68.6813500   61.0888300   -67.0550100   65.9205300
 		     -63.1449200  134.5421000   -64.3458700   94.7411100    -0.4959732  171.0695000   -29.1829900   66.4211100
 		     -91.2902200    5.9929140   -60.4280500   34.9199600   -29.1268000   66.7466600    -0.4975890  171.0685000
    1969720000    -0.2553810  174.4070000   -29.3150700   74.8965500   -70.2039400   53.4647300   -70.7675500   63.2205800 
 		     -29.4398500   74.2783100    -0.2754515  174.3286000   -78.6747900   49.0597600   -73.4211000   92.6744800
 		     -62.3359100   52.2701500   -77.6035000   36.5296700    -0.4999592  170.7621000   -28.8444500   66.8138000
 		     -63.1855400   78.2570400   -70.4208900   42.0964800   -28.8781400   66.6966900    -0.4996461  170.7518000
    2039710000    -0.2622158  174.1931000   -29.0503100   74.6265300   -66.7460700   67.9456600   -69.0942100   50.3368600 
 		     -28.9966200   74.5778000    -0.2824053  174.0811000   -73.7670200   67.0322600   -71.0865700   34.2223700
 		     -72.4358500  -49.9834800   -67.8028700  102.5749000    -0.4965078  170.4225000   -28.6025600   66.8110800
 		     -73.1580000   84.8602600   -69.3105400   43.1048600   -28.6294100   67.1820200    -0.5009308  170.4264000
    2109700000    -0.2586808  174.0316000   -28.7133100   74.5305000   -67.2736400   54.8148700   -68.1010400   63.2886100 
 		     -28.9125200   74.4117600    -0.2739903  173.9823000   -68.9740800   88.7801100   -67.7422800   62.8225500
 		     -66.4287600   68.0291700   -61.8117900  -10.4797200    -0.5056117  170.0979000   -28.2848900   67.5740100
 		     -64.3867600   29.3602800   -72.4218400  128.8148000   -28.2780500   66.4974500    -0.5052694  170.1448000
    2179690000    -0.2655357  173.8454000   -28.6318200   74.5804400   -69.3816100   47.4975800   -73.7283600   35.5215700 
 		     -28.5334500   74.4806900    -0.2815413  173.7770000   -70.5563000   75.2327200   -69.9336100   51.9074800
 		     -69.7688900   84.1735800   -64.2085000   71.2174600    -0.5123311  169.8056000   -28.0914200   67.3015400
 		     -69.6665000   39.5425200   -69.9158300  -32.1863800   -28.0996500   67.1389000    -0.5114900  169.8424000
    2249680000    -0.2579693  173.6591000   -28.1902300   75.0275900   -77.8488700   34.8272700   -65.9856700   62.7553600 
 		     -28.3609900   74.5402100    -0.2766429  173.5828000   -73.0432800   14.6994000   -72.1271700   64.1582200
 		     -64.1973300   55.3994700   -66.0894900   22.0349300    -0.5121592  169.5374000   -27.7849900   67.3787200
 		     -74.8086200   48.7052000   -67.0771900  103.6488000   -27.7888200   67.5620700    -0.5146951  169.4991000
    2319670000    -0.2722233  173.4041000   -28.0350000   74.4507800   -71.5855900   51.2776500   -82.9780200  150.0846000 
 		     -28.1060300   74.6904800    -0.2846985  173.4185000   -64.9792500   77.4595800   -69.5696000   39.0322600
 		     -68.2476000   77.4400700   -67.0311700   15.6133100    -0.5190641  169.1720000   -27.6288000   65.9221000
 		     -63.0005000  103.0785000   -63.0112300   49.1207100   -27.6468200   65.6176900    -0.5225679  169.1782000
    2389660000    -0.2757202  173.2603000   -27.7734100   73.7839500   -68.3913000   86.8914900   -67.1122400   76.0384100 
 		     -27.8725300   74.2656500    -0.2857285  173.2599000   -68.3610400  103.8973000   -72.7337600   63.8558800
 		     -63.2296500  119.4736000   -72.1054800   69.5146700    -0.5278851  168.8774000   -27.2740900   67.2752200
 		     -71.7711900   56.0505100   -70.9202300  125.2321000   -27.2683000   67.7057600    -0.5297838  168.9316000
    2459650000    -0.2757701  173.1003000   -27.5317000   74.2115600   -71.3096400   80.1411300   -81.4896000  104.9298000 
 		     -27.6602800   74.6020200    -0.2762606  173.0256000   -66.5735700   76.4981200   -68.4072000   61.0155900
 		     -66.6962700   85.1760000   -67.7533200   36.2255100    -0.5281400  168.6500000   -26.9576600   65.8549700
 		     -68.9664000   91.1656300   -68.7681400   -4.9348110   -26.9115500   65.8863500    -0.5256480  168.6280000
    2529640000    -0.2566018  172.7874000   -27.4135500   74.1472600   -66.6914700   50.3976600   -72.4629300   32.0151700 
 		     -27.4091800   73.8546200    -0.2711370  172.7444000   -68.8214200   61.8697500   -71.5001800   64.9850500
 		     -62.2437500   23.6021500   -68.8488500  113.7780000    -0.5223749  168.3175000   -26.8768100   67.1944700
 		     -68.8942300   13.8397200   -78.1255300  -85.5643400   -26.9295000   67.0143200    -0.5246609  168.3228000
    2599630000    -0.2640681  172.6958000   -27.0883800   73.4825400   -68.2767300   49.1262400   -73.2712900  155.7869000 
 		     -27.1195500   74.1342600    -0.2902283  172.6021000   -68.3543200  116.4579000   -68.6097600   63.1962500
 		     -67.1451300   43.1712200   -80.7113600   55.7964300    -0.5218889  168.0691000   -26.6786000   66.7067800
 		     -62.8960800   50.8158600   -61.3896300   67.0135200   -26.7092100   66.4895700    -0.5293156  168.0437000
    2669620000    -0.2725052  172.5573000   -26.9661300   74.5721200   -66.7689600   68.1365900   -72.1970500   87.6478000 
 		     -26.9688000   74.0245100    -0.2865646  172.5218000   -68.2812600   89.7412300   -68.5191800   65.8344600
 		     -69.3389100   92.1332400   -72.3933900   38.1123700    -0.5282031  167.7373000   -26.5093300   66.7005200
 		     -69.6682500   80.7579500   -62.3323900   70.3061000   -26.4967700   66.6684000    -0.5336725  167.7396000
    2739610000    -0.2746212  172.4377000   -26.7026200   74.3086500   -72.2973000   82.9173300   -70.1316200   69.5839200 
 		     -26.7706100   74.1533200    -0.2929759  172.3502000   -69.1947500  113.4289000   -68.4362300   60.6254000
 		     -74.4808100   70.4936500   -68.2911600   10.7643200    -0.5343577  167.4803000   -26.3100300   66.5436900
 		     -66.8921800   41.1974800   -65.7693300   63.2722100   -26.2055100   66.8611500    -0.5429984  167.4852000
    2809600000    -0.2787426  172.2293000   -26.4912600   73.6364000   -64.0381300  100.4495000   -71.0314800   57.4789400 
 		     -26.5333900   74.0362400    -0.2913510  172.1797000   -66.3645800   91.5778900   -66.2830900   60.3812900
 		     -63.1427600   57.8022200   -76.6456500   71.7338700    -0.5413907  167.2465000   -26.0648800   66.2869600
 		     -63.7487700   53.9161400   -66.4849200   43.2714000   -26.0815500   66.4826400    -0.5372980  167.1602000
    2879590000    -0.2767180  172.0424000   -26.3181900   74.6843400   -65.8360000   79.3318200   -62.4413700   39.1769800 
 		     -26.3254500   73.7524200    -0.3023844  171.9686000   -74.6802100  161.3211000   -66.2781200   70.8662700
 		     -64.8778200   31.6786700   -76.5404200  131.7903000    -0.5494236  166.9520000   -25.9015400   66.1894300
 		     -73.2349900  131.9575000   -67.4353800   88.5642200   -25.9266500   66.1009100    -0.5464835  166.8780000
    2949580000    -0.2870563  171.8140000   -26.1600200   73.7599500   -68.6341500   97.8402100   -73.7899100   43.3212000 
 		     -26.1640600   74.2361800    -0.3034319  171.7741000   -70.8437700  113.5742000   -68.8925000   96.4420900
 		     -66.2826600   53.3209700   -64.6018000   37.3734600    -0.5423249  166.6048000   -25.6554200   66.1853000
 		     -69.4380700   94.7356000   -61.5428400   82.8129400   -25.7203800   66.2215200    -0.5531796  166.5799000
    3019570000    -0.2821346  171.6482000   -26.0235300   73.8576700   -67.2296100   63.8040100   -67.9067200   65.4844100 
 		     -25.9083300   74.1095400    -0.2958503  171.5871000   -67.4429200  109.6183000   -66.0566900   61.6774000
 		     -64.1998000   74.8953500   -68.3711000  -10.8636100    -0.5471064  166.2838000   -25.5411000   65.7568600
 		     -72.2767300   42.8641500   -59.8799400  102.7420000   -25.5828200   65.7183800    -0.5589246  166.3066000
    3089560000    -0.2837752  171.4692000   -25.8157300   73.5858000   -67.4581800   83.3490000   -65.5707500   86.7890800 
 		     -25.7375900   73.4397400    -0.2958985  171.3719000   -65.2486200   60.2066800   -62.9321400   64.7903700
 		     -62.4545200   41.0157600   -67.8016100   98.1354100    -0.5613739  166.0023000   -25.3914700   66.0289700
 		     -62.3360100   67.1008700   -67.3376600  121.0230000   -25.3587200   66.0619500    -0.5541233  166.0255000
    3159550000    -0.2891738  171.2602000   -25.6131200   73.1420500   -64.4307900   84.1503200   -66.3671800  113.7943000 
 		     -25.5373600   73.3791900    -0.3050106  171.2345000   -67.9896700   52.0157400   -65.0782600   51.5321900
 		     -62.5527100   74.1639400   -67.6045800   65.3716300    -0.5582713  165.6892000   -25.1719200   65.8110200
 		     -62.1907500  101.4305000   -62.0111100   54.1365200   -25.2365800   65.8016700    -0.5642968  165.6769000
    3229540000    -0.2865157  171.1157000   -25.4379000   74.0501800   -63.6565000   76.8619800   -64.6741600   52.1932200 
 		     -25.4276000   73.7211500    -0.3042484  171.0137000   -62.9912200   85.8666500   -66.0394500   86.9263000
 		     -64.9455900  102.4721000   -69.0062800   40.8585700    -0.5577050  165.4177000   -25.0571100   65.5090800
 		     -69.9340900   70.3091400   -72.3977400  -10.1842400   -25.0234600   65.6618400    -0.5714650  165.3768000
    3299530000    -0.2860180  170.9286000   -25.3047900   73.8674600   -66.3864600   41.6232300   -67.5024700   47.6712700 
 		     -25.2778000   73.2669600    -0.3098804  170.8729000   -71.0476800   34.7917800   -69.0619700   76.0921900
 		     -61.2745200   70.4804400   -69.1563100   90.2898600    -0.5735458  165.1298000   -24.9118500   65.7529900
 		     -66.5285900   65.5072200   -62.4503300   45.1969100   -24.8977500   65.1934000    -0.5658981  165.1100000
    3369520000    -0.2982723  170.8223000   -25.1197200   73.4083200   -68.7723800   87.2581200   -68.3797900   79.6708300 
 		     -25.0402900   73.5750100    -0.3097184  170.6806000   -66.3512000   63.3414000   -64.4734000   90.6708500
 		     -69.0379900   67.2394900   -64.7012700  114.3125000    -0.5679911  164.8436000   -24.7167200   65.3421700
 		     -69.9772000  110.5887000   -61.3587500   82.3915900   -24.6772200   65.5050900    -0.5809683  164.8469000
    3439510000    -0.2958375  170.5874000   -24.8741700   73.4720200   -63.6190800   77.4993500   -65.9108400   49.1313800 
 		     -24.9293600   73.2536800    -0.3214034  170.4946000   -66.7339600   65.5425900   -66.1372800   78.0592100
 		     -67.1369800   79.3313800   -68.3971300  -24.3174800    -0.5713698  164.4890000   -24.5176100   64.9983300
 		     -72.0049000   34.5845600   -62.8031400   56.7454200   -24.5384300   65.0466300    -0.5740058  164.5237000
    3509500000    -0.2966132  170.3763000   -24.8154600   73.2435800   -64.4566500   54.9067900   -68.0018200   46.8189800 
 		     -24.7458300   73.2725700    -0.3211601  170.2863000   -64.8081100   75.9054900   -64.3998100   77.2057200
 		     -66.1069700   85.9668400   -70.8209300   98.4100600    -0.5909013  164.2249000   -24.4461500   64.9537200
 		     -62.9495600   52.0722500   -62.0785700   81.0230600   -24.4231600   65.0632700    -0.5877153  164.2202000
    3579490000    -0.3037234  170.2282000   -24.6525000   73.0772200   -63.2380000   37.4901300   -64.8462100   74.1611400 
 		     -24.6131800   73.1689000    -0.3219679  170.1033000   -65.9495200   84.2441700   -67.5419200   63.6792400
 		     -63.0647400   34.5139600   -63.8210600   57.8672300    -0.5864305  163.9520000   -24.2174400   64.8944100
 		     -66.0638500   45.1378900   -61.7286700   59.2303200   -24.2937200   64.7145400    -0.5894014  164.0016000
    3649480000    -0.3035637  169.9932000   -24.4256400   73.5729800   -65.4238700   55.0078400   -64.8993800   68.4168900 
 		     -24.5202500   73.0333400    -0.3260160  169.9059000   -66.3467100   68.7566900   -61.5608600   95.7381600
 		     -64.1729300   79.9692200   -62.6220600   57.7301300    -0.5910202  163.6798000   -24.0973900   64.6798600
 		     -61.7165000   70.2369500   -60.9845500   83.0964600   -24.1291400   64.4772400    -0.5898171  163.6423000
    3719470000    -0.3194165  169.9017000   -24.2132000   72.9987200   -67.2113300   81.1426000   -63.5386500   68.7092400 
 		     -24.3579700   73.3432100    -0.3255992  169.7513000   -65.6909000   49.6840000   -65.6032300   57.4650900
 		     -62.3037800   46.5306700   -60.8928800   66.6941800    -0.5882512  163.3805000   -23.9253400   64.6122700
 		     -65.0254700   78.3441000   -64.4888900   75.9161200   -23.9546200   64.8201700    -0.5998821  163.3841000
    3789460000    -0.3235662  169.7990000   -24.1853000   72.6609100   -63.1948800   71.8326000   -67.0249500   48.0647000 
 		     -24.1236900   73.0835000    -0.3380495  169.6996000   -69.0872000   32.3890300   -71.3365400   11.9221200
 		     -63.3535300   54.6176400   -63.8375600   38.3611200    -0.5959489  163.0949000   -23.8372700   64.4036800
 		     -66.3547100   66.2058100   -69.3931900   28.0566400   -23.8339500   64.4690600    -0.6072643  163.0682000
    3859450000    -0.3108021  169.6674000   -24.0106500   72.1796900   -66.9032700   63.3673900   -62.9095600   89.1884900 
 		     -23.9921400   73.6713500    -0.3187005  169.5684000   -76.5021700   59.9014700   -61.0115600   73.7185500
 		     -63.0071700   58.1443000   -70.7324700    7.3888160    -0.5993299  162.8143000   -23.6933400   64.5829900
 		     -66.7849700   83.9804800   -58.9800800   59.3151500   -23.6834600   64.4078300    -0.6132121  162.7816000
    3929440000    -0.3031949  169.3490000   -23.7906300   73.1369900   -68.0229900   42.5075300   -71.5902700  109.0322000 
 		     -23.8268500   72.2966100    -0.3058210  169.2877000   -64.1836200   65.6381000   -66.1344700   52.5453100
 		     -68.9551600    3.4903210   -62.6607700   21.3261600    -0.6024037  162.4626000   -23.4995000   64.3050000
 		     -64.0818300   48.9742900   -74.1756100   99.5056000   -23.5341700   64.1798100    -0.6074412  162.5138000
    3999430000    -0.3128155  169.1666000   -23.7516200   72.9939800   -62.5816400   59.4289700   -62.0594300   80.3430000 
 		     -23.6635000   72.3995700    -0.3175432  169.0286000   -69.7862300   46.1215700   -60.5792000   83.0228800
 		     -71.1003800   19.5247300   -65.1815700   90.9399200    -0.5930272  162.2737000   -23.4201800   64.0223400
 		     -67.2368300   64.7352800   -72.1667900   90.6820300   -23.4008200   64.0246600    -0.6136227  162.2003000
    4069420000    -0.3250200  168.9232000   -23.5468300   72.2367200   -62.7338100   84.3892000   -68.1287700   60.1463800 
 		     -23.5958000   72.1616600    -0.3314146  168.9079000   -66.2841000   39.5823900   -62.5540200   62.9180300
 		     -72.4239300   58.6450900   -64.9279100   24.3200900    -0.6053451  161.9067000   -23.2556200   63.8480600
 		     -65.0931600   78.9754800   -67.9720200   37.5270700   -23.2620300   64.0489300    -0.6128562  161.9348000
    4139410000    -0.3224399  168.7612000   -23.4087300   72.0539900   -61.6921000   76.2693300   -65.4597100   60.8152400 
 		     -23.4680900   72.7411100    -0.3264098  168.6947000   -65.7856600   58.7517900   -65.9325000   50.7999500
 		     -64.8066400  103.5666000   -74.0610700 -179.3972000    -0.6175054  161.6301000   -23.1278400   63.5629800
 		     -62.2736500   40.1764000   -66.2615500   50.7207400   -23.1671600   63.6333300    -0.6174015  161.6349000
    4209400000    -0.3288576  168.5873000   -23.3923700   72.0754100   -66.5719500   90.8838300   -65.4369700   59.2538000 
 		     -23.2750800   72.1593600    -0.3240716  168.4719000   -62.4281800   65.2926900   -65.9828800   73.3715400
 		     -64.8634300   57.7053900   -61.8214600   87.5146600    -0.6160983  161.3163000   -23.0187100   63.4001700
 		     -68.7553900   67.3236400   -62.1778900   28.5831800   -23.0762800   63.2562400    -0.6214823  161.3470000
    4279390000    -0.3221017  168.4016000   -23.2158000   71.9445100   -65.5090800   59.1941800   -63.3782000   48.2028100 
 		     -23.1617000   72.1949900    -0.3365802  168.3681000   -64.3645200   58.6371000   -62.7849400   61.8881000
 		     -67.8173700   55.7073200   -64.0955700   61.1062300    -0.6140043  161.0743000   -22.9052900   63.4641900
 		     -63.9232300   69.5879900   -65.6104000   50.3857300   -22.8870000   63.2874100    -0.6189386  161.0308000
    4349380000    -0.3338812  168.1852000   -23.0675700   72.1127000   -61.7411000   56.3515000   -66.5253700   49.4244200 
 		     -22.9993600   71.9224800    -0.3430406  168.1427000   -62.2756600   78.3767400   -65.0873900   86.8023700
 		     -63.1868300   78.0431900   -70.5586800   73.8995100    -0.6234843  160.8405000   -22.7980100   63.0190300
 		     -60.9322900   31.8491400   -62.7747000   77.9474600   -22.7958600   63.0302800    -0.6224113  160.6922000
    4419370000    -0.3284957  168.0298000   -22.9446000   71.7528500   -63.2728900   62.4599100   -67.4728700   65.8504900 
 		     -22.9440200   71.8118700    -0.3441728  167.9944000   -69.7362200   40.2669300   -62.6413300   77.8942200
 		     -61.0959500   87.1627200   -62.5849200   32.7718000    -0.6250605  160.4440000   -22.6501400   63.0100100
 		     -63.2509900   63.8530400   -62.8035400  125.6303000   -22.6663900   62.9723800    -0.6300238  160.4742000
    4489360000    -0.3358854  167.8688000   -22.8080200   71.5676300   -67.7267300   72.2627800   -68.0151700   56.1445000 
 		     -22.7738200   71.7312400    -0.3401864  167.8343000   -65.7227400   55.4725200   -64.5497400   52.3292700
 		     -64.0194100   41.8254100   -64.6514800   83.1483600    -0.6308781  160.2090000   -22.5328900   62.5109300
 		     -68.0178900   62.5840700   -63.8556300   32.5238500   -22.5263400   62.3833200    -0.6324420  160.1738000
    4559350000    -0.3390259  167.7062000   -22.6266100   71.6693200   -62.5535200   52.1922500   -65.2103000   51.5691100 
 		     -22.6924400   71.6897800    -0.3452823  167.6423000   -64.8299100   66.7686900   -62.8315600   45.4503200
 		     -64.7410500   54.4890200   -67.1346100   78.7737300    -0.6301717  159.8873000   -22.3893500   62.4523300
 		     -66.9942300   79.7202500   -60.7869500   34.5833600   -22.4187800   62.3905400    -0.6271147  159.9389000
    4629340000    -0.3381771  167.4906000   -22.5582700   71.4060100   -72.0176200   80.6446700   -66.4528900   66.2915400 
 		     -22.5835100   71.6915700    -0.3483634  167.4884000   -67.6129800   82.0506200   -64.3009800   55.4474400
 		     -64.0554200   63.2771400   -71.6749500   74.0453900    -0.6449941  159.6739000   -22.3467700   62.6171200
 		     -60.0045400   73.2291300   -62.4715100   63.0934700   -22.2938200   62.1369100    -0.6440821  159.6064000
    4699330000    -0.3457826  167.3015000   -22.4929900   71.6127800   -63.4853000   49.9544100   -66.3675700   60.2285100 
 		     -22.4462900   71.4416700    -0.3563729  167.2784000   -66.8417700   51.6599100   -63.3601500   69.1391000
 		     -61.1762000   67.5750000   -65.6128800   19.4050400    -0.6424086  159.3580000   -22.2241600   62.1244900
 		     -69.6925600   55.1053800   -67.5995800  118.3788000   -22.1981600   62.2939600    -0.6415224  159.3500000
    4769320000    -0.3421465  167.1514000   -22.3293500   71.6999500   -67.7156400   48.6893200   -66.5967400   49.5114300 
 		     -22.2821600   71.0959900    -0.3544417  167.0791000   -65.0768300   69.6032200   -70.4007000   71.7784600
 		     -73.0061500   51.9116100   -66.6157000   93.9658100    -0.6331979  159.0420000   -22.1145100   61.7262500
 		     -64.6543400   80.2149400   -64.9997700   60.0538900   -22.0336500   61.8611400    -0.6521145  159.0321000
    4839310000    -0.3571901  166.9676000   -22.1588900   71.1210200   -63.4305600   83.8759500   -64.3462400    2.6549420 
 		     -22.1989200   70.9640700    -0.3506679  166.8620000   -66.7617300   90.2829900   -67.1502800   40.8765900
 		     -64.4925900   77.6377300   -66.0033500   52.5841200    -0.6547072  158.7498000   -21.9854500   61.6750900
 		     -64.1427000   83.1731500   -58.6487000   66.7479300   -21.9477800   61.7520600    -0.6507557  158.7665000
    4909300000    -0.3488274  166.8332000   -22.0482000   70.3302500   -60.5920800   51.7803400   -66.5072300   90.4073300 
 		     -22.1219400   70.7114100    -0.3614369  166.6983000   -66.4738000   70.8711900   -65.1533100   41.6113000
 		     -64.5771500   70.2069800   -62.8743400   62.4410200    -0.6553730  158.4657000   -21.8745900   61.2893900
 		     -65.5940700   52.9224900   -63.3931700   63.9794000   -21.8854500   61.6002300    -0.6550470  158.4902000
    4979290000    -0.3481889  166.6291000   -22.0752900   70.5393500   -62.6897100   52.0046200   -65.2120700   70.4851000 
 		     -21.9857200   70.2804300    -0.3601730  166.5258000   -64.3062500   63.2485700   -64.6556300   44.2374000
 		     -65.1731300   80.1977500   -70.3650300  162.3831000    -0.6498337  158.1850000   -21.7395400   61.1866100
 		     -67.0857400   58.5377400   -67.2293500   55.9845500   -21.7106300   61.0592200    -0.6575051  158.2409000
    5049280000    -0.3572328  166.4765000   -21.8710500   70.9523400   -61.1607400   59.7606700   -65.2954600   61.9846700 
 		     -21.8569500   70.4288900    -0.3568107  166.4297000   -68.7138500   54.8752600   -63.0715900   46.9478200
 		     -59.3543400   55.0242400   -60.5265800   39.5407000    -0.6612039  157.8105000   -21.6603900   60.9974400
 		     -62.9821000  123.9461000   -60.7189700   80.6890500   -21.6291600   61.0872300    -0.6612892  157.8866000
    5119270000    -0.3596570  166.2807000   -21.7015400   70.8256600   -64.6604700   78.5527900   -66.3152600   60.6951700 
 		     -21.8082400   70.4716600    -0.3720132  166.1776000   -65.4809800   60.5861400   -65.1833800   35.4548900
 		     -64.1764300   62.1521400   -68.1317700   46.5710400    -0.6672248  157.6071000   -21.5458000   60.8787000
 		     -60.1843700   29.6909800   -55.8650500   99.7364100   -21.5344700   61.0452300    -0.6726869  157.5525000
    5189260000    -0.3644627  166.1504000   -21.5720300   70.6276700   -60.2767100   57.9515800   -65.0331600   52.5783700 
 		     -21.6795800   70.6169000    -0.3611589  166.0513000   -63.0301900   58.1422400   -65.4625900   68.7442600
 		     -70.4867600   67.8552200   -71.0480000   97.2342100    -0.6652865  157.3954000   -21.4403200   60.7477800
 		     -63.2251500   31.5998700   -66.0090000   78.7220600   -21.4474200   60.5381800    -0.6737348  157.2603000
    5259250000    -0.3595766  165.9592000   -21.4900900   70.1419100   -62.2164500   62.3350300   -63.5450600   71.8252000 
 		     -21.5136100   70.1479100    -0.3626470  165.9002000   -66.3659900   75.5817300   -66.6165200   43.3994700
 		     -64.8485000   58.0542800   -59.5899000   56.4543400    -0.6661519  157.0791000   -21.3650500   60.4756900
 		     -64.4222000   76.7032000   -63.8103500   84.5760200   -21.3854600   60.5509500    -0.6589079  156.9781000
    5329240000    -0.3669338  165.8112000   -21.4873300   70.2692100   -62.4897500   37.2004100   -63.3467300   74.2231800 
 		     -21.4646300   70.0855600    -0.3740060  165.6805000   -66.2718700   36.3370300   -66.1393200   58.5093300
 		     -59.1514200   76.0129900   -64.8243100   10.7685400    -0.6664740  156.7260000   -21.2816600   60.5647900
 		     -62.0411300   52.0336800   -57.5293300   63.4048100   -21.2770100   60.3610900    -0.6794055  156.7903000
    5399230000    -0.3603252  165.5937000   -21.3157100   70.1689800   -66.8343800  111.6167000   -73.9898800   77.8653700 
 		     -21.3924600   69.6950000    -0.3690565  165.4693000   -65.3773200   49.6604500   -61.8980600   70.4563100
 		     -70.9281800   79.0291400   -66.0852100   96.6736100    -0.6717438  156.5005000   -21.1810500   59.8007400
 		     -63.8684800   53.6542700   -59.5233800   51.4390100   -21.2055400   60.1402200    -0.6866447  156.4524000
    5469220000    -0.3564417  165.4080000   -21.2160200   69.8478400   -64.2676500   57.4365800   -66.5749700   59.0227000 
 		     -21.2830200   69.6552300    -0.3703767  165.3529000   -63.2808500   60.1969800   -62.3944200   59.0742900
 		     -67.3313600   70.1478700   -60.7854400   59.2167700    -0.6821442  156.1623000   -21.0838100   59.7768800
 		     -80.1122700 -123.7923000   -65.2042700   27.7896800   -21.1219700   59.4460000    -0.6852683  156.1233000
    5539210000    -0.3691024  165.2305000   -21.0748800   69.4582500   -63.8203600   70.2317500   -64.3421100   80.2068500 
 		     -21.1305100   69.7569900    -0.3684182  165.1608000   -63.6315200   62.4924200   -64.2846900   84.4667900
 		     -62.9622700   50.7979400   -73.0978600  113.0403000    -0.6872699  155.8855000   -20.9746000   59.3315300
 		     -60.8908300   48.7305100   -59.1995200   65.9616200   -21.0481600   59.6690200    -0.6815188  155.8522000
    5609200000    -0.3658508  165.0707000   -21.0471700   69.3801400   -64.8865800  102.9627000   -64.5036800   39.3675400 
 		     -21.0982200   69.9231300    -0.3706273  164.9592000   -70.5297200   84.8482100   -62.4880400   54.1633100
 		     -62.8006900   71.1548600   -63.6118400   77.4596600    -0.6786049  155.6272000   -20.9038400   59.1384100
 		     -66.7846300   91.7583600   -63.6785300   25.9100600   -20.9343800   59.1240100    -0.6910039  155.6342000
    5679190000    -0.3709719  164.8914000   -20.8914700   69.0955400   -64.3349000   53.8356500   -61.3974800   58.1493800 
 		     -20.9748700   69.4944800    -0.3681034  164.8043000   -63.0818700   51.4769900   -67.6452000   78.5082100
 		     -61.1222400   73.9759800   -72.3841200  137.8187000    -0.6900495  155.3382000   -20.7992200   58.8211800
 		     -64.9959400   68.7227900   -60.9296200  107.9690000   -20.8001000   58.8274500    -0.6966968  155.3462000
    5749180000    -0.3693958  164.7223000   -20.8835400   69.4570500   -62.4735400   66.4197800   -68.3035400   58.5016000 
 		     -20.9180300   69.1702000    -0.3805380  164.6366000   -67.3353000   71.6651700   -62.9455100   81.4368100
 		     -60.3184200   43.2004200   -69.1232700  155.3122000    -0.6798365  155.0681000   -20.6911600   58.8416100
 		     -66.1703500   60.2227700   -60.3020200   45.0883300   -20.7135400   58.5100000    -0.6910536  155.0650000
    5819170000    -0.3729730  164.5346000   -20.7158600   69.4762600   -64.6061900   64.7507200   -62.5142700   91.9452400 
 		     -20.7803800   69.3911100    -0.3871828  164.4554000   -69.2806300   70.5308800   -62.7221500   54.0528300
 		     -65.4506800  117.0588000   -64.5409500   66.6896100    -0.6930572  154.7531000   -20.5885300   58.7522300
 		     -64.6552000   31.0929100   -64.2680300   67.6081400   -20.6163400   58.3300100    -0.6966661  154.7637000
    5889160000    -0.3791991  164.3482000   -20.6067700   69.0950600   -63.2785300   61.4084400   -66.9548200   52.9315600 
 		     -20.6687800   69.2093000    -0.3838656  164.3266000   -66.8684600   83.0253000   -66.5804400   68.6209300
 		     -63.6962200   37.3584400   -63.2120800   50.6461400    -0.6892202  154.4889000   -20.5293700   58.4953600
 		     -67.9482900  -31.1560600   -67.2114600   39.4998800   -20.5113500   58.1703500    -0.7036806  154.4669000
    5959150000    -0.3813863  164.1659000   -20.5039400   68.2967500   -71.0807400   85.9622000   -71.3193400   45.1169800 
 		     -20.5898600   69.1659500    -0.3814626  164.0819000   -65.8262500   32.6890500   -73.4917100  109.3043000
 		     -63.8882400   80.1838200   -62.5306400   90.9817900    -0.7031436  154.2192000   -20.4667800   58.1627000
 		     -64.4991100   58.9196500   -63.0589900   15.4248500   -20.4386700   57.9149900    -0.7002426  154.1687000
    6029140000    -0.3858719  163.9741000   -20.4536300   68.6611200   -64.8088200   56.8977200   -70.7874900   72.0350600 
 		     -20.5545600   68.8080100    -0.3868375  163.9838000   -63.9858200   50.4437400   -62.4229600   74.6073800
 		     -63.9568900   40.8245400   -65.7980500   64.4144900    -0.7030338  153.9417000   -20.3962100   57.7764900
 		     -65.1324200  119.5131000   -62.1447400   89.6912800   -20.3466200   57.5688000    -0.7017910  153.9594000
    6099130000    -0.3852484  163.8522000   -20.4055900   68.7262100   -62.9317700   86.5487200   -64.6061900   91.2608300 
 		     -20.4280900   68.7338900    -0.3915414  163.7395000   -68.2200900  115.0295000   -63.3414200   72.8100200
 		     -65.8987100   43.0210800   -65.9244800   14.4139100    -0.7057850  153.6129000   -20.2960400   57.5912300
 		     -64.9637700  109.5443000   -59.8377000   74.5030700   -20.2415200   57.4410300    -0.7130327  153.6213000
    6169120000    -0.3845503  163.6831000   -20.3297500   68.5230300   -63.7475200   69.2633400   -66.5295900   70.1109500 
 		     -20.3155500   68.4250700    -0.3907183  163.5749000   -62.1769900   67.3719500   -64.2997100   75.0008200
 		     -63.1249000   87.9181600   -62.2795100   49.2996700    -0.7050782  153.3810000   -20.2113500   57.2692600
 		     -65.3232500   92.7988900   -62.5103800   51.5800400   -20.1774200   57.4877400    -0.7149135  153.3493000
    6239110000    -0.3910208  163.4998000   -20.1404600   68.5530200   -63.2431600   76.3820100   -65.3765100   66.6638500 
 		     -20.2541400   68.4798600    -0.3901275  163.4549000   -66.6327400   83.4116500   -64.4552000   54.7141500
 		     -61.5982000   55.9528200   -62.6891700  135.9557000    -0.7149971  153.1161000   -20.1399600   57.0551800
 		     -63.8016800   56.7091300   -62.6763600   69.2096400   -20.1198500   57.3882400    -0.7240149  153.0540000
    6309100000    -0.3958744  163.3262000   -20.0877300   67.7486200   -64.1886100   87.5219300   -65.7431300  106.6005000 
 		     -20.1748000   68.3283200    -0.3968097  163.2201000   -68.7109400   94.5634900   -64.9147900   77.0315600
 		     -65.6624400  100.4555000   -61.3248900   54.0953900    -0.7188630  152.8080000   -20.0329700   56.8572900
 		     -73.8655600   56.0825300   -60.7495400   54.9478600   -20.0698300   57.2149400    -0.7211020  152.8038000
    6379090000    -0.3909477  163.1431000   -20.0871200   67.5245400   -61.2555900   89.2453000   -63.1822500   90.1922100 
 		     -20.0667700   68.2385500    -0.3965318  163.0317000   -62.9220200   82.1086100   -62.8565500   68.0327700
 		     -63.4190800   72.4620400   -68.0580100  130.6604000    -0.7208823  152.5826000   -19.9547500   56.8130500
 		     -62.4150200   85.5346800   -80.1839600   30.0866400   -20.0381600   56.9491400    -0.7191145  152.4540000
    6449080000    -0.3905520  162.9639000   -19.9490800   67.7283600   -64.4561800   81.2489800   -62.9540200  100.2708000 
 		     -19.9428900   67.9696400    -0.3993336  162.9035000   -66.0403300   86.2447500   -64.1128700   64.0426600
 		     -62.3914500   52.8340100   -64.8841900   69.8628600    -0.7265756  152.2642000   -19.9092300   56.3909500
 		     -65.5031700   76.1313200   -60.8666300   74.2439200   -19.9321600   56.5532900    -0.7179691  152.1767000
    6519070000    -0.3925968  162.8201000   -19.9187700   67.6695900   -62.5097600   42.8924000   -63.2922400   93.2794000 
 		     -19.9280600   67.5803700    -0.3998132  162.7075000   -63.1582700   78.7888500   -63.2663700   87.4409400
 		     -60.6952700   91.0016800   -61.2873400   35.8072700    -0.7272608  151.9552000   -19.8352100   56.4253800
 		     -62.9895100   91.4517800   -60.5622700   77.4315600   -19.8641900   56.0300200    -0.7286649  152.0372000
    6589060000    -0.4023042  162.6067000   -19.8129100   67.5419800   -64.4247700   56.8274600   -65.6579200   87.3391000 
 		     -19.7770900   67.8639800    -0.4045931  162.4933000   -70.5258600   47.7487500   -63.2470200   70.8638700
 		     -62.5364500   62.1453100   -74.7549100 -166.2145000    -0.7279318  151.7108000   -19.7828500   56.1850300
 		     -64.2697500   68.9867800   -62.8856800   95.0741000   -19.7813200   56.1693300    -0.7338759  151.7120000
    6659050000    -0.4028654  162.4207000   -19.7252700   67.1515700   -63.8195500   40.6104600   -65.4063300   87.3014500 
 		     -19.7501500   67.4897500    -0.3991332  162.3720000   -62.4253200   73.6644100   -62.2302300   84.6148700
 		     -59.9287200   57.0634900   -61.6621400   62.9104300    -0.7344859  151.4132000   -19.6985200   55.5300400
 		     -62.6971100   83.5286700   -59.9589100  107.4684000   -19.6997800   55.5485800    -0.7459571  151.3602000
    6729040000    -0.4101549  162.2704000   -19.6052900   66.9088100   -60.6783900   74.2458000   -61.2257200   96.9734600 
 		     -19.6758300   67.3177600    -0.4090652  162.1673000   -63.5540800   85.6494000   -62.4208000  105.0265000
 		     -64.0863000   78.8674500   -66.1124500   61.9787400    -0.7435809  151.1662000   -19.6325500   55.1844500
 		     -63.7318900  106.9469000   -65.0065000   56.9412300   -19.6196600   55.4321300    -0.7368538  151.1384000
    6799030000    -0.4067400  162.0764000   -19.5545600   67.2173500   -64.1186400   71.2411700   -66.1531400  101.3131000 
 		     -19.5777500   67.0316900    -0.4101177  162.0242000   -65.8429100   86.0662200   -58.6136100   88.2453500
 		     -63.1965000   85.6875500   -62.9416000   82.4567900    -0.7452684  150.8939000   -19.5721000   55.2151900
 		     -62.8667400   64.2028600   -60.7143600   83.1057100   -19.5496900   55.0579000    -0.7425037  150.8388000
    6869020000    -0.4039141  161.9173000   -19.5131900   66.8772400   -62.9594700   69.1969400   -63.2139000  104.5969000 
 		     -19.4803900   67.1173400    -0.4103714  161.7959000   -60.3812800   88.2047100   -63.7515300   83.6043900
 		     -58.9061200   71.3207300   -56.5464000  107.8494000    -0.7369854  150.5962000   -19.4589000   54.9684500
 		     -62.4900800   87.5795800   -64.1973600  121.3152000   -19.4597300   54.8796000    -0.7499766  150.5602000
    6939010000    -0.4087884  161.7468000   -19.4168700   67.0432400   -64.7929800   85.7969100   -61.6017700   95.1012600 
 		     -19.3981300   66.9234300    -0.4163378  161.6310000   -64.0844400   86.6684000   -63.3115400   83.1502200
 		     -61.8089600   57.4504400   -61.4344300   84.6391700    -0.7509667  150.2997000   -19.3882000   55.0677600
 		     -59.5635100   72.8571100   -58.6496000   79.2366500   -19.3818500   54.8640100    -0.7431189  150.2951000
    7009000000    -0.4185076  161.5756000   -19.3280300   66.7234300   -63.0606100   77.7936900   -60.5529000   85.2069700 
 		     -19.3739900   66.9355200    -0.4186196  161.4866000   -62.8529700   87.7489300   -63.0390000   93.5900300
 		     -64.3478200  101.4389000   -61.1249200   48.4398700    -0.7391390  150.0290000   -19.3373900   54.7534400
 		     -61.3531600   78.5131300   -75.9178600  140.3021000   -19.3133200   54.5326900    -0.7501892  150.0013000
    7078990000    -0.4127458  161.4183000   -19.2326500   66.0736300   -61.8699300   70.3659100   -61.6488700   78.8564800 
 		     -19.2586700   66.6099800    -0.4194637  161.3159000   -60.8975200   73.0873000   -60.5016900   87.2577700
 		     -62.7924500   98.7781700   -63.6190100   95.7117600    -0.7487499  149.7460000   -19.3185400   54.6330100
 		     -62.1610200   75.1204400   -62.0696300   83.7642500   -19.2754100   54.3760000    -0.7617465  149.7536000
    7148980000    -0.4162546  161.2309000   -19.1595900   65.8580700   -59.7061200   68.9862500   -61.9876000   74.1112100 
 		     -19.1873600   66.4544400    -0.4167432  161.1370000   -64.3934200   54.9445700   -61.5035200   76.5832700
 		     -59.6551300   66.6135700   -64.2608000   60.6818400    -0.7569330  149.4879000   -19.2634400   54.0336800
 		     -61.2198400   96.8888100   -58.6962600   63.3946200   -19.1994800   54.2946900    -0.7549126  149.3831000
    7218970000    -0.4188542  161.0583000   -19.1409500   66.2851900   -62.4071900   71.0877700   -62.0498500   80.6088800 
 		     -19.0925100   66.4565000    -0.4252336  161.0170000   -62.2599600   85.1567100   -60.9771900   88.5841600
 		     -63.3932700   85.7375800   -65.9042700   70.0322000    -0.7586017  149.2453000   -19.1727400   53.7664100
 		     -65.8084100   71.6478400   -59.6385400  105.0568000   -19.1768300   54.2388800    -0.7596564  149.1174000
    7288960000    -0.4286145  160.8697000   -19.0634700   66.1306400   -62.3369900   86.9401600   -59.7933700   74.3951000 
 		     -19.0629800   65.9421600    -0.4300442  160.7971000   -68.2945600   99.2022600   -60.8144400   90.0939900
 		     -61.1255700   82.9313400   -60.0234400   46.1344100    -0.7567552  148.8887000   -19.1198700   53.2684800
 		     -67.6017300   55.8426700   -60.1485100   94.4187300   -19.1297100   53.9782400    -0.7737383  148.8741000
    7358950000    -0.4201338  160.6553000   -18.9444600   65.7350800   -61.3280100   57.7897100   -63.2437900   89.0095600 
 		     -18.9835200   65.9703300    -0.4233367  160.6208000   -61.1764600   92.1244600   -57.8566700   90.1449400
 		     -61.6533900   56.6909400   -60.2393400   87.8395800    -0.7624524  148.6437000   -19.0445700   53.3972300
 		     -61.5653800   65.6609300   -61.1937300   98.1819900   -19.0238300   53.5656000    -0.7654894  148.5856000
    7428940000    -0.4256219  160.5113000   -18.8632700   65.3511000   -58.9711300   63.6085100   -61.9494300   97.2536600 
 		     -18.9008600   65.9955200    -0.4285751  160.4825000   -61.9806800   92.4715400   -59.6345400   75.1477100
 		     -56.5940300   77.3632700   -61.4245900  118.9723000    -0.7645735  148.3466000   -18.9565300   53.0254300
 		     -62.8914400  112.7728000   -59.7437700   64.1251800   -19.0073900   53.3025900    -0.7737558  148.3296000
    7498930000    -0.4286399  160.4035000   -18.8590400   65.0128500   -59.2096700   83.1302000   -62.2579100   82.5548700 
 		     -18.8178300   65.7233400    -0.4336751  160.2137000   -60.2570600   94.0830500   -59.5620400   94.8580100
 		     -58.7830300   82.7874400   -61.4949000   84.0434300    -0.7641219  148.0972000   -18.8809300   53.1126800
 		     -62.8511700   76.2665000   -56.3100000  100.5422000   -18.9338800   52.8176200    -0.7762093  148.0005000
    7568920000    -0.4248562  160.2174000   -18.7886100   65.4088800   -60.6581300   72.3177600   -61.0636900   91.9933200 
 		     -18.7625700   65.5373700    -0.4318605  160.1440000   -62.5231500   92.2459300   -59.1334100   70.9245600
 		     -57.0359300   68.7729000   -62.7407700  115.6021000    -0.7652338  147.7954000   -18.8579300   53.0413900
 		     -60.0989800   96.3515900   -64.0456100  139.8693000   -18.8799200   52.6487400    -0.7788516  147.7697000
    7638910000    -0.4253612  160.0478000   -18.7636800   65.3283100   -60.8257800   71.4490700   -60.4540200   62.5854300 
 		     -18.6968600   65.3364900    -0.4363679  159.9352000   -62.2518000   67.9690900   -59.7342200   81.3524400
 		     -56.1216700   49.2353900   -58.3714100   87.3342300    -0.7721900  147.5743000   -18.8229000   52.6110100
 		     -56.9142200   90.7443800   -58.2869400   80.7055400   -18.8085500   52.5747600    -0.7710660  147.4803000
    7708900000    -0.4350758  159.8621000   -18.6283100   65.0785000   -58.5620600   79.3637800   -59.6130100   78.4416300 
 		     -18.6227400   64.9260500    -0.4361549  159.7085000   -60.3024300   92.7895400   -61.2149700  105.6040000
 		     -59.8374100   84.2254600   -61.4914000   82.8307300    -0.7816594  147.2355000   -18.7786400   52.3839300
 		     -60.5658300   85.8624300   -60.7273100   86.7376900   -18.7063600   52.0630000    -0.7872428  147.2523000
    7778890000    -0.4403943  159.6266000   -18.6026900   65.0568600   -60.6108300   51.6624500   -59.1975100   70.0238900 
 		     -18.5767000   65.0429400    -0.4427590  159.5863000   -57.8131800   98.6716800   -58.7014800   68.3753300
 		     -64.9429200   84.5188500   -61.3494800  112.7043000    -0.7831413  147.0152000   -18.7120000   51.8285300
 		     -59.7598700   82.1815400   -61.3720900   70.5349700   -18.6710300   51.9608200    -0.7921645  146.9185000
    7848880000    -0.4385031  159.5225000   -18.4708100   64.9037200   -61.8262300   85.6822400   -62.6744900  115.9596000 
 		     -18.4326600   64.9106100    -0.4383189  159.4012000   -60.7126700   76.2533400   -57.3224300   90.5740500
 		     -65.7813000   48.7159800   -64.7745100   82.8639200    -0.7802761  146.7268000   -18.6217000   51.6406400
 		     -60.9131700   86.5258900   -56.8574900   98.1319900   -18.5906100   51.7852800    -0.7814369  146.6120000
    7918870000    -0.4401150  159.3550000   -18.4252300   64.5234300   -58.9438900   78.0986300   -57.9672300   79.6848400 
 		     -18.4212300   64.6439100    -0.4457039  159.2339000   -61.2121600   79.7096100   -59.2772700   83.9489700
 		     -58.7594300   61.5659000   -57.0015000   90.9880500    -0.7849109  146.4484000   -18.5656400   51.5039700
 		     -59.9109000   66.9931900   -56.0888700   65.1651000   -18.5613300   51.6605500    -0.7843167  146.4293000
    7988860000    -0.4435703  159.1673000   -18.4167900   64.3422400   -61.1856300   79.3518100   -61.4348900   70.0073900 
 		     -18.3690200   64.4863200    -0.4382605  159.0653000   -59.8348700   62.1315000   -60.5206500   64.9631700
 		     -61.7157000   77.2043600   -56.3347000   87.4376200    -0.7890833  146.1849000   -18.4744500   51.2671300
 		     -62.7944000   91.7447000   -61.4418400   70.7817200   -18.4924500   51.6266500    -0.7879072  146.1100000
    8058850000    -0.4411263  159.0673000   -18.3338200   64.5767000   -59.6870000   58.5367800   -61.2676400   77.3353700 
 		     -18.2968000   64.4232100    -0.4479015  158.9113000   -58.0953800   65.7113800   -59.5002300   84.4344000
 		     -59.6216000   72.7315900   -57.2773600   62.5348100    -0.7859620  145.9527000   -18.4477500   51.4082900
 		     -57.9368200   76.8402200   -54.9711600   60.7592400   -18.4431100   51.2850700    -0.7985374  145.8350000
    8128840000    -0.4493158  158.8413000   -18.2254200   64.3155400   -59.9907000   53.7137000   -60.1143100   68.5798600 
 		     -18.2349300   64.0958400    -0.4544399  158.7864000   -59.3632400   80.0239600   -59.2097200   76.8524500
 		     -60.1487700   93.0600000   -59.7175200   85.7992600    -0.7989377  145.6076000   -18.4326400   51.1402500
 		     -66.0870300   79.2125900   -55.0156700   76.7835200   -18.4005300   51.0743300    -0.7840407  145.5797000
    8198830000    -0.4534436  158.6506000   -18.1954400   63.9680600   -59.2139500   60.0046300   -60.8077200   62.8580200 
 		     -18.1522200   63.8756600    -0.4438811  158.5682000   -58.7032700   73.5116700   -57.8552800   74.9740300
 		     -59.1141700   76.8942000   -65.1981400   88.6279700    -0.8051723  145.2715000   -18.3692800   50.8216400
 		     -60.1596300   67.0469700   -58.5053000   93.4552100   -18.3707800   50.8370300    -0.7970638  145.3298000
    8268820000    -0.4500487  158.5317000   -18.1483300   63.9319100   -59.3147200   72.2843000   -62.3546400   72.3082900 
 		     -18.1446100   64.0309800    -0.4612316  158.4513000   -59.5484100   81.1111200   -62.6367500   60.0362000
 		     -57.7764200   75.5671000   -58.2364500   61.7496800    -0.7968088  145.1068000   -18.3341300   50.6165200
 		     -60.5580800   80.7036400   -64.3048200   65.5512800   -18.3473500   50.5937500    -0.7970440  145.0487000
    8338810000    -0.4548055  158.3279000   -18.0235400   63.6751100   -60.2603400   55.8588500   -58.9816200   75.9715300 
 		     -18.0375500   63.8402900    -0.4587904  158.2229000   -62.9261600   63.9969500   -57.0662300   68.7976500
 		     -57.1654700   64.0078100   -60.8924300   86.8244100    -0.8027354  144.7843000   -18.2678800   50.2105300
 		     -64.4769300   70.8135600   -57.9031400   55.6519300   -18.2585000   50.2466000    -0.7973581  144.7545000
    8408800000    -0.4536097  158.1661000   -18.0334300   63.6616800   -58.0362900   69.8672900   -58.5163300   70.3013400 
 		     -17.9931700   63.4616600    -0.4536680  158.0547000   -61.0528000   64.0024900   -58.8540300   70.9228400
 		     -58.4147700   80.4239500   -62.0801500   70.7462700    -0.8019846  144.4711000   -18.2077800   49.9064900
 		     -59.3696000  107.4694000   -54.2643500   70.2947200   -18.2236000   50.0333200    -0.8110574  144.5454000
    8478790000    -0.4558424  158.0229000   -17.9063900   63.1852500   -58.5318000   62.7979100   -59.9927900   63.5949700 
 		     -17.8997200   63.3282300    -0.4459506  157.8856000   -64.1367500   52.8247100   -59.6793800   73.8950300
 		     -58.7209400   88.3900100   -61.0021000  108.3368000    -0.8004218  144.2470000   -18.1396700   49.6722900
 		     -60.2441800   51.2618400   -57.6772700   76.5220000   -18.1742300   49.7106900    -0.8105296  144.1795000
    8548780000    -0.4617729  157.7874000   -17.8731500   63.3977600   -58.1747100   58.5920700   -59.5751600   82.7886400 
 		     -17.8465200   63.1144900    -0.4614473  157.7284000   -62.1472400   91.9159200   -56.7830400   80.3635800
 		     -60.5548700   76.7437700   -62.4084100  102.5191000    -0.8154169  144.0132000   -18.0713100   49.5178100
 		     -61.9199000   64.8574100   -62.8232300   75.0766300   -18.1375200   49.1903600    -0.8106191  143.9066000
    8618770000    -0.4524713  157.7288000   -17.8296600   63.0394800   -60.3698900   64.2273200   -61.0133100   70.9485400 
 		     -17.8223100   62.9125900    -0.4583482  157.5659000   -60.6669800   65.7199000   -57.1943800   60.6973200
 		     -60.4824400   82.2777600   -59.9650700  102.8244000    -0.8056446  143.6557000   -18.0448700   49.4513700
 		     -58.5253700   67.7938400   -60.7519900   83.5480800   -18.0788200   49.1619500    -0.8170616  143.6347000
    8688760000    -0.4573573  157.5038000   -17.7716000   62.9535800   -58.9580900   71.2172900   -58.6990000   70.4030000 
 		     -17.7916300   62.8179600    -0.4560336  157.3819000   -62.3403800   89.8364900   -63.4920000   82.4199200
 		     -59.8682600   78.6701700   -63.1052900  101.2008000    -0.7982847  143.4070000   -17.9848600   49.2183400
 		     -57.4034200   82.5234800   -57.0866200   63.5827900   -18.0194100   48.8851500    -0.8125829  143.4069000
    8758750000    -0.4699647  157.2788000   -17.7154700   62.6569100   -60.1645200   92.7168000   -57.4139100   90.8526500 
 		     -17.6970800   62.7983200    -0.4609789  157.1980000   -60.4553700   54.4094000   -59.1607700   72.2241100
 		     -62.6710300   64.5637100   -61.5361400   78.6864000    -0.8183243  143.2270000   -17.9715000   49.2534500
 		     -67.0989800   86.4540500   -61.3504500   83.0575800   -17.9405100   48.5834000    -0.8200705  143.0569000
    8828740000    -0.4642293  157.1223000   -17.6685700   62.5035600   -61.3419900   74.7605700   -59.9941500   61.0294400 
 		     -17.6244900   62.3214100    -0.4642006  157.0477000   -56.9078800   82.9430200   -58.2486800   97.3810700
 		     -59.6963100   73.3814000   -56.9185000   66.3467800    -0.8226842  142.8899000   -17.9412600   48.3964800
 		     -58.3283800   74.5296200   -57.0205500   92.8790600   -17.8744600   48.4835800    -0.8189604  142.8210000
    8898730000    -0.4702659  156.9953000   -17.5884000   62.9811600   -61.4026000   56.0054800   -58.8961200   89.1903900 
 		     -17.5515500   62.4114500    -0.4607248  156.8339000   -61.6146600   73.8402700   -60.9766900   74.5147200
 		     -61.1486700   82.3357800   -62.2585300   84.3284000    -0.8243645  142.6054000   -17.8745600   48.2382100
 		     -61.8997200  102.3873000   -57.8186100   78.7753900   -17.8516200   48.3659000    -0.8213930  142.5688000
    8968720000    -0.4758821  156.8050000   -17.5295400   62.2770500   -60.6644600   38.2722700   -59.1710200   78.0524300 
 		     -17.5170500   62.1334200    -0.4685524  156.6926000   -59.9393500   67.8222000   -57.7807100   79.7711100
 		     -65.5597500   67.7638300   -62.6380600  120.4775000    -0.8229304  142.3285000   -17.8226500   47.8994000
 		     -62.3851100  106.2068000   -61.4959800   69.2460300   -17.8136900   48.2243200    -0.8245501  142.2617000
    9038710000    -0.4629897  156.6466000   -17.4646100   62.1621000   -57.7495200   62.7791600   -58.5281400   62.9018400 
 		     -17.5019800   62.1366100    -0.4768288  156.5237000   -61.3587300   76.0279000   -56.6233500   84.5432200
 		     -60.3779500   66.5883600   -60.2905800   77.4220400    -0.8318045  142.0671000   -17.7442300   47.5995900
 		     -56.1022600   67.7847900   -58.6955300   52.8693400   -17.7362900   47.9265300    -0.8251815  142.0024000
    9108700000    -0.4765188  156.4393000   -17.4804900   62.1897900   -58.4250400   62.0236500   -62.8807400   65.2589600 
 		     -17.4329600   61.9287600    -0.4697106  156.2429000   -61.0542400   71.5803800   -58.0252300   83.3589000
 		     -59.1598500   93.4460100   -66.7441900   80.2579100    -0.8231569  141.7163000   -17.7058500   47.4081200
 		     -61.5673600   75.8142500   -59.5901500   50.8384200   -17.7124100   47.8083500    -0.8318284  141.7771000
    9178690000    -0.4632233  156.2644000   -17.4000000   62.0759500   -59.2425600   65.2829200   -57.4155900   73.6974900 
 		     -17.3755700   61.8114700    -0.4735160  156.2312000   -60.4102300   77.0854300   -57.8601900   79.6429700
 		     -59.6357000   67.2596600   -60.4117900   42.5008700    -0.8230246  141.5464000   -17.6510900   47.6802400
 		     -60.1447300   99.5726200   -58.9896900   70.8687000   -17.7120600   47.5797000    -0.8394665  141.4252000
    9248680000    -0.4777733  156.1544000   -17.3385800   61.8489000   -58.1875300   60.0246500   -57.9401600   63.2477700 
 		     -17.3003000   61.6555900    -0.4804343  155.9958000   -62.4237100   71.7127900   -60.1001100   84.1492800
 		     -57.3064200   73.9398700   -59.4407300   62.3342200    -0.8237220  141.2898000   -17.6279400   47.3364200
 		     -60.5158400  102.5822000   -56.0775800   32.8951100   -17.6529300   47.2102500    -0.8259374  141.0782000
    9318670000    -0.4739301  156.0065000   -17.2672200   61.6718000   -58.8350800   61.1642700   -61.5009800   58.5633000 
 		     -17.2900600   61.5279800    -0.4859421  155.7328000   -60.2275000   70.5521200   -57.3073300   93.3573500
 		     -59.5391900   64.7258300   -61.8359500   58.1943600    -0.8373600  140.9860000   -17.6120100   47.0852100
 		     -62.7793700   62.6000400   -58.4135600   78.6328200   -17.6011400   47.0278600    -0.8403095  140.9553000
    9388660000    -0.4762080  155.8777000   -17.2205000   61.3501700   -61.0686000   58.8232300   -58.6215400   86.1562700 
 		     -17.1763700   61.4516300    -0.4713908  155.6506000   -59.5734100   87.5246300   -58.0217700   82.4829500
 		     -59.0941800   55.2791800   -57.6579000   82.8695800    -0.8347926  140.6472000   -17.5729400   46.7139800
 		     -61.7031200   92.5317300   -59.0221600   76.6674200   -17.5775500   46.6419000    -0.8455983  140.6455000
    9458650000    -0.4842978  155.6287000   -17.2168100   60.9344800   -58.3361000   65.1386400   -61.5989200   72.6716800 
 		     -17.1814200   61.2272500    -0.4766803  155.4901000   -60.4881400   75.9655800   -56.3093900   56.0045400
 		     -62.1307700   77.2673200   -56.3937000   58.1449200    -0.8393785  140.3976000   -17.5563700   46.2545000
 		     -58.1692400   72.9339000   -56.2694900   81.2993500   -17.5289500   46.4503400    -0.8407964  140.3941000
    9528640000    -0.4840992  155.5491000   -17.1637700   61.0552300   -59.8271300   65.4630000   -57.9089600   65.0631600 
 		     -17.1188300   60.8793800    -0.4849090  155.2919000   -61.0054800   78.4663100   -58.5302600   74.3271000
 		     -62.6091900   73.4814600   -63.0661100  125.4292000    -0.8456843  140.0827000   -17.4827200   45.9526500
 		     -66.3359000   91.6253100   -60.6854300  110.5995000   -17.5121000   46.0774500    -0.8415029  140.0861000
    9598630000    -0.4812535  155.2479000   -17.0647800   61.0318100   -57.0828700   68.0838500   -62.4495500   58.5533200 
 		     -17.1054700   60.8235600    -0.4846161  155.0698000   -58.8748900   66.1810200   -55.6673000   60.2154400
 		     -60.7204400   72.3733300   -63.2481000   58.7874200    -0.8528889  139.8380000   -17.4043600   45.7876000
 		     -57.1569700   83.9183200   -55.1840100   72.8472500   -17.4249900   46.0360400    -0.8571392  139.8457000
    9668620000    -0.4826552  155.1899000   -16.9818800   60.6265600   -60.4513900   65.0440200   -60.2619900   63.6830000 
 		     -16.9871700   60.5520800    -0.4841895  155.0029000   -59.3496600   59.9633300   -57.0484100   73.0323500
 		     -56.9420100   53.5257700   -59.8719000   89.1233400    -0.8443104  139.5789000   -17.3658600   45.7963900
 		     -56.9392800   85.5665400   -55.5239800   53.1833200   -17.3958900   45.5484100    -0.8568653  139.5707000
    9738610000    -0.4740271  154.9161000   -16.9583700   60.7307400   -59.6699900   65.8457600   -60.3098100   54.7215200 
 		     -17.0071900   60.4749000    -0.4878559  154.8241000   -58.7855900   79.1712000   -57.8774700   86.7396900
 		     -59.2673800   75.1527000   -57.1675300   99.1993300    -0.8599824  139.3889000   -17.3228000   45.7968500
 		     -56.7777300   98.6820100   -59.6089200   83.1490000   -17.3460600   45.2799700    -0.8374531  139.2593000
    9808600000    -0.4785061  154.7922000   -16.8914100   60.8999700   -59.2995100   82.0469700   -61.6478300   81.9117100 
 		     -16.9060600   60.4195100    -0.4934277  154.6089000   -62.7969800   57.5458700   -57.2392200   72.2326200
 		     -62.5470800   70.3519800   -60.0174400   61.6440300    -0.8573313  138.9893000   -17.3000100   45.5064800
 		     -62.2022200   76.4421800   -58.2552400   86.9474400   -17.2766600   45.2449800    -0.8560190  139.0387000
    9878590000    -0.4790290  154.6193000   -16.8520900   60.5447700   -55.8832600   53.8139500   -61.5920100   78.6958600 
 		     -16.8866600   60.1890000    -0.4910300  154.5001000   -64.6188800   61.2457900   -58.4922800   75.3571200
 		     -58.3710800   78.2238000   -62.6827900   83.0645900    -0.8568192  138.7672000   -17.3099800   45.2495700
 		     -63.1136900   81.9257000   -54.8592000   61.6710400   -17.2725600   45.2804700    -0.8584112  138.7516000
    9948580000    -0.4800801  154.4952000   -16.7697200   60.5612800   -60.8856200   72.1612200   -60.2601700   86.0892900 
 		     -16.8116800   60.2779500    -0.4805005  154.3361000   -60.2677300   78.7884200   -58.6636200   68.1439500
 		     -56.7674900   64.5990100   -57.7509200   85.7855300    -0.8627559  138.5260000   -17.2548500   44.8693900
 		     -58.0033300   62.9178200   -60.0715900   67.6143200   -17.2025500   45.0131400    -0.8534026  138.4221000
   10018570000    -0.4811569  154.2827000   -16.7188200   59.9494400   -61.9426300   96.1017800   -56.9455300   67.7824900 
 		     -16.7862300   59.8252200    -0.4836631  154.1280000   -61.3744000   83.9172700   -57.0418400   78.7886800
 		     -58.3537400   72.0077800   -60.3853700   81.1161700    -0.8568088  138.2360000   -17.2369400   44.6610800
 		     -59.1715300   69.0469300   -56.0360900  109.8498000   -17.1720500   44.6129100    -0.8695173  138.3119000
   10088560000    -0.4887266  154.1229000   -16.7293500   59.4662300   -62.5597400   40.5141300   -59.6522800   68.0091600 
 		     -16.6722400   59.9170600    -0.4849576  153.9867000   -61.4889200   92.5078600   -56.6005600   60.8259700
 		     -57.6396000  107.4566000   -60.3456200   18.8401800    -0.8752624  138.0201000   -17.1842400   44.4125300
 		     -56.0607300   77.7049600   -60.9044000  101.2491000   -17.1640000   44.5453900    -0.8610042  137.9916000
   10158550000    -0.4928866  153.9413000   -16.6790600   59.5093900   -59.2630200   71.9272400   -60.5665000   69.7916600 
 		     -16.7119900   59.7268700    -0.4893301  153.7686000   -59.2709900   94.1887200   -55.7978100   72.6720200
 		     -55.9291800   69.8438600   -53.8279800   59.5104800    -0.8661860  137.7075000   -17.0943500   43.7434700
 		     -55.7397000   55.9038300   -55.0583900   71.5002900   -17.1529000   44.2250400    -0.8532274  137.6450000
   10228540000    -0.4748708  153.7560000   -16.6169900   59.5968800   -60.5862800   66.4566800   -65.2055500   57.3349300 
 		     -16.6596600   59.6048000    -0.4920852  153.7007000   -59.7460000   78.7709300   -56.8639300   91.8349100
 		     -59.1749900   78.9739600   -58.7773700   96.3095500    -0.8771494  137.4241000   -17.0559600   43.6892900
 		     -55.8447100   76.8736400   -64.0992000   93.5416200   -17.1018100   43.9115300    -0.8653158  137.4062000
   10298530000    -0.4951266  153.6576000   -16.5840100   59.4862900   -58.7562600   83.0139800   -58.1129400   84.1699600 
 		     -16.5500700   59.3682300    -0.4923658  153.4253000   -57.0942800   91.6285100   -55.5686300   69.5580000
 		     -59.2026900   87.0654600   -62.0168500   30.9426100    -0.8674281  137.1094000   -17.0028100   43.9911100
 		     -70.3808100   71.9196900   -59.6143000   57.8430200   -17.0777900   43.8025500    -0.8748001  137.1530000
   10368520000    -0.4977007  153.4377000   -16.4755300   59.3145500   -57.3091400   79.1352900   -58.4750000   73.0873900 
 		     -16.5138200   59.0689800    -0.4979068  153.3866000   -58.1585700   86.5777600   -60.2002700   89.3124000
 		     -55.1567800   80.6696700   -62.3860000   93.9194800    -0.8836759  136.8938000   -16.9961300   43.5017500
 		     -58.1506800   88.4131100   -53.5736500   65.6920500   -17.0785800   43.0648000    -0.8681232  136.8062000
   10438510000    -0.4889013  153.2802000   -16.4279100   59.0314800   -60.7587600   68.0673500   -56.8714400   63.5935100 
 		     -16.4907500   59.4412000    -0.5043229  153.0134000   -57.8395400   86.1222900   -56.6033200   91.8692200
 		     -58.5148000   96.6516800   -64.5169900   51.9280500    -0.8764943  136.6225000   -16.9822100   43.1859700
 		     -57.7653700   89.6873500   -56.0259300  105.4261000   -16.9912800   42.9786500    -0.8729352  136.6152000
   10508500000    -0.5010253  153.1619000   -16.3934500   59.0046700   -58.7952400   91.6898000   -58.1012900   82.5572400 
 		     -16.4412600   58.9793400    -0.5083713  152.9574000   -56.8457000   89.6226400   -56.9268000   70.8135500
 		     -60.4033000   73.7840300   -56.4063700  119.0608000    -0.8743255  136.3738000   -16.9929800   43.0418400
 		     -55.4711000   82.5740600   -57.9401200   20.2443400   -16.9554900   42.7307400    -0.8791460  136.3876000
   10578490000    -0.5089883  152.9610000   -16.4066900   58.6377400   -62.4724200   56.4594100   -60.7475100   94.0213200 
 		     -16.4072600   58.6291000    -0.5036622  152.7949000   -62.1458600   92.8665700   -60.5819700   65.4547900
 		     -62.4929700   95.7722300   -57.3937100   61.1953400    -0.8722185  136.1226000   -16.9531200   42.6687600
 		     -58.1228700   89.5761400   -55.4528000  120.6091000   -16.9256200   42.5090400    -0.8764452  136.0362000
   10648480000    -0.5000969  152.7865000   -16.2903200   58.8796200   -58.6699100   71.5054900   -59.2652900   68.8940700 
 		     -16.3143000   59.0240700    -0.5106976  152.6434000   -59.5137100   79.1447800   -54.0978400   84.5629500
 		     -59.0243200   81.0373600   -59.0304000   52.1920300    -0.8767832  135.8399000   -16.8808700   42.2971000
 		     -54.9784100   77.6050600   -51.1210600   71.6864900   -16.8607700   42.2576100    -0.8809568  135.7177000
   10718470000    -0.5057879  152.6535000   -16.2888800   58.6633200   -57.3778400   87.9813100   -60.9915800   81.2609600 
 		     -16.2957000   58.4702300    -0.5067877  152.3922000   -56.3033700   71.4023500   -57.9697800   68.4887900
 		     -58.4989000   80.2487800   -56.4715600   81.9184200    -0.8786120  135.5414000   -16.8266400   41.8745000
 		     -60.0423700   96.9264400   -58.6626400   89.3764000   -16.8029500   41.9955100    -0.8847192  135.5670000
   10788460000    -0.5107710  152.5334000   -16.2078000   58.1316700   -59.7676400   99.3972600   -56.5687900   70.7889100 
 		     -16.2892600   58.4583600    -0.5207585  152.2225000   -59.3120400   79.1395000   -55.4471900  100.4282000
 		     -56.7186500   59.1957100   -58.7620100   92.4020900    -0.8858412  135.3216000   -16.7761800   41.6897800
 		     -56.6520500   88.8723900   -54.6698600   80.8800000   -16.7604600   41.9205700    -0.8856263  135.2132000
   10858450000    -0.5067620  152.2611000   -16.1735700   58.0559600   -57.4628600   74.9817200   -56.8658600   80.8799100 
 		     -16.2172000   58.5015600    -0.5068772  152.1386000   -60.6366300   79.6895500   -55.9754900   78.7224100
 		     -58.8857800   76.9956400   -59.2994400   61.3855400    -0.8872378  135.0572000   -16.7488300   41.9103700
 		     -55.5132100   63.0424800   -52.7737200   98.2267500   -16.7681400   41.7769600    -0.8951852  134.9289000
   10928440000    -0.5023284  152.2496000   -16.1970400   57.8261500   -56.7978100   83.0593600   -56.6187900   91.9360600 
 		     -16.1652500   58.1643600    -0.5249930  152.0033000   -57.6578000   91.2863500   -58.2848900   98.8525600
 		     -59.1585900   84.3083700   -55.3372600   86.0044700    -0.8862748  134.6857000   -16.7167700   41.6004900
 		     -59.0066000   86.9979200   -51.3890800   68.6457500   -16.7383900   41.4116800    -0.8792278  134.7304000
   10998430000    -0.5151267  151.9316000   -16.1253400   57.8694300   -59.1798000   64.9539000   -58.3706100   86.6300400 
 		     -16.1308300   58.1454600    -0.5223420  151.8649000   -56.9651100   94.1464300   -55.6190300   79.3326000
 		     -57.2978400   48.8749400   -53.4329800   81.4053700    -0.8938242  134.4850000   -16.7651900   41.5175100
 		     -59.1267500   95.6624200   -55.9865900   57.5875300   -16.7105300   41.6819900    -0.8889843  134.4223000
   11068420000    -0.5157753  151.7133000   -16.0517300   57.9824600   -57.8206900   84.9570000   -56.2699400   83.0093800 
 		     -16.0858800   57.5803400    -0.5245432  151.6378000   -56.2080800   84.8807300   -57.4923100   83.8098100
 		     -57.6557500   73.7256200   -58.9483600   61.2402000    -0.8813369  134.1957000   -16.7113600   40.8980600
 		     -62.2652400   81.3180200   -55.8343300   80.4245300   -16.6896700   41.1683000    -0.8846983  134.0877000
   11138410000    -0.5204071  151.6263000   -16.0304200   57.1065100   -60.0937400   55.3299200   -56.0936700   72.5810200 
 		     -16.0453100   57.6431000    -0.5270755  151.4366000   -61.6864200   70.0451500   -57.2444600   81.2653700
 		     -65.2219700   60.3339700   -56.6253200   83.1044000    -0.8959918  133.8902000   -16.6987700   40.4471500
 		     -55.5975400   68.0159500   -55.9155100   95.4967200   -16.6828400   41.0949900    -0.8877541  133.9104000
   11208400000    -0.5173426  151.4721000   -16.0070500   57.5020900   -57.3337600   74.8301700   -57.6404400   71.5239000 
 		     -16.0695400   57.3381800    -0.5217170  151.2700000   -57.7157900   71.4235200   -54.9033100   77.9619800
 		     -58.2330700   81.2230700   -55.4863600   65.4527800    -0.8935606  133.7416000   -16.6332000   40.1770500
 		     -56.6457900   88.6044200   -54.1617900   61.7840000   -16.6638100   40.5421100    -0.8881997  133.6359000
   11278390000    -0.5241106  151.3165000   -15.9419900   57.2821900   -57.4848000   78.0913300   -55.7192700  107.3727000 
 		     -15.9877500   57.5108600    -0.5130188  151.2863000   -58.1261600   95.5582200   -59.9645700   83.8678500
 		     -55.2550900   82.2788100   -56.4897300  114.4640000    -0.8908271  133.4187000   -16.5650100   39.9882200
 		     -52.3964900   87.8749500   -53.1043100   54.1968300   -16.6505100   40.1809300    -0.8992695  133.3262000
   11348380000    -0.5234929  151.1104000   -15.9114600   57.2373000   -58.9814200   92.8146400   -59.3390300   63.0401300 
 		     -15.8999200   57.1836400    -0.5374271  150.9650000   -56.3656200   80.9767200   -53.5075000   69.9040800
 		     -55.9637300   89.9894800   -59.1515700   74.3499600    -0.9003124  133.0970000   -16.5551500   39.8903700
 		     -57.5173100   92.3271800   -56.2496900   80.6793700   -16.6299300   39.9579700    -0.8967519  133.0357000
   11418370000    -0.5236798  150.9226000   -15.8833300   56.7331800   -54.1621400   72.4592900   -53.9531300   93.3473700 
 		     -15.8838700   57.1151600    -0.5256532  150.7720000   -56.2376400   85.4495900   -55.0136500   82.6278700
 		     -55.9883000   82.0050300   -57.3000400   99.3181100    -0.9067823  132.9063000   -16.5080500   39.9243200
 		     -55.5100900   97.6951100   -59.9018900   50.1886300   -16.5365200   39.6650900    -0.8973840  132.7914000
   11488360000    -0.5393763  150.8352000   -15.7722800   56.9487500   -58.4984600   70.7827500   -55.8504800   73.4992800 
 		     -15.8700500   56.9232500    -0.5234938  150.6827000   -57.0912600   98.6164100   -53.5020600   69.2229200
 		     -54.5311700   98.9734300   -59.8424300  114.8267000    -0.9087517  132.6439000   -16.5203000   39.7098800
 		     -52.8055300   68.1696400   -50.9248400   75.5815000   -16.5475700   39.4199800    -0.9026996  132.5845000
   11558350000    -0.5220427  150.5645000   -15.7553900   56.8517700   -55.4564900   83.3728000   -55.0776700   86.8293500 
 		     -15.7548600   57.0214600    -0.5270182  150.5164000   -54.8882200   81.7069800   -58.5727800   65.4401200
 		     -55.2288100   79.5457500   -59.4062300   67.7665300    -0.9216673  132.3635000   -16.5072700   39.4632300
 		     -52.1228600   82.6926900   -53.0645300   79.5358300   -16.5023700   38.9697000    -0.9040595  132.2260000
   11628340000    -0.5302287  150.4643000   -15.7572200   56.5797800   -55.8483200   82.1878000   -55.7391800   89.0127600 
 		     -15.7778900   56.5638700    -0.5532570  150.3601000   -55.5004300   85.0840300   -57.3305400   72.4702600
 		     -54.4952000   87.6009500   -58.6597500   70.9438100    -0.9106045  132.0267000   -16.4870300   39.1840100
 		     -55.6066700   90.9767500   -59.2443900   76.5595500   -16.4519800   38.8310100    -0.9093938  132.0298000
   11698330000    -0.5402718  150.3557000   -15.7285400   56.4912300   -56.9603700   82.0584500   -57.0049400   79.4546000 
 		     -15.7450200   56.6426900    -0.5377963  150.1460000   -57.8227400   78.2717400   -53.9177500   77.6858000
 		     -57.2741900   89.9236200   -55.8795500   77.5498700    -0.9067979  131.8726000   -16.4779200   38.5789100
 		     -56.1866200   90.6807300   -53.8793400   91.3626800   -16.3920200   38.5521200    -0.9237256  131.7629000
   11768320000    -0.5410338  150.1588000   -15.6822100   56.3217100   -56.7472600   66.3136500   -57.7633900   82.9111900 
 		     -15.6733800   56.2429700    -0.5316219  149.9938000   -56.5295500   77.8538400   -54.8766500   81.2515500
 		     -59.9619200   69.8346400   -57.7154900   83.8738900    -0.9132165  131.5532000   -16.4205600   38.3609400
 		     -55.1962400  101.7348000   -51.8117100   75.5236300   -16.3939500   38.8596700    -0.9140816  131.4182000
   11838310000    -0.5318463  149.9868000   -15.6709800   56.2002100   -54.9857100   63.2589700   -56.5690100   78.2001500 
 		     -15.6117500   55.9309700    -0.5489901  149.7870000   -55.2900700   72.7315400   -54.0744700   84.2888100
 		     -57.1382500   75.1724400   -55.8350400   80.3857000    -0.9131299  131.2812000   -16.3482600   38.1537500
 		     -55.3235500   75.2847700   -56.3954900   89.0802200   -16.3586300   38.3910000    -0.9009231  131.2484000
   11908300000    -0.5391659  149.8719000   -15.5764200   55.8090700   -55.2426300   74.4501000   -57.3603600   88.7710400 
 		     -15.5401500   55.9602500    -0.5356973  149.6605000   -56.1245200   70.3438600   -53.8987300   76.0731000
 		     -57.1188800   88.9299400   -54.8798000   93.6843400    -0.9131634  131.0847000   -16.3190700   37.9520300
 		     -53.9747300  101.0630000   -56.7598400   91.8242200   -16.3156000   38.3253100    -0.9106243  130.9939000
   11978290000    -0.5472468  149.6886000   -15.5831600   55.7496500   -57.4742600   96.4689900   -57.9025400   91.7802500 
 		     -15.5653500   55.6547600    -0.5448424  149.4408000   -54.6658200   91.4240900   -57.7770800   86.7348600
 		     -58.2658700   72.2571000   -53.3968400   97.1977700    -0.9189507  130.8068000   -16.3118800   38.0090900
 		     -57.6007700   75.4590100   -53.6791500   89.8447200   -16.3543400   37.9465700    -0.9231768  130.7085000
   12048280000    -0.5395387  149.5863000   -15.5697700   55.4687600   -55.5385200   84.1841700   -55.9745300   75.5604200 
 		     -15.5464200   55.8292600    -0.5539954  149.4037000   -55.7488900   84.9945200   -56.9360400   87.5557900
 		     -55.8042200   82.8887200   -55.3406700   88.2952700    -0.9255899  130.4614000   -16.3052800   37.7083900
 		     -56.1394800   89.2263200   -56.4634700   83.0370100   -16.3247100   37.6195800    -0.9175473  130.3881000
   12118270000    -0.5419484  149.3902000   -15.4941900   55.3127900   -55.5292700   95.5500600   -52.7254300   85.9152800 
 		     -15.4326700   55.5882000    -0.5394648  149.1286000   -55.4994000   93.2238500   -55.8537700   82.9404400
 		     -60.3240200   90.3526400   -54.6893300   75.7894100    -0.9241918  130.2120000   -16.3061300   37.5300800
 		     -53.9705300   73.8258600   -55.0536500   70.2577000   -16.3225900   37.5803100    -0.9200236  130.1720000
   12188260000    -0.5430186  149.2044000   -15.4418600   55.3430700   -55.7241600   77.0663500   -54.3460000   89.8477300 
 		     -15.4110600   55.9613600    -0.5360188  149.0823000   -54.7999200   74.9051000   -53.4822100   85.3343200
 		     -56.8333700   71.6323700   -55.3781900   87.7985300    -0.9260480  130.0219000   -16.3169300   37.2127400
 		     -52.7722900   85.9094600   -52.7742700   74.2295300   -16.2895300   37.1258500    -0.9233874  129.8845000
   12258250000    -0.5543406  149.0142000   -15.4000600   55.3646600   -55.7977900   84.1518900   -54.8650800   88.9578900 
 		     -15.4085800   55.0726100    -0.5541192  148.8989000   -56.3422200   83.9837100   -53.6095000   81.3592500
 		     -53.2273400   67.5981100   -55.2224300   71.0436600    -0.9227932  129.7181000   -16.2800900   36.6044900
 		     -53.6521600   75.4981800   -53.3317200   88.3036400   -16.2830000   36.7852700    -0.9174568  129.5945000
   12328240000    -0.5368509  148.9623000   -15.3429500   54.7659200   -56.4551200   90.8795600   -57.0656700   81.3833300 
 		     -15.3321600   55.0252400    -0.5567494  148.6085000   -57.3791300   80.0686100   -53.0699000   74.6164600
 		     -54.7818100   67.4719600   -52.3988200   68.3462500    -0.9354746  129.3972000   -16.2213000   36.2884700
 		     -53.6679900   86.3031600   -54.3487600   98.0610400   -16.2695500   36.3965300    -0.9232459  129.3795000
   12398230000    -0.5609494  148.7396000   -15.3208800   54.6040500   -54.5371600   72.6701400   -54.2677300   79.2496200 
 		     -15.3077600   54.9439000    -0.5353163  148.5234000   -54.2427300   77.8049900   -53.1438300   83.8699000
 		     -56.3964500   77.9440700   -53.2414200   77.6803900    -0.9248669  129.2394000   -16.1846800   36.0961400
 		     -53.0226600   79.9251300   -51.5304000   79.8167500   -16.1979600   36.1706000    -0.9280236  129.1586000
   12468220000    -0.5526119  148.4195000   -15.3463800   54.6563400   -56.1504700   89.4419400   -53.0341100   85.4980000 
 		     -15.2755000   54.6803500    -0.5489181  148.4651000   -53.5670600   73.3493800   -52.2335600   80.4279600
 		     -58.1461100   90.9777100   -57.1563400   64.3958300    -0.9289055  128.8180000   -16.1598600   36.1930700
 		     -54.6677900   68.2342800   -53.6280300   60.3108100   -16.1817100   35.8608200    -0.9331214  128.8085000
   12538210000    -0.5502772  148.3755000   -15.2761900   54.7041000   -53.9942700   85.5732000   -52.4035900   84.0853000 
 		     -15.2485900   54.4281000    -0.5554472  148.1779000   -55.6717500   73.8857300   -52.0410500   74.5387600
 		     -54.6121300   86.6407900   -54.3283000   89.6483600    -0.9286349  128.6041000   -16.1163900   35.9294400
 		     -57.4129100   79.4579700   -52.1408000   87.3936900   -16.1169600   35.5701000    -0.9259558  128.5680000
   12608200000    -0.5657358  148.2251000   -15.1912300   54.5317000   -54.5356000   60.2032000   -53.4196200   92.2561000 
 		     -15.1454500   54.3784600    -0.5410256  148.0977000   -53.5016000   74.5752500   -52.6958500   85.5033200
 		     -53.7341500   84.1388900   -58.4496900   77.5927200    -0.9186710  128.4006000   -16.1033900   35.7745000
 		     -53.6173100   92.8429000   -54.6415500   48.0943300   -16.1019700   35.5856900    -0.9375859  128.3350000
   12678190000    -0.5639678  148.0243000   -15.1731600   53.8721100   -53.4635900   74.7335200   -55.3434400   80.0847900 
 		     -15.1674300   54.2929200    -0.5599790  147.9009000   -54.1051600   87.3951900   -53.1306200   73.9681900
 		     -55.7600500   71.4621900   -53.0245100   78.8607500    -0.9383563  128.0775000   -16.1568500   35.3936700
 		     -52.6475100   79.4617000   -62.1250200   50.4515500   -16.0872600   35.1850500    -0.9316522  128.0617000
   12748180000    -0.5419226  147.8173000   -15.2136800   53.7886000   -52.8402900   65.2285000   -52.0791200   81.5851500 
 		     -15.1053800   54.0965300    -0.5538568  147.7371000   -53.1496900   66.3559600   -51.7933700   69.6017600
 		     -53.9743500   68.1951100   -56.5014300   58.5445100    -0.9381815  127.8575000   -16.1530800   35.1440600
 		     -53.7420800   77.2590600   -51.5291600   82.8992300   -16.0639000   34.9345200    -0.9276832  127.7384000
   12818170000    -0.5496690  147.8152000   -15.1420900   53.7640800   -53.8404100   74.1463700   -53.9127300   76.2431300 
 		     -15.0996500   53.7454000    -0.5617371  147.4664000   -55.6248600   78.0859100   -52.1512600   69.4388500
 		     -53.5668000   80.5043700   -54.0279300   51.6471600    -0.9169267  127.5981000   -16.1064700   34.7105100
 		     -54.9562100   81.4205300   -50.8547000   84.9116100   -16.0779900   35.0404500    -0.9300505  127.6287000
   12888160000    -0.5567747  147.4893000   -15.1056100   53.7197700   -53.0389600   78.8290400   -53.4403300   77.7355900 
 		     -15.0656100   53.8645400    -0.5599666  147.5035000   -55.6757400   67.1026200   -52.5380900   74.2091500
 		     -53.8354200   68.3454200   -54.4281000  110.6386000    -0.9314210  127.3562000   -16.0769600   34.3658100
 		     -51.0621100   75.0117800   -52.8682200   65.0955800   -16.0550400   34.7441600    -0.9329273  127.2515000
   12958150000    -0.5616028  147.3780000   -15.0882500   53.6371500   -52.6420600   57.9599200   -51.8901800   81.0430100 
 		     -15.0804900   53.7977800    -0.5573274  147.2897000   -53.0473300   71.2698400   -52.1970800   65.0285800
 		     -52.7966000   54.1088600   -52.1500600   70.7830700    -0.9417295  127.0550000   -16.0405500   34.1538300
 		     -54.8121000   77.0270300   -53.0479800   81.7080100   -16.0297100   34.6617900    -0.9444864  126.8827000
   13028140000    -0.5559838  147.2643000   -14.9913900   53.6099900   -52.6997400   73.3095900   -52.2757500   80.6026600 
 		     -14.9667800   53.2226500    -0.5532167  147.0721000   -51.2768100   72.3924000   -51.0852900   69.1208300
 		     -52.0063200   72.3423600   -51.6189100   62.2424900    -0.9307612  126.7886000   -15.9757000   34.1638600
 		     -53.3502800   76.7842100   -53.1735500   80.0292200   -16.0335100   34.4172000    -0.9347497  126.7913000
   13098130000    -0.5578024  147.0952000   -15.0467000   52.6195300   -56.0427200   69.9493300   -51.4130200   73.8642000 
 		     -15.0583000   53.4153600    -0.5609601  146.7681000   -52.9468800   74.4636300   -52.2825200   65.9014200
 		     -52.9580400   67.4325300   -52.0193600   55.9757300    -0.9407156  126.4991000   -15.9856800   33.9815100
 		     -53.3644300   77.0617200   -52.8397500   65.6082300   -16.0645400   34.0533200    -0.9428033  126.5139000
   13168120000    -0.5709981  146.7945000   -15.0587600   52.9152200   -54.1162000   68.7388300   -51.9191100   76.6526700 
 		     -14.9417600   53.0804400    -0.5499654  146.6983000   -53.8926600   64.1396100   -51.9085200   68.2574700
 		     -51.0321800   87.4813900   -51.6422500   57.3632000    -0.9516453  126.3123000   -16.0052800   33.8130200
 		     -50.8074400   85.7875700   -48.7363000   62.2441800   -16.0727800   33.7303500    -0.9305242  126.0857000
   13238110000    -0.5449677  146.7563000   -14.9556100   52.5691400   -52.7152900   68.5373400   -52.6514000   75.5041100 
 		     -14.9185800   52.7699800    -0.5569624  146.5340000   -54.6429900   69.6613200   -51.4809600   72.5086800
 		     -51.2877500   69.6347400   -51.4064100   72.8748300    -0.9463857  125.9451000   -15.9861500   33.4951900
 		     -53.2996800   61.2652700   -51.9758300   78.5448800   -16.0000700   33.4010000    -0.9274243  125.9109000
   13308100000    -0.5607671  146.5978000   -14.8781900   52.8441300   -51.4318400   71.6837800   -54.1043200   67.9780700 
 		     -14.8829500   52.7486100    -0.5635653  146.4209000   -53.6922600   65.3904100   -51.3589300   71.1390800
 		     -53.0248900   76.0188400   -51.9381400   65.9180600    -0.9476818  125.7506000   -16.0111400   33.3624700
 		     -53.6271700   72.6325800   -51.8999500   59.0760600   -15.9864400   32.9075600    -0.9312446  125.6561000
   13378090000    -0.5682182  146.2816000   -14.8781000   52.8371000   -52.8160200   71.0272700   -53.0341300   62.6853300 
 		     -14.8585700   52.6638000    -0.5571749  146.2875000   -51.5572100   74.8708200   -51.7729000   67.9577700
 		     -54.8655600   70.1800500   -59.8697600   48.1258200    -0.9499112  125.4120000   -15.9775300   32.8208700
 		     -51.8781100   74.9613300   -49.9970800   81.4814700   -15.9720100   32.7564000    -0.9476535  125.3753000
   13448080000    -0.5756881  146.2287000   -14.8515000   52.2832700   -53.0174900   71.9281500   -51.6506300   61.2179800 
 		     -14.8812400   52.0806000    -0.5719063  145.9133000   -52.6749100   66.2387400   -50.4620700   58.9729400
 		     -53.0112300   59.9330700   -55.9592900   66.8720800    -0.9451836  125.1968000   -15.9617100   32.2873700
 		     -51.9118000   61.3665600   -51.5389600   50.5775500   -15.9408700   32.4596700    -0.9407516  125.1127000
   13518070000    -0.5657240  146.1060000   -14.8731200   51.7240600   -52.4374200   65.2370000   -53.2997400   70.1568900 
 		     -14.7962500   51.7868000    -0.5632740  145.7847000   -51.7602400   64.5061000   -50.2933100   66.2340400
 		     -53.5575900   71.0138200   -53.7756500   59.7591300    -0.9372792  124.9362000   -15.8950400   32.3625600
 		     -51.6222700   67.7197600   -54.1328600   63.1859100   -15.9085800   32.4857300    -0.9427294  124.9370000
   13588060000    -0.5746869  145.9269000   -14.8504900   52.1331500   -52.4654200   58.4146900   -51.9666400   67.7722300 
 		     -14.7751000   52.0266500    -0.5569763  145.7259000   -52.3394900   64.0743100   -49.7489000   64.5825100
 		     -52.4479800   68.2241000   -56.6420400   92.8498100    -0.9618641  124.6749000   -15.8602200   32.1506700
 		     -50.0655800   62.2063500   -51.2788200   66.6457800   -15.9154300   31.9730100    -0.9614587  124.5260000
   13658050000    -0.5839847  145.6376000   -14.8073600   52.0383800   -52.7609800   65.0204000   -50.2571600   62.3592700 
 		     -14.7854400   51.8312500    -0.5705308  145.5325000   -52.5751600   65.0489900   -51.5307200   67.3692000
 		     -50.7307300   61.5514000   -50.8003800   67.7491800    -0.9493343  124.3863000   -15.8614700   32.0400500
 		     -51.1084400   70.2279000   -54.2894700   46.4761500   -15.8619700   31.8074200    -0.9491069  124.2725000
   13728040000    -0.5717655  145.5882000   -14.7162600   52.0091900   -52.1742600   62.9688700   -52.4277600   59.2894600 
 		     -14.7294700   51.4859200    -0.5681197  145.2882000   -51.7353800   59.3026200   -50.8629400   55.7039500
 		     -51.2216700   69.4377500   -52.7515100   51.8329200    -0.9439719  124.0657000   -15.8635000   31.9017200
 		     -52.1961500   71.1579100   -51.2243500   53.8129300   -15.8547500   31.6656400    -0.9423035  124.0645000
   13798030000    -0.5910226  145.4496000   -14.6581900   51.6880000   -52.6772800   63.1627700   -51.8217500   52.4455200 
 		     -14.7640700   51.4620200    -0.5815570  145.3354000   -51.8278200   53.2778200   -50.6029100   62.6494500
 		     -50.1328500   64.1558100   -51.3899800   78.7016400    -0.9617230  123.8530000   -15.8744100   31.6621700
 		     -51.3950600   63.5251400   -50.5887000   82.3503900   -15.8579400   31.5327500    -0.9561986  123.7901000
   13868020000    -0.5803257  145.2719000   -14.7330700   51.5029500   -51.1922900   64.4577100   -51.9343800   63.3657000 
 		     -14.7225700   51.1066100    -0.5801363  145.0733000   -52.3948400   65.7822000   -50.7308500   61.9200100
 		     -53.4148700   67.3315200   -51.7945900   75.2286900    -0.9550641  123.6219000   -15.9030800   31.4562200
 		     -50.6540700   54.6295200   -55.0559700   73.8979000   -15.8259100   31.4309500    -0.9488988  123.5041000
   13938010000    -0.5736918  145.1504000   -14.6863700   51.2070300   -51.4735000   59.7040200   -51.9593200   65.5174000 
 		     -14.6759500   50.8552900    -0.5703528  144.8743000   -51.3317800   62.6182300   -50.6185000   54.1473900
 		     -51.9546900   70.1122400   -52.5277900   55.1428800    -0.9482778  123.3298000   -15.8515200   30.9873300
 		     -50.5046100   66.3257100   -50.5377800   74.0893200   -15.8400700   31.0895000    -0.9425434  123.2700000
   14008000000    -0.5920813  144.9149000   -14.6907700   51.3572900   -51.6268400   54.3219500   -51.3399600   64.7837800 
 		     -14.6370900   50.8474200    -0.5682589  144.7088000   -50.8932700   63.8192100   -51.2846000   60.5291500
 		     -53.7764800   67.3472400   -52.7260400   43.2285200    -0.9628496  123.1096000   -15.8263500   30.6988300
 		     -52.0120300   65.2428500   -51.4184600   49.5837300   -15.8215600   31.0008300    -0.9528702  122.9872000
   14077990000    -0.5901528  144.7464000   -14.6239300   51.3848100   -51.2887500   56.3807400   -50.3177300   60.3937800 
 		     -14.6038900   51.0774000    -0.5937884  144.6118000   -51.6654700   63.1393200   -49.2988100   64.6761400
 		     -53.1103100   53.4842100   -51.3084400   86.5615500    -0.9647734  122.8133000   -15.8176500   30.2512700
 		     -50.8944800   55.2831400   -54.4832000   50.0503500   -15.8333800   30.5481900    -0.9553054  122.7208000
   14147980000    -0.5765160  144.6055000   -14.6158000   50.8825800   -49.5433400   53.2162600   -50.8737000   58.1435900 
 		     -14.6286500   50.6362800    -0.5735855  144.4261000   -51.7511500   60.7366700   -51.1856100   50.0396400
 		     -50.9802200   59.6676100   -49.8180500   59.5193100    -0.9610192  122.4805000   -15.7413000   30.2265100
 		     -51.7222900   51.7917900   -50.7746500   47.8403200   -15.8507900   30.2537500    -0.9516811  122.4129000
   14217970000    -0.5845572  144.4839000   -14.5345700   50.5518200   -51.5737800   54.9233200   -51.1104800   49.3690200 
 		     -14.5850300   50.2573600    -0.5612988  144.2509000   -52.6989500   53.9135300   -50.9292400   52.5300800
 		     -51.5217900   62.9676100   -50.8691000   63.3085100    -0.9672254  122.2994000   -15.7793600   30.1920900
 		     -50.5989500   54.1864500   -49.6225100   54.1749400   -15.8204200   30.2425000    -0.9608758  122.1727000
   14287960000    -0.5941015  144.2917000   -14.5413800   50.6813100   -50.4087800   58.1389400   -53.0487700   59.7067000 
 		     -14.5351300   50.5881500    -0.5758083  144.1402000   -51.4734300   54.4955600   -51.2428300   57.5843300
 		     -52.3207300   58.8070600   -49.2083600   43.4082900    -0.9638255  122.0362000   -15.7748100   30.2702600
 		     -50.7105400   49.4635000   -49.3619300   61.0781400   -15.7821500   29.7972900    -0.9567862  121.8728000
   14357950000    -0.5831119  144.1222000   -14.5874900   50.5230600   -52.5867100   48.4010000   -51.7397300   55.9886900 
 		     -14.5522100   50.4122500    -0.5815256  143.9520000   -51.9255400   67.6399800   -50.3345600   55.4776100
 		     -51.3908800   56.3799500   -53.2208300   67.4267100    -0.9576952  121.7250000   -15.7833300   29.9370200
 		     -49.2806600   43.8176400   -53.6171500   49.5228700   -15.7924400   29.6866300    -0.9491844  121.6587000
   14427940000    -0.5879421  144.0412000   -14.4756700   50.6187900   -52.9618300   51.3268600   -51.5124300   51.0877200 
 		     -14.4947100   50.4916500    -0.5860538  143.7770000   -52.2488800   52.4415600   -50.5003700   57.0832200
 		     -51.2226300   58.5721200   -53.7629200   66.2052000    -0.9653198  121.4370000   -15.7911200   29.6267100
 		     -50.9803400   50.8407300   -48.1464800   59.5290800   -15.7702100   29.3690400    -0.9580414  121.4615000
   14497930000    -0.5986509  143.7975000   -14.4618500   50.0492400   -52.4188000   56.0823400   -52.1295200   43.3121900 
 		     -14.4773000   50.1991800    -0.5894177  143.6584000   -52.1256100   55.1775600   -50.8607100   48.0170200
 		     -50.5033000   49.4487100   -50.4904300   31.8347900    -0.9641509  121.2452000   -15.7738200   29.2736400
 		     -50.1923100   57.2605200   -51.0997500   51.5454500   -15.7624700   28.9790400    -0.9705570  121.1382000
   14567920000    -0.5860415  143.6194000   -14.4167500   49.8445500   -52.5255900   49.3675200   -51.0021400   52.1951600 
 		     -14.4515000   49.9701300    -0.5832457  143.4406000   -51.7082300   51.9365100   -51.6189600   47.4073000
 		     -49.3875700   45.0974600   -51.9282500   60.5110800    -0.9626560  120.9668000   -15.7294300   28.8862600
 		     -54.3105900   35.8535300   -50.5649600   47.0684800   -15.7371900   28.6912700    -0.9739059  120.7952000
   14637910000    -0.5792344  143.4909000   -14.4229700   49.7708600   -51.6119000   51.9260000   -52.2718100   40.1770400 
 		     -14.4332300   49.7552200    -0.5957669  143.2833000   -52.9294700   54.2919600   -51.1562800   52.3895600
 		     -52.0756800   37.0127100   -52.6840400   25.7008200    -0.9717811  120.7174000   -15.7407100   28.7353000
 		     -50.2175400   47.3875500   -49.7769500   42.2219200   -15.7299300   28.6026100    -0.9834955  120.5950000
   14707900000    -0.5994931  143.3042000   -14.3950200   49.8754000   -50.3860600   49.6376500   -50.6130900   44.1735600 
 		     -14.3951500   49.9978600    -0.5720791  143.2023000   -52.5024000   54.7937300   -50.5287100   42.4816400
 		     -50.2014900   45.5358300   -51.9653700   42.8031600    -0.9803783  120.3843000   -15.7000400   28.5535500
 		     -54.1861300   52.6481900   -50.2469400   47.7635300   -15.7006000   28.6336700    -0.9642268  120.3209000
   14777890000    -0.5966583  143.0409000   -14.4051200   49.9769400   -51.1884500   47.1165400   -51.6297700   50.7196800 
 		     -14.3638600   49.8410100    -0.5822132  142.9122000   -52.0078200   46.7614100   -49.9029200   47.5872100
 		     -51.1700900   45.6330000   -53.0199400   45.9083800    -0.9790218  120.1605000   -15.6717700   28.2102500
 		     -51.3216900   56.2831300   -50.3030700   54.6384800   -15.6859200   28.2837700    -0.9735845  120.0623000
   14847880000    -0.5876024  142.9431000   -14.3071200   49.5862200   -51.1725000   51.5575800   -50.8327200   50.4335700 
 		     -14.3732400   49.2869800    -0.5892428  142.7232000   -52.4233300   45.5534000   -50.4835900   44.0805400
 		     -50.4158600   36.3984400   -53.5556400   67.1063700    -0.9644127  119.8292000   -15.6614300   28.2799400
 		     -53.3513400   43.5137300   -49.6545200   36.5539300   -15.6494600   28.2283600    -0.9560666  119.7977000
   14917870000    -0.5808375  142.8624000   -14.2532100   49.2757900   -51.2186400   47.3366700   -51.3548200   40.6423300 
 		     -14.3031600   49.6457300    -0.6015470  142.5285000   -52.5257100   40.4029200   -51.5693100   48.5374900
 		     -52.2435000   45.5788100   -53.8833200   48.8410300    -0.9797471  119.6680000   -15.6871600   28.1739000
 		     -51.5875500   41.7740900   -50.1973800   42.9561700   -15.6766100   28.3134600    -0.9691205  119.5849000
   14987860000    -0.6107623  142.6446000   -14.2890100   49.0471800   -52.3721500   54.9075700   -52.3191700   56.9982900 
 		     -14.2915000   48.9170800    -0.6125477  142.3070000   -51.2897900   46.1405000   -50.7612900   46.8702600
 		     -51.6323200   31.4853500   -51.7248700   54.1246500    -0.9745421  119.3520000   -15.7113500   27.7148700
 		     -49.6054900   58.2615400   -53.5338500   36.8545700   -15.6981600   27.7476800    -0.9791801  119.2491000
   15057850000    -0.5913148  142.3972000   -14.2974400   48.7677000   -51.9339300   45.5705500   -51.1433900   45.3110800 
 		     -14.3051500   49.1873500    -0.6031986  142.2586000   -52.6437600   42.6373100   -50.6700900   51.9562200
 		     -53.4259900   39.2603300   -48.9755200   27.5813200    -0.9821126  119.0284000   -15.6931700   27.2713000
 		     -51.5512800   50.3524700   -49.8653000   48.3121500   -15.7107800   27.3534600    -0.9700246  119.0153000
   15127840000    -0.5985714  142.3170000   -14.2050200   49.0597400   -51.3693300   42.7310800   -51.2178000   51.8238000 
 		     -14.2277700   49.0036800    -0.6006971  142.0797000   -51.6546800   50.5452200   -50.6213900   40.5456900
 		     -51.4575100   37.9920800   -53.2371000   55.6682700    -0.9869485  118.8100000   -15.6593400   26.8526100
 		     -52.1506200   50.6604200   -51.3190200   50.1147200   -15.6818700   27.1441200    -0.9808737  118.7018000
   15197830000    -0.6137032  142.0915000   -14.1940000   49.5461800   -50.1746500   43.1084300   -51.8485800   33.2145600 
 		     -14.2188800   48.7790200    -0.5783719  141.9226000   -51.4182300   44.0886300   -51.4500200   50.6602800
 		     -51.5798200   33.9406700   -51.2656900   25.5788500    -0.9803543  118.5524000   -15.6506900   26.7772100
 		     -51.6434300   45.6601500   -50.5300600   13.0184500   -15.6814700   26.9360800    -0.9866022  118.5687000
   15267820000    -0.5925542  141.9432000   -14.1906500   48.6993000   -50.8898100   38.3143900   -51.5575300   42.8219800 
 		     -14.2158900   48.7510000    -0.6168376  141.8544000   -52.2495500   51.1264200   -51.1047400   44.6514900
 		     -54.5175900   38.4037100   -51.9204800   37.4748500    -0.9946983  118.3280000   -15.6090800   26.6963700
 		     -54.2077700   47.1944600   -53.2701600   41.9467200   -15.6977600   26.7772100    -0.9833173  118.2449000
   15337810000    -0.5948646  141.8582000   -14.1178300   48.3672000   -51.5482400   50.4673300   -51.5055800   36.3195500 
 		     -14.1894500   48.7358500    -0.5988542  141.6634000   -52.1120800   41.3196800   -50.6316000   36.3698400
 		     -51.9060400   42.9230800   -52.0728800   42.0483900    -0.9886813  118.0607000   -15.5940200   26.5030300
 		     -50.8346000   32.0108700   -53.1442300   42.4216000   -15.6682800   26.3008100    -0.9852730  117.9184000
   15407800000    -0.6082838  141.7533000   -14.1617400   48.3604000   -51.2753000   42.7362100   -52.6253100   45.2910700 
 		     -14.1459800   48.4908300    -0.5773872  141.6241000   -52.8162400   45.0732900   -51.8755900   46.3023600
 		     -52.2708700   63.1376400   -52.1803900   51.2492400    -0.9933425  117.8026000   -15.6332000   26.4252500
 		     -50.3222600   59.5463500   -51.1614900   68.5548200   -15.6301300   25.9274900    -0.9773510  117.7388000
   15477790000    -0.6141737  141.4701000   -14.1192300   48.3134300   -50.9351400   38.9351000   -52.6279100   33.2480200 
 		     -14.1533800   48.5778400    -0.6098954  141.3295000   -52.7345600   41.3004600   -51.4081000   40.9860300
 		     -50.4075800   42.8982700   -57.0614900   51.5280200    -0.9944460  117.5126000   -15.6293200   26.3732900
 		     -53.1051600   39.9208500   -52.2531500   22.9254500   -15.6275200   25.8849900    -0.9791341  117.4296000
   15547780000    -0.6320102  141.3380000   -14.1070400   48.2436600   -51.2631000   49.7235700   -51.7565300   42.6228600 
 		     -14.1593000   48.0211300    -0.6177563  141.1678000   -51.1979200   45.0186100   -51.6553800   35.7212300
 		     -51.9161700   28.5227300   -51.9005200   31.2080700    -0.9940802  117.2430000   -15.6175000   25.8115900
 		     -48.5711300   35.8228800   -49.7870900   49.4046000   -15.5736500   25.7565700    -0.9850684  117.1412000
   15617770000    -0.6469179  141.2245000   -14.0078200   48.0946500   -52.6373700   40.5191100   -54.1078600   37.4983600 
 		     -14.0802200   47.9695400    -0.6288754  141.0327000   -51.3032500   42.4763100   -50.9995200   44.0759200
 		     -52.6072900   38.8550700   -49.9978000   10.2604500    -0.9855772  116.9957000   -15.6056800   25.6111100
 		     -52.0633900   40.5143800   -51.9196400   43.2916100   -15.5644500   25.5460400    -0.9901227  116.9630000
   15687760000    -0.6425170  140.9814000   -14.0131800   47.6310300   -52.3943900   34.3796800   -52.0353500   44.6629300 
 		     -14.1236600   48.3768800    -0.6494057  140.9018000   -53.2288900   27.3896900   -50.8795200   30.4516600
 		     -52.6488200   29.3565300   -53.4660900   36.1941100    -0.9953653  116.7498000   -15.5906000   25.2323800
 		     -51.6577100   54.9613600   -50.8465600   28.0662300   -15.5882000   25.5010500    -0.9910290  116.6548000
   15757750000    -0.6280488  140.7809000   -14.0229900   47.2694700   -51.7299100   39.8946600   -52.1467800   36.5747200 
 		     -14.0463800   47.6045300    -0.6428201  140.5847000   -52.4230900   29.9016600   -51.7509300   36.8446100
 		     -53.8430700   34.0694900   -50.2647100   18.8456800    -1.0068130  116.4479000   -15.5667300   24.9830400
 		     -51.7131800   48.1363800   -53.9666400   41.2763100   -15.5659700   25.3433200    -0.9906583  116.3615000
   15827740000    -0.6156636  140.7819000   -14.0516500   47.8535900   -52.0482900   38.2710400   -51.1401700   41.6287800 
 		     -13.9758500   47.8907200    -0.6078128  140.7022000   -53.5417000   43.4397400   -51.0500900   34.0075500
 		     -51.2930900   40.4548700   -51.6917600   61.9135300    -0.9865558  116.2450000   -15.5255000   24.8720500
 		     -52.6761100   42.5123000   -52.0909000   28.6826000   -15.5486200   24.9547700    -0.9808526  116.0813000
   15897730000    -0.6312016  140.5891000   -13.9780700   47.5934000   -52.5539400   39.3219300   -54.2203200   46.2618400 
 		     -13.9929300   47.7397900    -0.6072593  140.3711000   -53.3427400   30.9033800   -50.8745300   47.3986700
 		     -51.7164000   30.1366800   -53.3836200   31.0559800    -0.9981772  116.0057000   -15.5386500   24.8497800
 		     -51.1461900   37.5733500   -51.7058500   31.9447900   -15.6101000   24.9919800    -0.9949580  115.8459000
   15967720000    -0.6197040  140.4490000   -13.9369200   47.6020100   -53.9757300   18.4921000   -52.0351300   48.9106600 
 		     -13.9981500   47.3644800    -0.6253654  140.1772000   -52.4509200   32.0393800   -52.1423900   40.5973200
 		     -51.7912400   36.8641400   -52.4063900   40.5173400    -0.9953122  115.6861000   -15.5390600   24.7074000
 		     -53.0050400   33.8987500   -53.4560400   25.6921700   -15.5756400   24.6285300    -0.9897833  115.6292000
   16037710000    -0.6144060  140.3180000   -13.9058400   47.0732000   -52.5313900   39.2371900   -53.5739900   30.6288400 
 		     -13.9203800   47.4295700    -0.6154480  139.8016000   -51.7973400   31.0022800   -51.2404100   39.9592100
 		     -51.7435400   42.8268000   -52.3679800    2.7147980    -0.9961576  115.4655000   -15.5568600   24.5277300
 		     -53.2605900   51.3651700   -49.7641800   29.8587200   -15.6015500   24.4746300    -0.9849209  115.3630000
   16107700000    -0.6134077  140.1396000   -13.9050400   46.7459000   -52.0851600   32.6651700   -52.9944000   43.3100800 
 		     -13.8966100   47.5085900    -0.6137124  139.9405000   -51.3160200   46.4499500   -51.7511600   43.1553100
 		     -51.4269400   29.8207400   -51.8561600   34.9070500    -1.0037070  115.2016000   -15.5977700   24.2199800
 		     -51.5183600   44.2403000   -49.5351100   26.4003700   -15.6037300   24.1332800    -0.9885464  115.1343000
   16177690000    -0.6199017  139.8294000   -13.9124400   46.6693600   -54.2196300   36.3170500   -52.6874500   37.8608700 
 		     -13.9304200   47.2453700    -0.6352181  139.6649000   -52.3562300   32.5271400   -52.4131200   41.7019900
 		     -51.7913400   30.7860100   -55.3603000   48.5622600    -1.0090080  114.9096000   -15.6065200   23.6964500
 		     -51.8841700   16.1817400   -50.5734800   44.5078200   -15.5984900   23.7213800    -0.9987492  114.7884000
   16247680000    -0.6137664  139.7803000   -13.8542400   46.8064100   -51.6534300   38.5088000   -52.8007400   38.4888600 
 		     -13.8464200   46.5462600    -0.6287769  139.4963000   -52.9104000   42.5842200   -51.9484700   37.6860800
 		     -52.1826000   45.1652400   -52.6605800   38.7825800    -0.9923173  114.6519000   -15.5430500   23.5031600
 		     -52.2181300   27.1243200   -52.9638300   27.6163100   -15.5407800   23.4400000    -0.9916456  114.6144000
   16317670000    -0.6249999  139.6991000   -13.7949600   46.8641700   -51.2459300   31.7651500   -51.9437000   33.1447000 
 		     -13.7959700   47.2406200    -0.6272230  139.3250000   -53.8166000   37.8750500   -51.6138300   49.8177800
 		     -54.3258900   32.1878900   -53.2060700   17.2778500    -0.9989777  114.4132000   -15.5108400   23.1405600
 		     -53.2911700   51.7194600   -50.7126700   33.3529200   -15.5326700   23.1831700    -0.9909395  114.3603000
   16387660000    -0.6201286  139.5715000   -13.8286500   46.5946000   -53.1666100   41.0996500   -52.7871100   45.6333400 
 		     -13.8228300   46.7447200    -0.6347244  139.1041000   -52.6219600   36.8514500   -51.5932100   41.5780000
 		     -53.9203000   35.6251200   -54.6094700   28.4459500    -1.0075120  114.1255000   -15.5152200   23.1238100
 		     -52.4235000   61.2290600   -55.7189300   29.9561200   -15.5633900   22.9109700    -0.9988949  114.0759000
   16457650000    -0.6242807  139.4330000   -13.8031200   45.8481900   -53.4877100   29.9896500   -53.6006600   35.5924500 
 		     -13.7614000   46.4700700    -0.6156117  139.0287000   -53.9817700   35.1096700   -52.4489100   38.2327400
 		     -50.6840200   36.1661900   -57.1968900   52.7883800    -1.0055930  113.8906000   -15.5345100   23.0315000
 		     -52.8784200   60.1623400   -50.7747300   36.2831500   -15.5254000   22.7221600    -0.9934115  113.7471000
   16527640000    -0.6296372  139.2351000   -13.7706400   46.0040400   -52.2183300   36.7177200   -52.1412600   42.4138200 
 		     -13.7798900   46.3573300    -0.6318953  138.7865000   -53.1922100   30.5135800   -52.3562500   41.5213700
 		     -54.0536600   41.5483000   -53.4804700   27.1003200    -0.9992226  113.6636000   -15.5254700   22.7921400
 		     -52.1457700   40.0716100   -51.0651400   53.7104300   -15.5001200   22.4647200    -0.9915500  113.5918000
   16597630000    -0.6209268  138.9398000   -13.7483800   46.1220700   -52.2966100   35.4325200   -51.6621800   33.8976500 
 		     -13.7410100   46.2894800    -0.6366059  138.6685000   -51.7191000   43.7673400   -52.2638400   37.8812600
 		     -53.0206000   47.4147600   -52.4171400   44.9264100    -0.9972805  113.3280000   -15.5488700   22.6053300
 		     -51.1352300   41.3525100   -50.7006000   42.2400700   -15.4806000   22.3817000    -0.9983716  113.2708000
   16667620000    -0.6191395  138.9034000   -13.6739900   45.8052600   -52.7471100   33.9212500   -52.8226400   32.5393100 
 		     -13.6978500   46.2157700    -0.6128929  138.4634000   -51.7291100   45.7266300   -52.2687700   44.2678100
 		     -53.7353900   42.4860600   -52.2836000   33.4724400    -1.0111590  113.1126000   -15.5381900   22.0920800
 		     -52.6968900   37.2143100   -49.1771600   36.7778500   -15.4978300   22.2050700    -0.9970819  112.9698000
   16737610000    -0.6326648  138.7535000   -13.6331800   45.8416000   -52.0946400   39.5496300   -52.4289700   52.4741000 
 		     -13.6479300   46.1026800    -0.6185015  138.4305000   -54.3569200   47.9210800   -52.0945700   39.5750200
 		     -52.7877800   34.8126000   -53.5520200   27.4484600    -0.9966588  112.8625000   -15.5354800   21.8850800
 		     -51.2911800   32.0984500   -49.1079300   56.0943200   -15.4962600   22.2021200    -1.0007470  112.7907000
   16807600000    -0.6570560  138.5396000   -13.6545700   45.6861900   -53.8452900   43.2658200   -50.9328000   37.8791800 
 		     -13.6744500   46.1603200    -0.6221198  138.2112000   -53.7814400   47.4305200   -53.4285500   40.6868100
 		     -52.6169200   38.4926900   -54.6797400   11.5634900    -1.0113910  112.6257000   -15.5167700   21.6476300
 		     -52.3332900   35.0113700   -51.4939700   31.8525100   -15.5231500   21.9884500    -1.0017580  112.5176000
   16877590000    -0.6139581  138.3482000   -13.6463500   44.9351900   -51.3539100   35.1974000   -51.4939300   38.6179800 
 		     -13.6292500   45.4569500    -0.6258004  138.0301000   -52.3291000   37.9615900   -50.8366300   33.2858700
 		     -53.4999800   48.6308800   -50.2792200   14.4107400    -1.0113350  112.3070000   -15.4811400   21.1615200
 		     -50.7841800   21.0905000   -50.3076000   44.9974400   -15.5338700   21.5326800    -0.9974182  112.1915000
   16947580000    -0.6175907  138.2039000   -13.6531400   45.1108600   -51.3307100   34.0148400   -52.0767000   39.4061600 
 		     -13.5605400   45.3162500    -0.6165353  137.9638000   -51.7833100   38.3710600   -52.3780500   40.6065100
 		     -50.8319900   43.9313100   -52.2776000   33.8932500    -1.0020490  112.1143000   -15.4583100   21.1095100
 		     -51.5443200   33.0407300   -53.1255900   24.7226500   -15.5104700   21.2461000    -0.9901422  112.0426000
   17017570000    -0.6344969  138.0428000   -13.5918000   45.1043500   -52.4956800   37.1972400   -51.5107400   39.6237500 
 		     -13.6032000   45.3543300    -0.6285388  137.8327000   -53.8719900   37.0414700   -52.0470800   33.7750800
 		     -50.3941000   39.7062600   -51.7452300   76.2273000    -1.0054320  111.7997000   -15.4931500   21.0273200
 		     -51.6375000   26.3025200   -52.8390900   53.7085600   -15.5353300   20.9248900    -0.9984573  111.7231000
   17087560000    -0.6295480  137.9033000   -13.6362500   45.0705300   -52.2231300   37.2297000   -51.8086300   45.5972900 
 		     -13.6213500   44.9523900    -0.6423635  137.7123000   -54.5752300   41.9973300   -51.6505700   42.3915800
 		     -52.8055300   29.3088100   -56.2401000   41.0911400    -1.0145820  111.5308000   -15.5287700   20.7462500
 		     -52.1224700   46.3928300   -52.3462100   69.9482700   -15.5410400   20.7709500    -1.0108210  111.4411000
   17157550000    -0.6212294  137.8299000   -13.5775300   44.9120500   -51.8158500   33.7645100   -52.4734500   36.5904700 
 		     -13.5460700   44.8588800    -0.6343457  137.4392000   -53.3892400   35.6250600   -51.8440300   32.2465500
 		     -51.4970200   39.0535400   -56.7597700   25.0814200    -0.9985092  111.3439000   -15.5199300   20.5670700
 		     -50.1136000   34.0112900   -50.4616900   24.1122000   -15.5028700   20.5522200    -0.9895765  111.1878000
   17227540000    -0.6277499  137.5981000   -13.5348000   44.5214200   -50.9067500   30.1722800   -51.0061800   32.7388700 
 		     -13.5539100   44.7256200    -0.6462252  137.2674000   -52.8591300   31.7289300   -50.5725600   41.5740500
 		     -51.8040800   36.8072800   -57.4872900   16.0670500    -1.0100980  110.9820000   -15.5198600   20.3306400
 		     -51.8100400   35.5496300   -49.4951100   41.2392300   -15.5326200   20.0759200    -0.9924198  110.8773000
   17297530000    -0.6207610  137.4740000   -13.5759500   44.2711400   -53.5797300   28.5599300   -51.5541000   38.5791900 
 		     -13.5355500   44.5516200    -0.6161349  137.3979000   -52.8114900   31.1069600   -51.2192500   31.5154700
 		     -50.8593000   20.6894400   -51.4782000   28.4559600    -1.0186900  110.7236000   -15.5338900   19.8404800
 		     -49.2993100   20.5047100   -50.1587200   23.5796600   -15.5329700   19.7773000    -1.0138070  110.5844000
   17367520000    -0.6146213  137.2949000   -13.5042600   44.6855900   -51.5830500   31.7359600   -50.6365100   37.4579000 
 		     -13.4788500   44.4669300    -0.6119561  137.0573000   -52.7290400   41.7807900   -51.7157500   27.7091400
 		     -52.0227100   23.5801000   -52.5995800   35.8481300    -1.0091580  110.4931000   -15.4935800   19.6409900
 		     -51.5949100   25.8698600   -48.4091200   40.6335400   -15.4984900   19.4198700    -0.9932062  110.4144000
   17437510000    -0.6316780  137.0084000   -13.4402800   44.4454000   -51.6633300   41.4201400   -51.8594000   43.0213700 
 		     -13.4660500   44.1894600    -0.6171861  136.7927000   -53.1272200   26.0982200   -49.8396000   34.3084700
 		     -51.4016200   43.7854700   -53.5420600   44.5566500    -1.0095710  110.1511000   -15.4907700   19.4154800
 		     -51.0928000   34.1974900   -49.4592500   17.9208700   -15.4668100   19.2765500    -0.9969659  110.0737000
   17507500000    -0.6237251  136.8388000   -13.4342800   43.8252400   -53.6378300   30.0559100   -52.2004500   37.4018200 
 		     -13.4783200   44.1111500    -0.6258124  136.5433000   -52.6021600   34.7509000   -50.4602500   39.3567200
 		     -52.7151500   36.9300300   -58.3654500   20.4993300    -1.0157490  109.8316000   -15.4893800   19.3923000
 		     -50.8891000   43.3125000   -50.1631100   43.1078000   -15.4608400   19.3547800    -1.0119530  109.8596000
   17577490000    -0.6188633  136.6838000   -13.4553200   43.3553700   -52.0190300   21.0434200   -52.5123600   36.5320600 
 		     -13.4933700   43.6860000    -0.6347909  136.5303000   -53.1528500   32.9934200   -50.8937500   29.1646500
 		     -50.8143500   30.4522900   -52.6943100   24.9366900    -1.0052040  109.7466000   -15.4702000   19.0814600
 		     -51.2646000   26.3856000   -54.0811700   32.2702000   -15.4779200   18.9618300    -0.9943282  109.5058000
   17647480000    -0.6284879  136.6441000   -13.4073100   43.8440200   -52.4884500   36.2772600   -51.5807300   30.1757900 
 		     -13.4507300   44.0028500    -0.6361437  136.4005000   -51.8747100   31.7177800   -52.0999000   28.9814800
 		     -54.5401200   45.1770600   -52.3827300   27.6500500    -1.0197030  109.4163000   -15.5276200   18.9912400
 		     -55.9385200   52.0599300   -49.9044500   11.1469200   -15.4718500   18.6697300    -1.0095810  109.3142000
   17717470000    -0.6266859  136.4183000   -13.4507100   43.7836800   -53.6227000   31.6318700   -53.2007400   49.1811600 
 		     -13.3814500   43.5822000    -0.6522688  136.1467000   -51.4387700   38.6508400   -52.4645200   31.3418200
 		     -51.6153800   38.7035900   -53.7120100   29.4983900    -1.0324100  109.0815000   -15.5195500   18.7293300
 		     -52.5860400   21.1874600   -55.1782200   39.5296500   -15.4695600   18.5830600    -1.0128830  109.0781000
   17787460000    -0.6411087  136.3912000   -13.3877500   43.3901400   -52.5222900   38.2596000   -53.4284000   27.7690200 
 		     -13.3937400   43.1361000    -0.6424587  135.8738000   -54.5551700   29.5697200   -50.5608500   32.0440400
 		     -52.6334800   44.3194200   -53.7733900   43.7368700    -1.0273010  108.9565000   -15.5167700   18.2791400
 		     -51.8783400   35.6951900   -51.0154600    8.3839730   -15.4837000   18.1028200    -1.0037100  108.7293000
   17857450000    -0.6410024  136.1303000   -13.3414400   43.2085100   -53.5545800   31.9907800   -51.7590600   32.0436400 
 		     -13.3887700   43.3480100    -0.6512287  135.8017000   -53.8346100    5.7283520   -49.9390900   36.4546400
 		     -50.8142500   30.6825300   -55.0791100   34.7989100    -1.0193730  108.6454000   -15.5394000   18.0294900
 		     -52.3500100   43.3133000   -49.2130900   50.3105200   -15.5220600   18.1869100    -1.0149650  108.4876000
   17927440000    -0.6416272  135.8615000   -13.3912300   43.2895000   -53.6153500   29.7991100   -51.8423700   32.8856300 
 		     -13.3542800   42.9110600    -0.6542064  135.6765000   -52.7055100   25.0030900   -49.8696700   38.9255600
 		     -50.1985200   38.8470800   -51.4206900   62.7660800    -1.0267340  108.3389000   -15.5302400   17.7464500
 		     -51.4979600   33.6085800   -50.4028200    0.6495141   -15.5094600   17.8636800    -1.0127380  108.3344000
   17997430000    -0.6360254  135.7185000   -13.3054700   42.9949000   -53.8461500   22.9983100   -52.8062100   38.4477900 
 		     -13.2951200   43.0125900    -0.6243510  135.6110000   -53.7894500   24.7360400   -50.3813000   29.9183000
 		     -51.5227900   41.7023900   -56.6543900    7.9180500    -1.0056410  108.1999000   -15.4802700   17.4792400
 		     -52.3896600   23.0314900   -49.5480000   34.0429800   -15.5165200   17.6641200    -1.0132330  108.0066000
   18067420000    -0.6248384  135.5896000   -13.3080500   42.8612600   -52.7042600   32.0259700   -51.2759000   18.1802100 
 		     -13.2897000   42.8686400    -0.6394432  135.3292000   -51.3666400   33.7669300   -49.8941400   36.2589500
 		     -51.8757900   25.6046700   -49.4697900   25.8222800    -1.0163810  107.7754000   -15.4927200   17.3069300
 		     -54.8549100   24.8504200   -48.9315600   21.7238200   -15.5581800   17.3737400    -1.0001810  107.8339000
   18137410000    -0.6333821  135.4434000   -13.3155500   42.8146600   -52.0094300   30.1986900   -52.5838700   34.0574800 
 		     -13.3051700   43.0009800    -0.6234448  135.3766000   -53.7372400   29.6870100   -49.6922900   37.4631300
 		     -51.4573800    0.1373349   -54.0949100   38.5062400    -1.0227760  107.6215000   -15.5043400   17.2590600
 		     -52.7999700   42.5822500   -51.7967600    8.7581960   -15.5847300   17.2329900    -1.0207800  107.5218000
   18207400000    -0.6554636  135.2488000   -13.2916700   42.5590800   -53.5660300   22.6745000   -51.0232700   27.7649400 
 		     -13.2870100   42.4700100    -0.6391786  135.0264000   -55.0035800   21.7864200   -51.1258200   35.7115700
 		     -52.7106700   26.9598100   -53.7675100   23.7422400    -1.0197790  107.4011000   -15.5223300   17.1006100
 		     -51.5021800   31.1480700   -50.3791600   12.5756400   -15.5458300   16.7989300    -1.0133590  107.2540000
   18277390000    -0.6339371  135.1860000   -13.2803600   42.0862700   -51.0620200   33.8056400   -52.0099700   28.6643000 
 		     -13.3033200   42.0998800    -0.6476631  134.9692000   -53.5867800   26.5017500   -50.9272300   35.3589000
 		     -50.4135900   20.3404200   -52.3010300   45.3265800    -1.0207720  107.0138000   -15.5468800   16.8318500
 		     -51.5434800   27.7104100   -54.1346500   19.3422100   -15.5111400   16.6088700    -1.0127350  106.9795000
   18347380000    -0.6444932  135.0119000   -13.3110900   42.1563900   -53.3905800   31.8932900   -51.5300200   49.5084700 
 		     -13.2757000   42.1580100    -0.6625149  134.6912000   -52.9518300   35.6665600   -51.5433800   42.3248700
 		     -55.4573600   12.1213300   -56.5857700   31.5811200    -1.0297940  106.8163000   -15.5567700   16.5597500
 		     -51.6841700   15.5776300   -51.6302800   61.5025400   -15.5163900   16.3384600    -1.0140560  106.6323000
   18417370000    -0.6517667  134.7526000   -13.2799900   42.3275300   -52.7457300   29.5267900   -53.6833200   39.6823800 
 		     -13.2466600   41.9485900    -0.6244663  134.5679000   -52.8648200   47.0256500   -50.7131000   25.3112900
 		     -53.1693800   44.6252700   -53.0929500    1.6183600    -1.0245650  106.5756000   -15.5301300   16.3241500
 		     -51.8666800   25.9346800   -52.4102600   26.6377800   -15.5060700   16.1468100    -1.0192810  106.4360000
   18487360000    -0.6563849  134.6554000   -13.2255700   41.9493800   -51.3076500   30.7981700   -54.5623400   40.3878600 
 		     -13.2379500   42.1824700    -0.6216543  134.4746000   -53.0670400   25.8022200   -50.2347100   40.8593900
 		     -51.5624600   28.3574400   -55.8656500    1.3392500    -1.0213790  106.3661000   -15.5638900   16.1320600
 		     -53.8132900   30.4705000   -48.7563500   24.4327800   -15.5482000   16.0282900    -1.0281400  106.2170000
   18557350000    -0.6550717  134.4732000   -13.2597700   41.8977000   -52.7495400   30.5240500   -51.3349100   32.5022700 
 		     -13.2861300   41.7746000    -0.6709534  134.3330000   -52.8578100   31.1340000   -52.0410900   21.4223400
 		     -50.3639500   22.2872200   -49.5615700   21.4207400    -1.0363120  105.9777000   -15.5445500   15.8316600
 		     -52.5944700   26.5981200   -54.5976400   41.0329400   -15.5284500   15.8268100    -1.0215380  105.9603000
   18627340000    -0.6633584  134.3521000   -13.2246900   41.5734600   -50.7663900   31.1525500   -52.4153700   30.1307000 
 		     -13.2449000   41.7759000    -0.6678051  134.2356000   -51.9154000   25.2462800   -49.8648700   30.1349100
 		     -52.6189800   36.1097900   -52.5755700   36.3968200    -1.0327850  105.8608000   -15.5135100   15.4677700
 		     -54.1287200   55.5313300   -49.1888800   24.0335600   -15.5389400   15.3598400    -1.0225460  105.6776000
   18697330000    -0.6573229  134.2926000   -13.1933300   41.5154900   -52.1751300   20.0831300   -52.5393100   23.3449900 
 		     -13.2298700   41.4400400    -0.6389459  134.0766000   -52.5231600   31.3887500   -51.3034900   23.2137200
 		     -54.0370600   23.4329800   -50.7864900   29.2791300    -1.0351740  105.5801000   -15.5596500   15.5782800
 		     -52.4641800   10.6475200   -52.9707300   55.0489500   -15.5096800   15.5921000    -1.0216150  105.5159000
   18767320000    -0.6580638  134.1603000   -13.1493300   41.2820100   -52.9949400   26.4983100   -53.5165200   35.7747100 
 		     -13.1884900   41.5370900    -0.6669897  133.7075000   -53.5922200   14.3746900   -54.3024500   48.6078500
 		     -51.5847800   20.9631500   -55.5734600   45.2466000    -1.0414920  105.2608000   -15.5939900   15.1627800
 		     -54.6058200   18.9081200   -47.8171200   45.3331400   -15.5514500   15.3438600    -1.0131440  105.2074000
   18837310000    -0.6711570  133.7655000   -13.1765600   41.1340500   -52.1058700   35.7638400   -52.2002200   27.9266300 
 		     -13.1843600   41.2279700    -0.6390805  133.7188000   -52.6500300   24.6557400   -51.8000800   34.2136700
 		     -52.2851900   20.6058800   -54.7182200   27.2822000    -1.0391120  105.0700000   -15.5523700   15.0195800
 		     -56.7734300   22.9368900   -51.6128200    8.5942970   -15.5847900   14.8546400    -0.9993207  104.9449000
   18907300000    -0.6692888  133.7313000   -13.1776300   41.3687200   -52.9476600   23.2613400   -52.7736700   26.8639300 
 		     -13.1846800   40.9220200    -0.6497505  133.6242000   -52.5814200   29.1271200   -53.5718100   29.6280500
 		     -53.1934800   49.3521800   -50.6945500   33.7050100    -1.0241210  104.8333000   -15.5636400   14.7858300
 		     -50.7879800   22.5451200   -56.4083000   -7.4328780   -15.5553300   14.9927900    -1.0133500  104.6978000
   18977290000    -0.6613184  133.5650000   -13.1376400   41.0306300   -52.9802100   31.3108400   -52.9217500   34.3105600 
 		     -13.1987300   41.1932500    -0.6814930  133.2426000   -53.5731400   22.5381200   -51.5459900   22.5510700
 		     -53.2269500   39.3664700   -51.4217200   31.9709100    -1.0331030  104.5752000   -15.5608100   14.3958000
 		     -52.5246400   33.8758100   -50.0164300   -2.9906700   -15.5856800   14.2910600    -1.0269660  104.3333000
   19047280000    -0.6539377  133.4434000   -13.1482700   40.9423300   -52.2453700   16.7095600   -50.7666700   34.6247600 
 		     -13.1757400   40.9859100    -0.6704485  133.2175000   -52.5186600   31.1588600   -51.1249800   31.1813100
 		     -55.0598300   18.8901300   -53.1090200   31.2431500    -1.0202750  104.2884000   -15.5599500   14.1114400
 		     -49.6724500   11.9545000   -53.6647300   -0.5679180   -15.5705700   14.0754700    -1.0156230  104.0954000
   19117270000    -0.6678005  133.3803000   -13.1022000   40.9464000   -51.4979500   32.5571500   -52.4709700   32.7241500 
 		     -13.1535000   41.0166700    -0.6697016  133.0480000   -53.2710000   26.0669900   -50.4195600   44.9538700
 		     -55.1454800   22.5777700   -57.3766900   41.5751800    -1.0353910  103.9771000   -15.5763100   13.9448200
 		     -54.2915800   13.7285800   -53.4847600   30.9237900   -15.6275100   14.0291900    -1.0091530  103.8653000
   19187260000    -0.6606116  133.0829000   -13.1111400   40.8627100   -55.0233800   32.6528200   -52.0416800   32.1893900 
 		     -13.1079300   40.7567900    -0.6572118  132.9219000   -52.6745200   14.7746100   -50.9271800   32.1712500
 		     -52.9937900   24.0698100   -54.4640600   10.0417700    -1.0396300  103.7124000   -15.5697100   13.6854300
 		     -51.9564700   34.5772200   -48.2891200   37.7117000   -15.5941000   13.7918500    -1.0252160  103.6216000
   19257250000    -0.6756065  132.9788000   -13.0831600   40.7440100   -52.8462600   27.3807100   -53.3241300   24.8892000 
 		     -13.1484200   40.7037800    -0.6779776  132.8320000   -52.6046000   26.9950700   -52.3361200   33.1305900
 		     -55.2426600   34.3147700   -62.0202100   33.2176000    -1.0283770  103.4744000   -15.5693800   13.5792600
 		     -55.6728700   16.7511500   -52.3090700   32.2246300   -15.5567500   13.4148200    -1.0170100  103.3925000
   19327240000    -0.6564367  132.9318000   -13.0572800   40.4921900   -53.6584900   38.6418800   -52.1734800   25.9837400 
 		     -13.0671800   40.3103600    -0.6756328  132.5517000   -52.0468900   24.0157100   -51.8145600   37.1377900
 		     -51.1004500    8.6064190   -54.4270700   32.6295900    -1.0196230  103.2362000   -15.5782900   13.3419400
 		     -55.2770800   37.7708600   -49.8412100   22.1485600   -15.5752800   13.0802800    -1.0121430  103.0702000
   19397230000    -0.6786591  132.7513000   -13.0243700   40.5503000   -53.1443700   29.7055600   -52.4141700   45.2455100 
 		     -13.0590400   40.3378900    -0.6794475  132.2736000   -51.0275200   32.2916000   -51.2928200   48.1366800
 		     -54.1807300   25.1089800   -51.6183700   37.5433800    -1.0362560  102.9903000   -15.6081700   13.1133900
 		     -51.2281500   26.5713400   -48.7208000   50.8847800   -15.5655200   12.9928700    -1.0315470  102.8553000
   19467220000    -0.6724378  132.5333000   -13.0065100   40.1245200   -52.0219400   27.9706900   -54.9872100   41.5724600 
 		     -13.0412200   40.1795900    -0.6770248  132.1768000   -53.0642500   29.8760500   -50.8136900   28.2977800
 		     -53.1193100   25.2337300   -52.7088600   27.0235600    -1.0292000  102.6892000   -15.6024100   12.7554000
 		     -52.9900400   37.4882200   -53.3661000   44.3266300   -15.6163600   12.6875900    -1.0117650  102.5106000
   19537210000    -0.6729477  132.4521000   -13.0757000   39.8532100   -51.2110900   26.7910600   -53.9769400   32.5220900 
 		     -13.0520100   39.9103400    -0.6708652  132.1669000   -52.0574200   27.2035100   -51.0440100   22.8154600
 		     -50.7666400   20.1780800   -51.8656800   35.0287400    -1.0296650  102.4187000   -15.6208200   12.4594000
 		     -50.4747200   34.4417700   -55.0172700   33.0745000   -15.6203400   12.5649300    -1.0267970  102.2827000
   19607200000    -0.6504507  132.2170000   -12.9634400   39.9622400   -52.1372000   26.3456100   -51.8544800   36.3238000 
 		     -13.0246900   39.9590700    -0.6364659  131.8578000   -52.3522500   14.5341000   -51.8522500   25.6849200
 		     -54.1538300   32.4957100   -61.6984900    2.6886560    -1.0370140  102.1459000   -15.6260800   12.3413600
 		     -52.6193600   18.0770800   -53.3596000   67.3424800   -15.6403300   12.4935200    -1.0215950  102.0987000
   19677190000    -0.6665028  132.0609000   -12.9785200   39.8929300   -54.2135600   19.1478700   -53.9014600   23.3493500 
 		     -13.0116100   39.4995800    -0.6755284  131.8598000   -54.0674600   34.7897800   -51.9333800   11.8254800
 		     -51.5261000   40.9387100   -55.2218100  -12.6857000    -1.0400230  101.8759000   -15.6564800   11.9198000
 		     -50.9505200   34.1283200   -55.8625400   20.8143400   -15.6393100   11.9167700    -1.0285940  101.7770000
   19747180000    -0.6657952  132.0147000   -12.9529800   39.6408000   -51.6598300   20.6042100   -51.0031600   33.3071800 
 		     -12.9769400   39.5616000    -0.6652579  131.7354000   -52.9404500   27.0197500   -50.6516200   34.2592000
 		     -51.8538100   33.3904000   -50.2995700   29.6691500    -1.0326370  101.6211000   -15.6305600   11.7475100
 		     -53.7983000   28.8115600   -54.1871200   22.7866500   -15.6280800   11.9440900    -1.0244930  101.5567000
   19817170000    -0.6687775  131.6873000   -12.9004900   39.4955300   -55.2211200   43.0927700   -51.8434900   16.2298500 
 		     -12.9804400   39.6385500    -0.6705921  131.5579000   -52.1809100   24.7355300   -52.9379800   43.3294400
 		     -51.9108900   30.9907000   -56.6352000   38.8937800    -1.0345390  101.4777000   -15.6295800   11.8247600
 		     -50.4642900   17.5232200   -57.1796900   -6.3805490   -15.6523400   11.7813800    -1.0206990  101.2634000
   19887160000    -0.6575334  131.5548000   -12.9728500   39.0789900   -53.3600500   35.3644300   -52.7006600   31.3324500 
 		     -12.9449700   39.3772500    -0.6582674  131.3756000   -55.4553900   22.2734600   -50.8096500   25.3700400
 		     -51.5843800   31.8999300   -54.5062600   21.0859100    -1.0515330  101.1000000   -15.6725500   11.3783500
 		     -50.6956900   40.6731200   -48.4934800   40.8576500   -15.7005500   11.1996900    -1.0300190  101.0396000
   19957150000    -0.6682911  131.4059000   -12.9466700   39.2868200   -52.9134400   14.8238800   -51.5428500   27.8405600 
 		     -12.9304500   38.9881200    -0.6506865  131.3377000   -52.0662300   28.6627800   -51.0804200   21.2318500
 		     -52.8255700   28.5120000   -52.1496000   21.5471800    -1.0229620  100.8335000   -15.6557900   10.9588800
 		     -53.0075800   26.3380200   -51.0670200   28.7791300   -15.6833300   11.0465300    -1.0233240  100.7576000
   20027140000    -0.6600149  131.2660000   -12.8671000   39.2599900   -49.4029700   20.1051400   -50.0162500   33.7302800 
 		     -12.9319600   39.1962200    -0.6757290  131.1597000   -51.8440700    8.6712300   -51.5182200   30.8254800
 		     -51.8554700   26.2803900   -49.8941100   11.4476900    -1.0323800  100.5725000   -15.6908400   10.7609400
 		     -51.5528500   38.3791800   -52.1037100   15.1280200   -15.6731800   10.7517500    -1.0207300  100.4337000
   20097130000    -0.6725255  131.0793000   -12.9125100   38.8955900   -53.0565700   30.9803800   -51.2727800   29.3753500 
 		     -12.9939300   38.6119000    -0.6918844  131.0728000   -53.3695100   42.1560100   -52.1224700   39.1060900
 		     -52.1005600    5.3646760   -51.7151900  -15.1486900    -1.0484080  100.3330000   -15.7194200   10.3963000
 		     -54.5645900   28.2417300   -52.5221300   39.5512600   -15.7263700   10.4341200    -1.0385930  100.1490000
   20167120000    -0.6562846  130.9585000   -12.8694300   38.7094300   -52.7974500   27.6036900   -54.1839300   29.4200300 
 		     -12.8826600   38.6814100    -0.6298029  130.7883000   -51.9146800   15.3546500   -52.1377900   24.2444100
 		     -48.8631200   32.6824200   -55.8119500  -22.7309500    -1.0221450  100.0769000   -15.6662600   10.1138400
 		     -53.6174200   26.5466800   -49.1363900   57.8537300   -15.7001400   10.0376400    -1.0230240   99.8324400
   20237110000    -0.6595267  130.8131000   -12.9259000   38.4569100   -52.7407300   28.2604900   -50.0997400   30.6961300 
 		     -12.8713100   38.5508200    -0.6732941  130.4922000   -53.4943700   17.7627200   -51.0985500   37.8968300
 		     -50.8846200   37.3037100   -52.6344500   28.8610800    -1.0433990   99.8878400   -15.7450200    9.9068650
 		     -51.0696000   19.7390500   -50.9143000   28.7784600   -15.6956800   10.1362400    -1.0249060   99.6773800
   20307100000    -0.6887060  130.6694000   -12.9217200   38.2887800   -52.4604800   35.0352700   -51.5330500   29.3784400 
 		     -12.8736800   38.6114300    -0.6725669  130.2981000   -53.0451200   26.4872600   -51.6065400   22.7187500
 		     -59.2173000    9.2303090   -58.2887300   43.9145400    -1.0372660   99.4680000   -15.7297800   10.1719200
 		     -50.4308000   24.4899700   -46.7370200   26.0704600   -15.7210900    9.8769560    -1.0449260   99.4283300
   20377090000    -0.6788612  130.4651000   -12.8523800   38.7918200   -51.1837000   23.4232600   -52.4763300   36.7244600 
 		     -12.8730000   38.2900200    -0.6451205  130.4397000   -52.4844500   34.4546300   -51.1953500   37.4137200
 		     -52.2439700   19.6124400   -51.0514800   58.8144400    -1.0424750   99.1997900   -15.7532700    9.7873080
 		     -52.2866000   47.8797700   -51.8188900  -35.3604800   -15.7528500    9.6097830    -1.0271340   99.1224100
   20447080000    -0.6950620  130.3025000   -12.9058800   38.4485200   -53.2664800   20.1267400   -53.2362300   36.7110200 
 		     -12.8934400   38.4607300    -0.6684258  129.9711000   -51.8272700   26.0241900   -50.1213400   14.1736500
 		     -53.9863900   18.8853200   -51.3583200   14.9927200    -1.0455540   99.0955400   -15.7845900    9.8774260
 		     -56.2397600   15.0407400   -49.2093700   20.5512500   -15.7061900    9.4227990    -1.0290610   98.7664900
   20517070000    -0.6820521  130.2397000   -12.8272800   38.2567800   -50.3599100   28.6835400   -54.0979500   21.5912700 
 		     -12.8616100   37.9602900    -0.6424581  129.9771000   -51.2084100   17.4000500   -50.2359000   32.4188300
 		     -52.3632100   25.2564200   -56.3157000    8.3189120    -1.0441390   98.7774900   -15.7840100    9.3121730
 		     -51.9934500    7.6895320   -51.1248100   13.9485700   -15.7527700    9.3794600    -1.0302240   98.6587800
   20587060000    -0.6911283  129.9894000   -12.8510600   37.3081900   -51.6046400   24.8344700   -51.3155600   22.6281000 
 		     -12.8201500   37.6582800    -0.6749488  129.6897000   -51.0267100    4.7622960   -52.0868200   32.3597400
 		     -51.8898500   25.0162300   -53.1619600   20.5541300    -1.0372860   98.6136600   -15.7773000    8.8683510
 		     -55.2657200   41.5340800   -47.2638900   24.9800100   -15.7541900    9.1450320    -1.0346960   98.3428800
   20657050000    -0.6698928  129.8459000   -12.7877000   37.6685300   -51.7008100   29.1418200   -52.5923800   23.4881500 
 		     -12.8138300   37.4088600    -0.6992996  129.5448000   -51.7893700   23.3580700   -51.2153800   14.2028500
 		     -54.6813500   42.6048900   -57.1328200   27.6336000    -1.0439590   98.3690900   -15.7717200    8.6643100
 		     -52.9057900   25.2384200   -49.1467300   54.6588400   -15.7441900    8.8133250    -1.0416390   98.2183600
   20727040000    -0.6844655  129.7916000   -12.8003700   37.2350800   -51.4028500   36.4074000   -52.5354300   34.7456700 
 		     -12.8512900   37.3753300    -0.6664815  129.3693000   -51.4320500   17.4492200   -51.9887800   28.1976700
 		     -49.9727800   25.0791400   -49.7490900   27.5123100    -1.0500310   98.0373800   -15.8328000    8.3577580
 		     -57.3899200   14.8946300   -54.8712500   56.3607300   -15.8271700    8.6156270    -1.0406830   97.9214300
   20797030000    -0.6930302  129.6489000   -12.7178500   37.3976600   -52.1368500   25.0960500   -53.5519900   20.8337400 
 		     -12.7755900   37.1407800    -0.6308966  129.2002000   -54.3132800   21.0230800   -52.7487500   40.5840200
 		     -53.5637600   32.8517000   -48.9287100   32.4678400    -1.0457650   97.8181900   -15.8066000    8.1064000
 		     -52.9376100   19.2341700   -49.2917800   -5.4775400   -15.8216600    8.0334970    -1.0394080   97.6332200
   20867020000    -0.6721813  129.4670000   -12.7680800   37.3398900   -54.9327300   40.4603300   -52.6836300   18.3022600 
 		     -12.7735100   37.0969700    -0.6965685  129.1467000   -52.9735500   18.6108000   -52.6611800   39.2853100
 		     -51.7216100   28.9052300   -56.3657600   60.5051400    -1.0380330   97.5645500   -15.8170200    8.0406270
 		     -53.6518300   22.6901500   -57.7722200   32.3733200   -15.8513400    8.0157740    -1.0207040   97.3326600
   20937010000    -0.6490744  129.3199000   -12.7788000   36.7382600   -52.7938500   23.4985400   -53.4005400   23.6670600 
 		     -12.7975300   37.4203800    -0.6679318  129.0433000   -53.6615900   21.8971200   -50.6886300   23.1748500
 		     -54.0077000  -10.0529300   -56.9946300   -2.4558490    -1.0406750   97.2665000   -15.7954400    7.9897520
 		     -53.3116800   64.4920800   -50.4425100    0.8392918   -15.8301400    7.8782500    -1.0341470   97.1663900
   21007000000    -0.6676103  129.3094000   -12.6951800   37.4328500   -52.0879800   19.9221500   -51.2542000   27.8892400 
 		     -12.8036200   36.7205000    -0.6865704  128.6907000   -50.3637000   25.4543600   -51.0126500   32.1265200
 		     -54.2679600    3.1824610   -52.4946200   23.2947300    -1.0470260   97.0941100   -15.8410800    7.8297020
 		     -52.0781700   16.7298100   -52.8999500   37.4639700   -15.8327800    7.6251300    -1.0321330   96.8753500
   21076990000    -0.6788509  129.0987000   -12.6917300   36.6854900   -53.3893200   29.1189200   -50.7520000   36.3810200 
 		     -12.7932700   36.9413500    -0.6667172  128.9198000   -52.8718000   20.5396800   -51.5435900   23.1499900
 		     -52.7135400   39.9557300   -50.2566900   11.9825300    -1.0385880   96.7759900   -15.8699100    7.2901660
 		     -51.1736100   16.3508600   -51.9324300   22.5039800   -15.8890200    7.2771520    -1.0310820   96.5378000
   21146980000    -0.6739223  128.7775000   -12.8238300   36.2041600   -54.2601900   38.4140600   -51.2730800   24.9580200 
 		     -12.7576600   36.3647300    -0.6662488  128.7226000   -52.5771500    8.6390930   -50.9948000   25.7579400
 		     -50.2164400   24.3734300   -57.5951100   57.9024900    -1.0465120   96.4891100   -15.8627900    7.0244770
 		     -52.2621100   14.8193500   -49.1164700   72.4827600   -15.8947200    6.9683580    -1.0517900   96.4030900
   21216970000    -0.6887188  128.5528000   -12.7348100   36.0194100   -53.6578800   23.3649500   -51.4869700    1.9275590 
 		     -12.8242300   36.3225600    -0.6578833  128.4177000   -52.6027000   14.1355300   -52.0048400   29.4374400
 		     -54.1685800   22.1347500   -53.7774700   49.5480500    -1.0548970   96.1794900   -15.9136000    6.5138130
 		     -52.6684200   39.8221400   -50.5581700   30.2325800   -15.8914000    6.5205260    -1.0207070   96.0275000
   21286960000    -0.6754035  128.5182000   -12.6210500   36.0995700   -51.7562700   16.1658700   -52.1752500   18.5833600 
 		     -12.7011300   36.2591900    -0.6594664  128.2633000   -52.9925200   26.2696100   -50.8290600   27.3119000
 		     -51.5696300   14.2628900   -53.2412000   26.7551800    -1.0394110   96.0066300   -15.8954600    6.3594290
 		     -52.3436200    6.4909210   -52.2659300   36.5979800   -15.8633500    6.4151710    -1.0436520   95.7265000
   21356950000    -0.6889051  128.3954000   -12.7530600   36.1899100   -52.1305400   15.5262900   -51.1476900   17.7248100 
 		     -12.7040600   36.1863900    -0.6257045  127.8734000   -56.1439900   11.1803800   -51.0168400   20.2026000
 		     -49.7402000   30.6592200   -52.3617400   53.7754700    -1.0355380   95.5971600   -15.8893700    6.2282790
 		     -53.2533100   17.2139900   -53.7066000   -8.9837410   -15.8912500    6.3560160    -1.0338050   95.5055300
   21426940000    -0.7056940  128.1942000   -12.7961600   35.7285600   -50.6988900   30.2688500   -53.2200000   10.0895800 
 		     -12.8092100   36.0931700    -0.6778607  127.7974000   -51.8067600   21.5059400   -52.3950700   30.8292700
 		     -53.2095900   32.5293200   -51.8244200   -5.1545190    -1.0482880   95.4390000   -15.8551900    6.2221230
 		     -53.0953500   32.2172800   -53.3881300   21.1416800   -15.9199000    6.1580600    -1.0293280   95.2836300
   21496930000    -0.6884649  128.0818000   -12.7240800   36.4371200   -53.4668900   21.7496100   -53.2106200   15.5812300 
 		     -12.7033100   36.1633600    -0.7067109  128.0309000   -53.6982200   15.9562700   -51.9846600   23.3855100
 		     -51.7921400   19.1958300   -49.5501200   53.8234700    -1.0510490   95.1368800   -15.9554300    5.9523940
 		     -56.2819900   32.4378300   -47.0864600   10.6601600   -15.9552000    5.8446130    -1.0400480   94.9086200
   21566920000    -0.7071587  127.7503000   -12.6943500   35.7392800   -50.9532500   24.6004300   -52.2558600   16.0003200 
 		     -12.7613500   35.8301000    -0.7237840  127.6408000   -51.9371200   12.5912500   -49.4579500   26.5124300
 		     -53.1920500   41.5434200   -51.0089100   27.2722200    -1.0439010   94.8771100   -15.9369000    5.8101720
 		     -52.8099100   19.8253100   -49.2215000   29.8446700   -15.9371100    5.5320320    -1.0376230   94.7493700
   21636910000    -0.6836880  127.6711000   -12.7632000   35.6605900   -51.3820600   12.6093500   -53.0499900   29.6351100 
 		     -12.7170000   36.1028200    -0.6738790  127.4932000   -51.4092900   34.7041600   -49.9563100   27.7845600
 		     -53.6801900   13.8236600   -49.7465300   37.5000100    -1.0518680   94.6024600   -15.9688700    5.2603490
 		     -49.5208700   10.1460900   -54.8504500    6.2303860   -16.0187400    5.3055180    -1.0325510   94.4971900
   21706900000    -0.6959224  127.6471000   -12.5613800   34.8739800   -52.7017200   18.1646800   -51.9544000   25.3796500 
 		     -12.6972900   35.4189800    -0.6784164  127.2397000   -54.7204700   13.5330000   -50.2140600   18.3787700
 		     -49.7141800   28.8475300   -60.7973900   -9.0164380    -1.0440400   94.3464900   -16.0215400    5.2496610
 		     -52.0547100   26.8208600   -48.6032600   -0.3442122   -16.0081100    5.3456010    -1.0364690   94.2175000
   21776890000    -0.6934553  127.2881000   -12.7121000   35.1374300   -53.2127000   32.7102200   -51.2053300   27.5657800 
 		     -12.6576900   34.9760000    -0.6918097  126.8337000   -54.6278800    0.9299892   -49.3818000   22.9887600
 		     -50.5405300   34.3576500   -49.2894400   15.8978200    -1.0428760   94.0549600   -15.9979400    4.9907590
 		     -50.8567600   28.8000300   -52.7914800   25.1383000   -16.0261600    4.8354850    -1.0517020   93.9009400
   21846880000    -0.6855248  127.3594000   -12.7406000   35.4488900   -53.7206600   28.5288900   -53.4675800    2.5266540 
 		     -12.7331600   34.9455400    -0.7031902  126.8546000   -51.7025800   18.6848300   -50.0387200   12.7266500
 		     -52.9184100    2.4842630   -47.6736300    8.1455110    -1.0490540   93.7342700   -15.9897100    4.6633820
 		     -50.7270700   37.4314800   -50.7934700    7.1793490   -16.0016000    4.8661900    -1.0556120   93.6918400
   21916870000    -0.6893122  127.2504000   -12.6100900   34.9913800   -52.3797700   11.2712400   -55.5257400   19.0561600 
 		     -12.7100300   35.2511500    -0.7060317  126.6745000   -54.2998200   35.6758500   -49.6450000   21.7397400
 		     -53.5185600   35.4703200   -52.7963700   22.6251100    -1.0568760   93.6341600   -16.0521300    4.5122020
 		     -51.7878300   25.4405400   -54.8373500   37.0111200   -16.0616300    4.2312580    -1.0247270   93.4014300
   21986860000    -0.7096196  126.8959000   -12.6057800   34.6284000   -52.2301100   21.5507700   -51.8490000   29.1161200 
 		     -12.6622600   35.1290600    -0.7002956  126.4337000   -51.7347000   32.4644000   -48.8072500   29.6119400
 		     -48.6645400   30.4633700   -55.1180800   47.4666500    -1.0588810   93.2585400   -16.0354700    4.1475480
 		     -48.9175400   25.6008900   -48.5915000   36.1945400   -16.0706700    3.7916180    -1.0600510   93.1143000
   22056850000    -0.6833223  126.7489000   -12.6270000   34.8280300   -50.4403900   22.4622200   -51.8510900   20.5323400 
 		     -12.6493000   35.0647500    -0.6809655  126.5325000   -49.9311900   23.8599300   -52.4153200   27.0686400
 		     -53.6890400   41.4119400   -56.4091600    2.4789600    -1.0655990   92.9581700   -16.0017200    4.1556340
 		     -52.3439100   24.6710600   -49.5928400   17.9263000   -16.0841700    3.8178190    -1.0415300   92.9753300
   22126840000    -0.6872426  126.4991000   -12.6208600   34.5122800   -50.4698500   13.6123300   -50.0631000   19.7141000 
 		     -12.6768600   34.7594500    -0.6662506  126.2495000   -52.1199000   19.1450900   -50.9088900   21.2963700
 		     -50.9283400   25.8882300   -50.5614200   51.0843600    -1.0565230   92.8729800   -16.0959300    4.0504360
 		     -57.3248800   12.9215200   -50.5062600   38.6065300   -16.0716300    3.7777500    -1.0472820   92.6581500
   22196830000    -0.7008798  126.3722000   -12.6600400   34.6228800   -51.8050800   20.9562000   -50.3985500   19.5378100 
 		     -12.7265800   33.9963100    -0.6903981  125.8272000   -51.7829100   29.4435200   -53.1047400   17.1215600
 		     -55.8944900   24.9818700   -52.0105400   11.1764900    -1.0638740   92.4869500   -16.1254100    3.5399360
 		     -52.4509800   10.6971700   -52.1389800    9.3477280   -16.0882100    3.3992000    -1.0500240   92.3856000
   22266820000    -0.7201617  126.0404000   -12.6616800   34.4676700   -55.0788000   27.1350800   -52.3949500   32.2213000 
 		     -12.6307900   34.3282000    -0.7043655  126.1168000   -51.4951700   25.0533000   -51.4087100   19.5438900
 		     -49.4525300   17.2542500   -55.9752500   17.3478700    -1.0722560   92.2984800   -16.1229200    3.1904000
 		     -52.6181300   34.1781500   -48.7780300   10.0397100   -16.1108900    3.2918410    -1.0536380   92.1426500
   22336810000    -0.6939682  126.0184000   -12.6203700   34.2568200   -50.2321700   27.7647200   -50.7705600   28.1346400 
 		     -12.5136600   34.3494000    -0.6611562  125.8040000   -51.6870000    2.7238490   -52.1184200   15.7865800
 		     -55.8956900   16.9525700   -53.1564900   35.2986100    -1.0601710   92.1707300   -16.1240000    3.2578260
 		     -55.3963200    4.7781760   -53.3273800   40.9817000   -16.0965300    3.6039830    -1.0542320   91.9623300
   22406800000    -0.7166722  125.9291000   -12.6124500   34.6594400   -51.9474000   -4.1526040   -48.3958600   13.2135200 
 		     -12.6332000   33.9488000    -0.7369713  125.3948000   -51.8251200   16.5421100   -51.5651900   10.1676500
 		     -48.6131400   30.3412000   -53.4180500   -4.4410140    -1.0662800   91.7572800   -16.1781700    2.9039230
 		     -50.1190000   30.2356700   -52.3307200   12.8102100   -16.1900100    3.2392460    -1.0463690   91.5543400
   22476790000    -0.7025515  125.6883000   -12.6469200   33.8102300   -50.8915700   25.6517400   -50.9763600    0.4527779 
 		     -12.5945300   34.2631800    -0.6958748  125.6004000   -52.3126100   15.6182800   -50.6401400    4.9284420
 		     -51.5773500   21.7860200   -50.8432400   -6.3405790    -1.0760890   91.5579700   -16.1648900    2.6011140
 		     -54.0703800   29.2552900   -49.5274300   29.3155500   -16.1361700    2.8130910    -1.0409240   91.4640600
   22546780000    -0.7133317  125.7074000   -12.5534600   33.4569300   -53.6443700   10.2617700   -52.4332800   11.0206900 
 		     -12.6395100   33.7729900    -0.7125490  125.3144000   -52.3445800    4.8193110   -49.3706700   24.5367500
 		     -51.1348200   22.7669000   -52.4803700   24.6527300    -1.0616280   91.3075900   -16.1553000    2.4728690
 		     -50.5730600   12.3665300   -48.6733600   32.5340400   -16.2091600    2.7539500    -1.0434270   91.2198100
   22616770000    -0.7067060  125.5822000   -12.5375400   33.6099700   -49.8413000    9.7342390   -52.4657800   40.6392700 
 		     -12.5642900   33.7995200    -0.7056057  125.2440000   -52.1034300   22.6590300   -48.8675900   27.7390700
 		     -50.8716400   20.8757200   -53.7490500   17.4647600    -1.0660530   91.0313100   -16.2140600    2.0624610
 		     -52.0695400   23.1547300   -50.3967500    5.8563540   -16.2188400    2.2824150    -1.0527710   90.8460800
   22686760000    -0.7145402  125.2108000   -12.5713200   33.9587700   -52.9119400   15.1331700   -53.5051000    9.2035180 
 		     -12.5973200   33.8189700    -0.6695818  125.0010000   -53.1611600   14.3784300   -50.4729200   26.0995100
 		     -53.2253300   20.0446000   -55.2616300   -6.2950630    -1.0501040   90.7837000   -16.2034300    2.2234040
 		     -53.8255100    2.0568590   -53.2602700   41.7378200   -16.2102700    1.7693380    -1.0426210   90.6603600
   22756750000    -0.7094303  125.2170000   -12.5761000   33.1293400   -51.9368000   30.3134400   -52.4929000   10.6109300 
 		     -12.6411000   32.9606600    -0.6880633  125.0397000   -51.5494800   23.3390700   -51.3422600   22.7621700
 		     -51.2779200   31.3593300   -55.7053900   -6.6356990    -1.0739460   90.5654000   -16.2572400    2.0999920
 		     -55.0148400   14.0874200   -51.2902100   -5.4806280   -16.2179400    1.8563500    -1.0503570   90.3195500
   22826740000    -0.7160464  125.0097000   -12.5745000   32.8255500   -50.4398500    8.4836060   -48.7564700   20.2618300 
 		     -12.5623500   33.2975200    -0.7022459  124.8394000   -55.0002900    2.6468610   -50.5287900   12.9826400
 		     -54.9770500   16.4965800   -57.0962700   -4.8498720    -1.0712460   90.2598300   -16.2923900    1.5537510
 		     -50.6876600   17.3467200   -46.3814500   34.5696100   -16.2823000    1.2967280    -1.0544330   90.1329000
   22896730000    -0.7155064  124.7814000   -12.5895800   33.1591800   -54.4416900    8.1730240   -51.4920700   14.1679300 
 		     -12.5050200   32.9391400    -0.6578310  124.6260000   -54.5190800   20.6833000   -53.0397000   26.2590500
 		     -54.1717700   39.5921900   -46.8813700   19.1431700    -1.0588470   90.0506400   -16.2886400    1.4728180
 		     -50.4438600   13.5999700   -49.2600800   24.1748200   -16.3517600    1.4785830    -1.0692630   89.9149200
   22966720000    -0.7203509  124.8409000   -12.5269900   33.3733900   -51.2558900    4.8815600   -53.1128500   23.9742900 
 		     -12.5172100   33.5089000    -0.7010755  124.5495000   -54.7012300   28.0193400   -50.0561500   10.2571600
 		     -64.3075400    0.5257525   -51.3546300    2.2059530    -1.0484990   89.7274900   -16.2983300    0.8924713
 		     -49.7424400    9.4589610   -51.0546300   14.6736900   -16.2682700    1.0701310    -1.0447950   89.5494300
   23036710000    -0.6879817  124.7650000   -12.4862800   33.0783200   -53.1424100    4.4443830   -52.5076500    8.5187030 
 		     -12.4994600   32.7223500    -0.7380226  124.3084000   -52.1968100   12.0228500   -50.5260800   12.9069200
 		     -52.3574900   -0.7721567   -54.0823600    6.7201350    -1.0605480   89.5389600   -16.2945900    0.9694452
 		     -52.4090800   19.5703400   -51.5426100  -13.5834000   -16.2981500    0.6247143    -1.0722820   89.3156400
   23106700000    -0.7211619  124.4780000   -12.5057400   33.1737600   -53.6696400   17.2884400   -53.2079200    1.7557500 
 		     -12.4998900   32.2958900    -0.6627795  124.0693000   -51.0743300   29.4015300   -51.4988000   30.2703900
 		     -51.3946800   10.6366100   -53.3027600   31.7364000    -1.0694290   89.0853700   -16.3621200    0.6649216
 		     -51.3703600   23.3003400   -51.2138800   20.0343600   -16.3117500    0.2770095    -1.0535140   89.0854200
   23176690000    -0.7121305  124.4630000   -12.5371000   32.5589900   -51.4156200   34.9591500   -52.5450800   10.1670900 
 		     -12.5689700   32.7396300    -0.7212267  124.0377000   -53.7743100   26.3960700   -49.8982100    5.4187880
 		     -51.7468200    0.8130873   -49.0625400   -4.9854600    -1.0546940   89.0055500   -16.3196400    0.5093971
 		     -61.6519200   31.2552000   -51.4359700   21.4661800   -16.3612100    0.5180373    -1.0605610   88.7417200
   23246680000    -0.7064146  124.1941000   -12.5061800   32.5888100   -50.4839400   12.1533300   -51.2164800   10.5576800 
 		     -12.5627000   32.5326900    -0.7188084  123.8987000   -52.8356800   12.5368500   -52.8311100   39.1607200
 		     -52.8955000    5.4355540   -51.0159500    8.1809030    -1.0620740   88.6934700   -16.4147000    0.3732966
 		     -50.7418700   13.2098300   -54.0734800   -2.0664480   -16.3637500    0.1386617    -1.0512450   88.4939100
   23316670000    -0.7057732  124.0175000   -12.5847500   32.4009700   -50.9028800   21.2919500   -54.7679400   22.8865000 
 		     -12.5704900   32.5380600    -0.7257987  123.4986000   -52.3916300    6.0149060   -49.6161800   19.4756200
 		     -52.5419800    5.3738210   -56.0424500   -6.4539430    -1.0647270   88.3933300   -16.3810600   -0.4334074
 		     -54.5068300   20.0789700   -49.7212100   13.2962100   -16.4274500   -0.4317288    -1.0606680   88.2846400
   23386660000    -0.7335805  123.9157000   -12.5229700   31.7743100   -50.9954000   26.0784500   -52.5775500   11.2988800 
 		     -12.5371900   31.9799400    -0.7398353  123.2796000   -52.7719000   20.1595600   -51.4731900   10.3213300
 		     -50.8620400   19.9325200   -49.2602500   18.2229000    -1.0551220   88.2077400   -16.4087900   -0.4010022
 		     -52.3403900   14.7954700   -53.0286900    7.9780530   -16.4175200   -0.2627241    -1.0500530   87.9291500
   23456650000    -0.7179177  123.8771000   -12.4885900   32.2461700   -52.1633100   12.9997700   -51.8712500   29.0678600 
 		     -12.4679900   32.4068100    -0.7179464  123.5074000   -53.5346300   19.0495600   -50.3970300   27.7195800
 		     -50.6948200    8.7445310   -53.0332900   20.5242800    -1.0695110   87.8828400   -16.4534200   -0.7081217
 		     -53.2709700    7.7848550   -51.2291400   11.6183200   -16.4199000   -0.5602415    -1.0426160   87.7107100
   23526640000    -0.7239363  123.5095000   -12.5550100   31.1747200   -50.8031800   16.8168300   -50.6459600    2.2755810 
 		     -12.5063200   31.9356500    -0.7440212  123.0749000   -51.9080600   -9.9990870   -53.0603800   19.5922800
 		     -53.0433300   -7.3923620   -53.0431200   -8.2392290    -1.0580900   87.5880500   -16.4054200   -0.8550418
 		     -53.7871900   31.3815500   -53.1037300   -2.9834740   -16.4349500   -0.8509396    -1.0431650   87.4770300
   23596630000    -0.6990660  123.4261000   -12.5315700   31.7439500   -51.2778800   17.7965100   -51.3636600   20.7419700 
 		     -12.4717100   31.5577700    -0.7072306  123.0536000   -53.2231300   41.3655900   -49.6759300   10.0842100
 		     -54.1467800   19.7195100   -52.5923900  -19.9172900    -1.0622350   87.4652900   -16.4130100   -1.1221590
 		     -52.8811800   38.1826200   -51.0394700   14.5677100   -16.4925100   -1.0138370    -1.0548830   87.2279700
   23666620000    -0.7060272  123.2586000   -12.4554200   31.5117700   -51.3973400   14.7861100   -53.7356900   18.4633500 
 		     -12.4297700   31.6743000    -0.7104302  123.1700000   -52.1936600    8.7005100   -52.0638700    8.5952490
 		     -53.8962700   21.3443100   -53.5999500   14.3345100    -1.0697930   87.1345200   -16.4872700   -1.3540400
 		     -56.4771600   -5.8375950   -49.0347100  -12.8479700   -16.4854600   -1.1998040    -1.0598100   86.9322100
   23736610000    -0.7287834  123.1000000   -12.5355700   31.3341500   -51.0452200   15.8199800   -51.1677900    8.9657780 
 		     -12.4609300   31.7631300    -0.7355329  122.5901000   -53.2318500   14.4234100   -50.8760500    7.7243480
 		     -52.1509100   25.4897700   -49.8127700   30.9001800    -1.0720260   86.8517800   -16.4799400   -1.5343300
 		     -52.1438900   18.4298900   -49.7259900    2.6393980   -16.5240300   -1.8368260    -1.0487950   86.7618300
   23806600000    -0.7106552  123.0425000   -12.4814600   31.0511800   -52.1692000   14.0600300   -51.8586500   16.9653900 
 		     -12.5409900   31.2953500    -0.6915014  122.6839000   -53.1158400    7.1353820   -50.2944400    3.6956300
 		     -52.7906800   17.6244500   -50.6108800  -25.7433300    -1.0658910   86.5873000   -16.4998300   -1.7527090
 		     -54.4933800   17.5038300   -51.2146000  -15.6227200   -16.5305500   -2.0185060    -1.0547290   86.4711100
   23876590000    -0.7207161  122.7084000   -12.4331500   31.1249100   -52.3093800    8.0887440   -50.5065500    4.8775190 
 		     -12.5023200   31.1652500    -0.7265133  122.6481000   -53.0171700   29.0847500   -51.4520100   -7.8738670
 		     -52.0421700    6.5774920   -51.7549400    7.5933680    -1.0631490   86.4625000   -16.5358700   -1.8980980
 		     -54.0997000   23.4927400   -49.5618000   11.2452200   -16.5337500   -2.0073630    -1.0553670   86.1018100
   23946580000    -0.7143370  122.7272000   -12.4127200   31.1498900   -52.9310100   -1.3315090   -50.2714300   13.7311000 
 		     -12.4347700   31.0455400    -0.7144749  122.0776000   -52.7040400    9.6154810   -50.7582500    4.5448850
 		     -51.9027800   29.6244500   -49.0868500    9.8894380    -1.0803760   86.0648700   -16.5822200   -2.1922690
 		     -50.3684200    8.7213590   -51.3086000   20.1468300   -16.5624400   -2.4122210    -1.0469230   85.9332700
   24016570000    -0.7156383  122.5420000   -12.5070100   30.8237300   -52.1514500   17.0953200   -52.0052800   13.0963100 
 		     -12.5095600   30.7803100    -0.7200685  122.2865000   -52.6393500    7.3641640   -52.6968500    7.0767250
 		     -55.5104400   19.7045600   -53.7352700   -0.3130651    -1.0714740   85.8565100   -16.6287100   -2.3938160
 		     -53.7458600   27.6110800   -52.0343700  -12.7435700   -16.5925200   -2.4949510    -1.0571860   85.7620800
   24086560000    -0.7028916  122.2277000   -12.3692500   30.9308900   -52.4144700    8.6037700   -53.4480600   22.8237200 
 		     -12.3913500   30.8281800    -0.6968892  122.0958000   -53.5277200   14.9994300   -52.1273000   15.4358600
 		     -54.2562700   14.0987700   -55.9740600   -1.1823960    -1.0703570   85.6157600   -16.6155100   -2.8306570
 		     -50.7143400   18.5941400   -52.4088400   20.2411300   -16.6808200   -2.7494190    -1.0494330   85.4047500
   24156550000    -0.7378039  122.0714000   -12.4135800   30.5354300   -51.4127700    7.1211710   -49.9817700   17.2193900 
 		     -12.4489100   30.7858400    -0.7361996  122.1250000   -51.5398400   13.0458100   -49.9168900   18.1058500
 		     -53.3630700   17.8852900   -52.7641300  -21.9558800    -1.0819280   85.3401100   -16.6307000   -3.0706900
 		     -53.7296400    9.7964280   -54.1706600   24.5253000   -16.6257300   -2.8631390    -1.0624430   85.1379100
   24226540000    -0.7206580  121.9702000   -12.4843700   30.8232300   -51.1398300    8.2134150   -50.5334900    5.2366690 
 		     -12.4773300   30.3537300    -0.7109540  121.8087000   -51.1075400   13.1538700   -50.5477800   -1.5001110
 		     -52.5821200   14.6563900   -56.1848500    0.5604595    -1.0742210   85.0731800   -16.6259000   -3.2375660
 		     -56.6982300   28.2036000   -51.6476700   32.0289500   -16.6482900   -3.1809500    -1.0538130   84.9919200
   24296530000    -0.6967828  121.8771000   -12.4344800   30.2284800   -53.7851300   13.7257900   -50.5210000    9.3071300 
 		     -12.4635900   30.4147800    -0.6814431  121.8317000   -52.0389100    9.8220490   -52.8282100    7.7870110
 		     -51.6148700    6.0139690   -50.6474600   -3.2366000    -1.0669350   84.8384500   -16.6803600   -3.3168740
 		     -52.6608400    5.2906430   -49.6698600    8.3916940   -16.6786300   -3.3512130    -1.0700080   84.5747300
   24366520000    -0.7569182  121.8043000   -12.4630900   30.2478600   -53.5122900   12.4695600   -52.4602100   11.4567900 
 		     -12.4703800   30.0539600    -0.7504283  121.2141000   -51.8613300    5.8154510   -51.6263300   -1.2803450
 		     -53.7952700    3.3169190   -51.4579600   -8.9877050    -1.0751260   84.5495500   -16.7014100   -3.7752830
 		     -50.8872200   20.7880400   -52.7782400   20.5498800   -16.6833500   -3.8094140    -1.0730710   84.3239700
   24436510000    -0.7441026  121.6394000   -12.4595500   29.9981200   -53.0660700   14.6809300   -53.1579700   13.8882300 
 		     -12.4795900   29.7893600    -0.7244923  121.3021000   -53.2768800    1.5829980   -51.8559400    6.1268680
 		     -53.1153300    8.9957470   -52.7964200   -4.4527670    -1.0890040   84.4262800   -16.7131100   -4.1100640
 		     -50.8728400    0.7354971   -64.6207200   56.2149000   -16.6989200   -3.6924410    -1.0580080   84.1471300
   24506500000    -0.7239647  121.3074000   -12.4342300   29.7283700   -52.6924300   29.3641400   -51.4769300   14.3029200 
 		     -12.4449800   29.8018200    -0.6914910  121.1991000   -52.9318500   11.8524000   -49.7683300   10.3255800
 		     -53.0090300  -14.2096300   -51.8112200   23.8921000    -1.0747690   84.0628100   -16.7830800   -4.0911360
 		     -53.4022600    8.2354050   -53.9975000   16.5253800   -16.7381100   -4.0994050    -1.0710180   83.7994800
   24576490000    -0.7352049  121.1691000   -12.4233000   30.0352300   -52.4123400    9.3575120   -53.4089800   31.0067600 
 		     -12.4194100   29.6211400    -0.7244095  121.1214000   -53.8432400   30.3179900   -53.0810200    6.4513580
 		     -51.3252100    1.2175690   -50.0367500   29.2167000    -1.0841430   83.8728900   -16.7692900   -4.4634230
 		     -52.5791500   48.3883500   -55.3777700   13.5005400   -16.7812000   -4.4103410    -1.0622490   83.5131700
   24646480000    -0.7218295  121.2749000   -12.5209900   29.3469700   -52.0467400   11.6762100   -52.2743400   14.9299500 
 		     -12.4709600   29.7142100    -0.7609707  120.9236000   -52.5026300   14.5765300   -50.3518900   10.7635100
 		     -52.2779000   24.8489300   -54.3069900   33.1366500    -1.0910730   83.4988000   -16.8181300   -4.5410450
 		     -55.5051300   14.6964200   -55.8287400   -1.3760710   -16.8350600   -4.3914030    -1.0577830   83.4172000
   24716470000    -0.7076212  120.9648000   -12.4238800   29.2361500   -51.6965400    6.5873730   -53.6583900    3.2944630 
 		     -12.4209200   29.1571400    -0.7120743  120.6022000   -52.3995400    6.9378830   -53.2994800   14.9051600
 		     -52.8673200   32.1943000   -50.7289400   30.8222000    -1.0758210   83.2466700   -16.8202300   -4.6849780
 		     -54.4638100   -3.2277340   -54.1529500    0.5390402   -16.8473500   -4.7652440    -1.0698200   83.0738100
   24786460000    -0.7561886  120.7367000   -12.4309600   29.4459000   -52.0055800    0.8524887   -52.0646100   14.7554900 
 		     -12.4458000   29.3585600    -0.7452159  120.5645000   -52.9765300    9.9332490   -51.5052800   12.9450600
 		     -52.2740400    9.8661320   -51.1320200   33.9642500    -1.0772860   83.1495100   -16.8296500   -5.1288560
 		     -54.0161600   18.3589300   -49.5621600    9.0882530   -16.8824400   -5.0801200    -1.0612200   82.8153600
   24856450000    -0.7295794  120.7591000   -12.4233700   29.4998900   -53.5023100   11.2421700   -51.6095700   19.9292700 
 		     -12.4109100   29.3899300    -0.7479730  120.4475000   -54.4448500   11.7794000   -51.2240100   15.3375100
 		     -52.6739000   -4.7032720   -54.9872600   25.8359900    -1.0949620   82.8114500   -16.9035500   -5.2150240
 		     -51.5885400    5.4188020   -56.3368800    0.2100222   -16.9061100   -5.5766690    -1.0529760   82.6532100
   24926440000    -0.7526248  120.6132000   -12.4529200   29.4386400   -55.8671200   17.6568800   -51.5110200  -16.0421600 
 		     -12.4555300   29.0407500    -0.7052062  120.2325000   -52.5290700   -3.7482150   -55.2109900   19.4630100
 		     -50.3453300   20.0497300   -54.3478100   22.5633900    -1.0733200   82.4978600   -16.9029500   -5.6224650
 		     -55.2600100   25.5829500   -55.4433600   -2.1627780   -16.9164500   -5.4434280    -1.0684850   82.2762800
   24996430000    -0.7201654  120.1884000   -12.4045200   28.7033700   -53.5933200    6.1955440   -51.7596100   12.1779700 
 		     -12.4096200   29.0296900    -0.7294441  119.8118000   -55.4717300   37.9546800   -53.7225300   -1.8747050
 		     -54.0168000    0.5756086   -53.3331100   26.7342300    -1.0835240   82.2716000   -16.9412800   -5.8721920
 		     -51.8883300   -0.6881361   -50.8055800   14.3041500   -16.9436700   -5.9892090    -1.0731670   82.0379800
   25066420000    -0.7118920  120.2412000   -12.3711100   28.8938600   -51.5215100    5.9989520   -52.8228800   14.6664700 
 		     -12.4401800   29.2039100    -0.7443404  119.8670000   -55.4371600   13.7006400   -49.9982800   12.8069500
 		     -53.8048500   22.1476400   -60.2117000   65.6258200    -1.0857370   81.9645500   -16.9487800   -6.0988130
 		     -51.5986300   28.8544900   -53.9584900   33.2247000   -16.9565900   -6.0788540    -1.0609480   81.7720700
   25136410000    -0.7211347  119.8762000   -12.3661700   28.8623600   -53.3478700   15.4695700   -51.1472400    8.2419170 
 		     -12.4316600   28.6692300    -0.7023820  119.6874000   -54.6355000   17.4897300   -55.9741900   27.8236900
 		     -49.9673500   -6.5637560   -49.5275300    3.5512480    -1.0924170   81.7177900   -17.0267900   -6.2446860
 		     -52.1170500   15.5763000   -51.7287400    9.5765260   -16.9748100   -6.2561680    -1.0737570   81.5133600
   25206400000    -0.7135855  119.8772000   -12.4281000   28.1761400   -52.7466900   22.5168700   -51.1603100   -4.6901060 
 		     -12.3610900   28.3275800    -0.7269555  119.3896000   -52.6840400   22.1722000   -49.7548100   -2.8112800
 		     -54.3338600   -4.0772510   -50.3295200   17.7872400    -1.0931150   81.4247100   -17.0042900   -6.5287750
 		     -51.0332600   19.1212600   -54.1764100   -1.6476400   -17.0180600   -6.5318130    -1.0768850   81.2802700
   25276390000    -0.7401818  119.7991000   -12.3700200   28.4398400   -52.3133500   11.3419000   -52.8464600   -2.5586810 
 		     -12.4593600   28.3346900    -0.7155330  119.4755000   -53.7232900   19.3921500   -51.8174700    8.3874320
 		     -49.0497300   10.7823700   -50.6721500  -11.8296100    -1.0930660   81.2106800   -17.0523800   -6.3755560
 		     -54.7793400    1.5334540   -50.6830400    3.8879910   -17.0674600   -6.5365010    -1.0569440   81.2220000
   25346380000    -0.7267782  119.5785000   -12.4220700   28.2718400   -54.9496900    8.0708980   -52.0016800   10.3656200 
 		     -12.4561700   28.2948000    -0.7022389  119.1600000   -52.9390700   20.7746700   -51.9808600    7.6254520
 		     -49.9626200   -1.2279980   -54.2702700  -38.0931100    -1.1034460   80.8790900   -17.0476400   -6.7854520
 		     -55.3419200   12.1037700   -51.1577200   20.8047900   -17.0866000   -6.7956210    -1.0812410   80.8307000
   25416370000    -0.7141710  119.3531000   -12.4189000   27.7465200   -52.0308600   17.3311000   -52.1040000    2.6212930 
 		     -12.4009600   28.1593000    -0.7254800  119.1648000   -53.2481900   -2.8645480   -53.1405600   16.9026700
 		     -49.3337500   -7.4080020   -54.8606600   47.4599400    -1.0859020   80.6768100   -17.1025100   -6.8388710
 		     -51.3998000  -10.2499700   -53.4511100   13.4015300   -17.0969800   -7.2734570    -1.0749690   80.4149600
   25486360000    -0.7350341  119.3796000   -12.3930700   28.0608700   -51.8469400    9.7114260   -52.6413800   21.6794900 
 		     -12.4402400   28.0528400    -0.7259157  118.9496000   -52.1503200    5.7235420   -51.0024300    1.8922480
 		     -50.7653100   17.7571900   -57.3516000   28.6292000    -1.0865900   80.4521500   -17.1160800   -7.5288950
 		     -52.0799800    2.6677940   -50.9428900   19.0082800   -17.1699900   -7.5803340    -1.0724710   80.2938400
   25556350000    -0.7185482  119.1715000   -12.3469000   27.8763500   -52.2278400   17.4321400   -52.8224600    7.0950480 
 		     -12.3572600   28.0281200    -0.7176099  119.0463000   -52.2622800    3.3330670   -51.8493100   24.5595300
 		     -51.3445700    7.7635460   -55.7221100    8.6924630    -1.0881270   80.1880100   -17.1596600   -7.4670760
 		     -52.0490300    3.3651040   -52.5708500   16.9293500   -17.1447700   -7.4346620    -1.0737310   80.0337900
   25626340000    -0.7418775  118.8736000   -12.4042400   27.7294600   -53.2098900   16.5742500   -51.9507400   25.6104000 
 		     -12.3821800   27.7137600    -0.7283808  118.6384000   -51.8652200    5.7989920   -49.9934500    4.5029000
 		     -50.4584300    6.5957920   -49.8127800   13.4636400    -1.0848870   79.9888700   -17.1868900   -7.8984440
 		     -53.2113400   10.1586100   -54.4205600   37.8933900   -17.1925100   -7.9535560    -1.0679900   79.8053700
   25696330000    -0.7326087  118.8297000   -12.3906600   27.3986100   -53.3296200    2.9420190   -51.0028800    7.7869220 
 		     -12.4199600   27.6987700    -0.7339669  118.5419000   -53.5178000    3.6928320   -50.9626900   24.9287900
 		     -53.0372000   19.0696300   -52.0488400  -11.7718400    -1.0930760   79.7319900   -17.2171200   -7.9105800
 		     -51.7897500   23.2878400   -57.8585900  -24.1891900   -17.2514800   -8.0528950    -1.0788910   79.5123000
   25766320000    -0.7170252  118.7022000   -12.4331900   27.6099100   -53.1978200    8.5576030   -53.9685900   14.6685100 
 		     -12.3797000   27.7299600    -0.7151198  118.5473000   -53.2063700   -5.0932800   -50.8029600   13.2030300
 		     -53.5373000  -10.4128500   -50.3634600   34.5037000    -1.0964690   79.4204800   -17.2836000   -8.3984850
 		     -51.6889100   44.4696700   -48.2753000   18.7788400   -17.2402500   -8.4007090    -1.0720280   79.2019900
   25836310000    -0.7516124  118.4991000   -12.3879800   27.2176700   -51.9276100   12.5246700   -53.6414300   -2.1626000 
 		     -12.4103800   27.6713300    -0.7058493  118.3262000   -53.3955100   24.0242100   -50.4724300   22.1051200
 		     -54.7650700   -2.8778700   -52.0871700   32.3129100    -1.0948590   79.2231300   -17.1794500   -8.4899120
 		     -63.0704500   18.3953500   -57.1291400   37.6832100   -17.2697400   -8.6881650    -1.0924670   78.9050500
   25906300000    -0.7265732  118.5152000   -12.4388600   26.9669300   -53.8713900    5.2036530   -51.2724900   13.3775700 
 		     -12.4023100   27.1936600    -0.7601232  118.0759000   -53.2293700    7.1812530   -53.1266700   12.6772200
 		     -53.6229900   22.6976800   -51.7252000    6.0185340    -1.0738880   78.8995500   -17.2845200   -8.7276520
 		     -52.7365500   16.7136800   -52.1222100   21.6698000   -17.2769000   -8.8906290    -1.0723440   78.7603300
   25976290000    -0.7500483  118.2542000   -12.4140100   26.9892000   -52.7635400    8.5395900   -51.9908900   13.6905100 
 		     -12.3919200   26.9962700    -0.7276159  118.0358000   -54.5544700   17.9674200   -52.2095800   20.1132200
 		     -51.6532200    3.8328700   -49.5610000    9.8625610    -1.0997840   78.6840300   -17.3054800   -8.9840000
 		     -50.1984400   12.2521600   -57.5235100   31.4355100   -17.3034800   -8.9825930    -1.0821220   78.4220700
   26046280000    -0.7523013  118.1302000   -12.4275200   27.1330500   -51.1834200   22.2932900   -51.7233200   26.6140800 
 		     -12.4189500   27.1070800    -0.7218997  117.8950000   -54.9938600  -11.9793400   -52.6698800   11.2090100
 		     -52.6481800   24.8369300   -51.7999200   37.0765500    -1.0995010   78.3774700   -17.3750600   -9.5183600
 		     -52.8350600   14.8450200   -53.1796700   -8.2553880   -17.3503100   -9.5735820    -1.0756570   78.1321900
   26116270000    -0.7388314  118.1518000   -12.3554700   26.8649200   -51.4587600   11.0270300   -50.7892000   18.7292600 
 		     -12.3581500   26.7347200    -0.7254770  117.4090000   -53.4826900   11.5424000   -51.2817400   -1.3480720
 		     -51.4188500   -1.8629250   -50.4626100   10.5551200    -1.0872540   78.0850400   -17.3997700   -9.2445590
 		     -54.1316900   -0.7545480   -51.7550000   -4.8592040   -17.3530900   -9.3796460    -1.0890020   78.0134900
   26186260000    -0.7040790  117.6003000   -12.3616500   26.8131900   -51.7614600   11.1748100   -51.9253100   11.7257100 
 		     -12.4176500   26.8357900    -0.7329911  117.6236000   -53.1233600   -2.1150810   -53.8605200   23.8970000
 		     -53.6587400    3.5054760   -54.9693600   29.1821000    -1.1066020   78.0216600   -17.4276000   -9.5324700
 		     -52.6547500   13.4339600   -50.7908700   13.3994000   -17.3944500   -9.9037020    -1.0947420   77.5082500
   26256250000    -0.7300290  117.6447000   -12.3640200   26.4399400   -54.5355800    3.1234870   -54.3814800   11.0518300 
 		     -12.3446400   26.8795700    -0.7556578  117.2851000   -54.9065700   -0.0913957   -53.2601200   13.8230000
 		     -52.4277200   23.9271300   -50.7123600   24.0072500    -1.1066120   77.6623900   -17.4081200   -9.8876900
 		     -55.1852700    2.5674490   -52.2397900   -5.0874460   -17.4101100   -9.9931040    -1.0900590   77.4126700
   26326240000    -0.7252084  117.6339000   -12.3011400   26.5695000   -51.2979100   -4.0172980   -51.7243000    7.1585490 
 		     -12.3406700   26.6793800    -0.6954139  117.1121000   -52.1934200   22.2766800   -54.1650200   16.3222000
 		     -51.6487200   14.8277700   -54.6546600  -28.4263800    -1.0877960   77.4179000   -17.4598600  -10.5036000
 		     -52.3755300    1.2673900   -55.9426700   25.5112200   -17.4453100  -10.1111800    -1.0835030   77.2761300
   26396230000    -0.7370701  117.3168000   -12.3685400   26.3247300   -52.2243900    7.9129960   -52.5243800  -12.9046500 
 		     -12.3829500   26.4298100    -0.7574593  116.9869000   -53.5926400   10.0535400   -51.5735800  -17.7820700
 		     -49.4359200   15.4487300   -53.3548300   18.4799200    -1.1050190   77.2087900   -17.4700500  -10.4456200
 		     -57.3843800   20.9409900   -55.9212200   -4.9163400   -17.5007800  -10.2148300    -1.0914960   76.8584600
   26466220000    -0.7409287  117.1158000   -12.3350800   26.0540900   -53.3027200   15.4594100   -53.5106400    1.3140740 
 		     -12.3508600   26.5692100    -0.7012382  116.8016000   -54.9813600    2.9380570   -52.4646600   21.6955200
 		     -50.8378900   37.3960600   -50.8905700  -31.2243000    -1.1050060   76.9304700   -17.4367000  -10.7442800
 		     -53.2121600   10.2129900   -51.3134900   36.2346200   -17.4674200  -10.7542200    -1.0825480   76.7373600
   26536210000    -0.7216415  117.1400000   -12.3841800   26.1690900   -52.7913600    4.5270430   -51.2788700   14.5841100 
 		     -12.3659500   26.3960900    -0.7032751  116.7312000   -53.7100600   -2.4190460   -53.8987500   11.5316200
 		     -53.5050600   28.4827600   -52.1814200    2.2245880    -1.0950900   76.6200900   -17.5352600  -11.0081600
 		     -50.8953300   30.3901900   -51.3619100    6.7365650   -17.5650000  -11.0084300    -1.0677310   76.4775400
   26606200000    -0.7511581  116.8437000   -12.3781200   25.9339000   -51.6107800   -1.0307650   -52.2009700    7.6325370 
 		     -12.3629700   25.6569100    -0.7358660  116.5354000   -53.9361700   10.0252900   -51.8904500   17.1056900
 		     -50.5541600   -8.2484760   -52.2494300   15.1692800    -1.0903690   76.4823400   -17.5310400  -11.0742400
 		     -51.0143900   -3.1823220   -55.3660800   26.6087600   -17.5905000  -10.9767000    -1.0950930   76.1886700
   26676190000    -0.7323890  116.7265000   -12.3150100   25.7723100   -53.5502200   18.8148500   -52.4569500    2.9845370 
 		     -12.2878200   25.7885600    -0.7073762  116.2844000   -52.6657700    1.0892480   -52.0159600    7.7255030
 		     -52.6321800   33.8725300   -56.4840000   55.7804300    -1.1008610   76.2870200   -17.5856000  -11.1594400
 		     -52.3149000   -9.9030660   -48.4375500  -11.9131800   -17.6094600  -11.4530100    -1.0856230   75.9973300
   26746180000    -0.7188123  116.7051000   -12.3267300   25.8392400   -51.9476300    4.1165530   -52.2391900   14.7790100 
 		     -12.3430500   25.7622400    -0.7183993  116.2464000   -51.9915800    3.5730560   -51.8517800    1.8381230
 		     -53.6532600   -5.2916540   -52.7713800    5.7445960    -1.0956900   75.9393500   -17.6065100  -11.7442600
 		     -50.9148400   22.3981300   -57.0383200   25.9125700   -17.6542300  -11.6128400    -1.0787310   75.7626800
   26816170000    -0.7345742  116.4111000   -12.3258500   25.2514800   -53.6551200   -3.2154310   -53.6366600   -2.0700890 
 		     -12.3222900   25.4073800    -0.7149260  116.2610000   -53.1084300   -5.6461490   -52.4797200    8.1924730
 		     -57.8134200  -21.2731500   -47.6881000    2.4026180    -1.1013260   75.6115700   -17.6545100  -11.9849000
 		     -53.8198100   10.0297200   -50.0468400   29.6319400   -17.6325700  -11.9507000    -1.0796300   75.3760100
   26886160000    -0.7297053  116.1485000   -12.3106500   25.3476500   -51.6219300   12.5168700   -52.4997300   10.6080900 
 		     -12.2919400   25.3849200    -0.7204514  116.0427000   -55.4098300   -0.1165797   -53.1040200   11.5026000
 		     -54.6745100   20.1107300   -57.3745300   58.2405000    -1.0893220   75.4407800   -17.6684500  -12.0059000
 		     -51.9130900    9.2204080   -53.2960100  -11.2667900   -17.6275800  -12.1382300    -1.0888090   75.1808200
   26956150000    -0.7336540  116.2329000   -12.3331900   25.2193300   -52.5523300    1.3048410   -52.5345300    3.6427770 
 		     -12.2879900   25.3660900    -0.7144682  115.7297000   -54.8566600    5.2582010   -51.7204600    7.4858800
 		     -52.4510600  -13.9290000   -50.4065900   -6.2270140    -1.0963290   75.0876800   -17.6858200  -12.5428800
 		     -48.5939500   14.1446100   -51.5277700  -14.5859500   -17.6816400  -12.5129200    -1.0780780   74.8821200
   27026140000    -0.7308382  116.0119000   -12.4301000   24.6258400   -54.1878100   18.9736400   -51.2941000   13.8374300 
 		     -12.3513400   25.4875300    -0.7363744  116.0897000   -52.7967800   11.7790900   -53.0250600    7.2908470
 		     -56.7043500   -4.0077140   -51.1763200   17.0813300    -1.0853490   74.8045800   -17.7180700  -12.5623200
 		     -51.1501200    4.6519810   -50.9811400   22.9063000   -17.7194900  -12.7077700    -1.0685220   74.6267400
   27096130000    -0.7386614  115.7541000   -12.3269100   24.9098900   -51.5575800    7.5656050   -53.0727000    0.1508149 
 		     -12.3677900   24.6802000    -0.7304869  115.6225000   -53.5000800   18.1587000   -51.0947600   -0.0563851
 		     -49.8595000   17.1617400   -50.1738200   18.8055600    -1.0958660   74.6375100   -17.7501200  -13.1392200
 		     -51.6441600   -0.2193557   -58.3956400    5.7196590   -17.7470400  -12.7866400    -1.0879800   74.3439800
   27166120000    -0.7318577  115.9620000   -12.3746100   24.6745800   -50.8197300    3.0169300   -51.5185000   21.8804800 
 		     -12.3755900   25.0000700    -0.7554902  115.4260000   -55.3623900   10.9199900   -51.2468000    0.7273366
 		     -55.2331400   -0.1011112   -52.3446700   17.8840500    -1.1094220   74.2855800   -17.7984100  -13.2761800
 		     -48.9625600    2.6997700   -58.4647000   39.0719200   -17.7981100  -13.2540000    -1.0856610   74.1098600
   27236110000    -0.7282939  115.5343000   -12.3454300   24.5964200   -50.5787300   -4.4028380   -53.1081000    6.7490140 
 		     -12.3117500   24.6066100    -0.7031909  115.5238000   -53.4477600   14.5537000   -55.9083600   19.0687400
 		     -52.9522600  -23.0936000   -49.0305300   20.1175200    -1.0816990   73.9508700   -17.7959200  -13.3378300
 		     -53.3507800    9.9268170   -48.4234700   -6.2268230   -17.7493900  -13.5912700    -1.0625870   73.7776300
   27306100000    -0.7331284  115.3783000   -12.2715500   24.2180000   -51.6318900   -1.4326700   -52.6932400    4.3143760 
 		     -12.3299700   24.2398900    -0.6886629  115.1736000   -54.8320400   -1.1069680   -53.9847500    8.0880150
 		     -56.5292400    1.1851310   -49.6226300   -6.7194660    -1.0964930   73.8480400   -17.9156900  -13.6751900
 		     -53.9336400   12.6555200   -50.0927400   14.5844400   -17.8903500  -13.5719800    -1.0792210   73.5185000
   27376090000    -0.7353309  115.3247000   -12.3379300   24.7970200   -51.9293200    5.6649530   -49.5102700    6.8699660 
 		     -12.2954400   24.5835300    -0.7619125  114.9654000   -54.8838600    2.1339990   -52.3901200   -0.5181135
 		     -58.1635700  -14.8283200   -55.6797600  -16.6063100    -1.0867080   73.4180000   -17.9239700  -13.4943400
 		     -55.3477700   30.5681800   -47.5089200   -7.0073180   -17.8514300  -13.8409200    -1.0736890   73.2711800
   27446080000    -0.7101543  115.2010000   -12.3498300   24.2300100   -54.6083300   12.5918700   -52.1251100   12.6410600 
 		     -12.3699800   24.2280400    -0.7537024  114.6173000   -53.7390600   -3.3564670   -52.5253100   18.5162300
 		     -50.7066400    1.3200480   -52.4593900  -27.6236200    -1.0893610   73.1851500   -17.9057200  -14.3757600
 		     -57.4351700  -13.6610900   -53.4496800    2.1415580   -17.8907200  -14.3570400    -1.0698980   73.0105100
   27516070000    -0.7482916  114.8640000   -12.3496000   23.5463800   -51.7110500   13.3202600   -53.9647900    5.2704990 
 		     -12.3423300   23.7559800    -0.6825688  114.5054000   -53.7631300  -15.8385400   -53.2340300    9.2562860
 		     -51.2279900  -12.3924100   -55.6876000    4.6323930    -1.0938090   73.0452600   -17.9901000  -14.5853200
 		     -54.7121300   40.2749800   -50.9460500   19.2644300   -17.9219400  -14.6576600    -1.0801530   72.6938500
   27586060000    -0.7395394  114.6313000   -12.3540400   24.0523400   -52.4941400    6.4532040   -52.5290100   26.8225800 
 		     -12.3040000   23.8017500    -0.7424772  114.4447000   -51.4690400    0.2746307   -51.1193200    2.1251800
 		     -54.0969400  -22.4343100   -53.3016500  -28.0452800    -1.1029650   72.6983600   -17.9452400  -14.9695000
 		     -48.8588700   15.9178500   -55.1941700    9.5698720   -18.0072200  -14.9168300    -1.0713590   72.4560700
   27656050000    -0.7343311  114.6113000   -12.3530900   23.9814300   -51.4399900    4.7636600   -52.5411900   -6.7037260 
 		     -12.4115000   23.5653600    -0.7663386  113.9388000   -51.4297400  -10.8367900   -53.6728900   12.9995800
 		     -53.5981000   -9.9995070   -65.2798400  -12.6123800    -1.0973900   72.4103900   -18.0253300  -15.0083700
 		     -51.3897100  -10.7034700   -52.9214300   -0.7219137   -18.0586600  -15.1511300    -1.0695330   72.2529800
   27726040000    -0.7599505  114.5668000   -12.4337200   23.1001400   -50.8323900    0.4195685   -52.7534900   17.0661100 
 		     -12.3531700   23.4378000    -0.7220303  113.8961000   -52.8387500   26.7434200   -52.2089700    0.2642077
 		     -53.5027500  -11.0153700   -52.7156000  -13.0191100    -1.1052100   72.2598000   -18.0697900  -14.9535500
 		     -51.6051500   13.6636000   -51.1979300   28.9438400   -18.0370400  -15.1963100    -1.0870920   71.9710900
   27796030000    -0.7667716  114.2147000   -12.4666800   23.2244200   -51.1902500    7.0643420   -52.5855600    9.0123410 
 		     -12.3840000   22.8453500    -0.7435226  113.8184000   -53.2021800    8.9572630   -53.1565100    2.0196480
 		     -52.5692700   14.0139800   -50.9440900    1.0931490    -1.0931920   71.8663100   -18.0779500  -15.7000600
 		     -52.8421400   14.7926700   -54.0109000   16.2271700   -18.1348800  -15.4931800    -1.0842130   71.6855200
   27866020000    -0.7526125  114.1608000   -12.3533500   23.4327800   -52.4439800   16.8500600   -52.2455000   11.2050100 
 		     -12.4348600   23.1908500    -0.7373992  113.7868000   -52.9279200    4.6164440   -53.1603600   20.5092700
 		     -50.3672700   21.2514600   -50.4350100   13.4031800    -1.0997920   71.7234000   -18.1395600  -15.8988000
 		     -52.5579300   21.6176500   -49.1867900    4.7056430   -18.0901600  -15.8975800    -1.0822830   71.4803200
   27936010000    -0.7419669  113.8442000   -12.2906300   22.9390400   -51.6561500   -5.0844340   -53.4388000    9.5216720 
 		     -12.3410000   22.6152700    -0.6915253  113.3913000   -53.1681000   16.0214800   -51.6144000   24.1690300
 		     -56.4406100  -21.9635300   -56.1365800   -3.7882760    -1.0964250   71.3188900   -18.1824800  -15.8426900
 		     -52.6170700   24.1869400   -53.1841000   31.9098600   -18.2047200  -15.8483600    -1.0921710   71.1987400
   28006000000    -0.7130852  113.9410000   -12.2669300   22.6957000   -52.2076400   -0.5963303   -50.9204600   -9.9627260 
 		     -12.3153700   22.7703900    -0.7184180  113.5565000   -53.4844100   28.3051900   -53.5344300   -4.9968110
 		     -51.7111600   26.7641600   -49.3740800   27.1157400    -1.1018500   71.1956100   -18.2075500  -16.2796400
 		     -51.2488100    9.3909680   -53.8817800    9.1759420   -18.1605900  -16.3655400    -1.0942720   70.8891100
   28075990000    -0.7590976  113.8633000   -12.3252500   22.8291800   -52.5433200  -11.5393700   -51.6836100    7.2446270 
 		     -12.3506900   22.8975300    -0.6990396  113.1398000   -52.2678800   16.5376100   -55.5186200   13.9901700
 		     -52.4582800  -10.4315400   -51.8705900   -7.9294100    -1.1059730   70.8276000   -18.1687300  -16.4914300
 		     -48.0584500   -8.0005220   -50.0564000    1.9291680   -18.2566600  -16.7201800    -1.0888290   70.6636100
   28145980000    -0.7470174  113.5159000   -12.3272800   22.1645900   -53.9632100    8.9300290   -51.6114300   13.2230800 
 		     -12.3239000   22.6088400    -0.7307582  112.9531000   -54.2110000   26.5873700   -52.2116400   14.2635500
 		     -55.4993600    6.0801770   -49.4931900   -7.6574970    -1.1134120   70.5894400   -18.2361700  -16.7452900
 		     -56.9765400   29.3974100   -50.6327400   -3.0904240   -18.2819100  -16.4373000    -1.0870270   70.3749200
   28215970000    -0.7465935  113.2900000   -12.3753600   22.7850600   -52.4355300   19.0116100   -52.4841700    4.2918880 
 		     -12.3613900   21.9587700    -0.7192039  113.0066000   -55.1841000   12.5042800   -52.7472800    1.8796320
 		     -52.2007400   31.9224300   -51.4267300   33.9214200    -1.1114050   70.3696200   -18.3124500  -17.0131700
 		     -55.2369500   18.6108600   -56.4626000   52.3989900   -18.2754700  -17.0577300    -1.0955430   70.1318400
   28285960000    -0.7351016  113.3744000   -12.3813500   22.6259200   -52.9983700   19.0239900   -51.5315200   11.6386200 
 		     -12.3677700   22.1668100    -0.7462397  112.8111000   -53.8290400   -7.3542130   -52.3313700    0.1281753
 		     -59.8718500  -12.5579900   -54.7646600   24.5254300    -1.1210680   70.0890200   -18.3601900  -17.5704300
 		     -56.0720100   37.6247900   -53.7462000   31.6770400   -18.3702200  -17.0342200    -1.0917620   69.8071900
   28355950000    -0.7536953  113.3371000   -12.4112900   22.5107300   -52.4777500    2.2841960   -52.8314000   -0.6457819 
 		     -12.3824500   22.4612600    -0.7062687  112.9069000   -53.8661700  -19.4843100   -49.8705700    4.7472220
 		     -52.9449000   14.1679600   -52.9990800   26.5579400    -1.1101020   69.8927300   -18.3331000  -17.1437600
 		     -49.6438700   23.4791800   -51.0375500   21.1805400   -18.3312900  -17.5607200    -1.0907800   69.6929600
   28425940000    -0.7548119  112.6953000   -12.4659500   22.4852600   -53.4453000    7.3272860   -53.0729200  -16.2817300 
 		     -12.3687900   22.1183500    -0.7300569  112.9312000   -52.5792000    3.9375980   -52.4152300   -6.3710410
 		     -55.1456000   27.8426100   -50.1597300  -23.4276800    -1.1118130   69.6200400   -18.3755100  -17.3510300
 		     -55.1488200   -0.1310800   -55.9738700   38.5407600   -18.3945600  -17.3518900    -1.1025680   69.5222600
   28495930000    -0.7333941  112.8937000   -12.4215200   21.7545600   -52.0081500   11.6549900   -52.6948200    4.7101520 
 		     -12.3763000   21.7943800    -0.7760543  112.4423000   -51.7456000  -19.7073000   -54.3410500   -2.4483880
 		     -54.3848100   19.3975900   -52.8692200   16.4963800    -1.1365880   69.2632400   -18.3850000  -17.8956200
 		     -51.1720800   -0.5975887   -52.1991000  -43.0122200   -18.4416000  -17.6859000    -1.0977930   69.0035600
   28565920000    -0.7419949  112.6372000   -12.4161000   22.3898900   -51.7480500    2.8212150   -54.4473900   11.0910300 
 		     -12.4099200   22.3519200    -0.7652159  112.6115000   -53.2403600    2.6588140   -53.6230900   10.7409200
 		     -53.1873400   12.2765600   -49.5623100    1.3374780    -1.1090740   69.1010200   -18.5104200  -17.8500500
 		     -53.3102400   14.3247700   -55.0658800   29.3030500   -18.4833900  -17.9288600    -1.1041120   68.9286600
   28635910000    -0.7305512  112.3354000   -12.4232900   21.9388200   -53.9507400    5.9365220   -52.6007200   11.3109300 
 		     -12.4234300   21.9492500    -0.7186893  111.9889000   -52.5598700   23.1059600   -51.0901600   16.1950800
 		     -54.1880300  -14.4714000   -49.2161500   -0.6108103    -1.1245630   68.8646200   -18.5482100  -18.3479700
 		     -52.1160700   23.4383200   -50.2310600    2.8398900   -18.5109300  -18.4291200    -1.0943600   68.5601300
   28705900000    -0.7668704  112.2525000   -12.3451000   21.3889500   -53.4026000   -0.0580214   -51.8050200    1.9126350 
 		     -12.3383900   21.7244100    -0.7518620  111.8661000   -52.5061800    6.5102070   -50.8613200   -9.2188070
 		     -52.1752700   18.5262600   -49.8186800   33.7789600    -1.1222700   68.5267000   -18.5461800  -18.6992900
 		     -54.5235900  -22.4677100   -51.9895400   25.5415800   -18.5064100  -18.7447200    -1.1054680   68.3494900
   28775890000    -0.7527137  112.2455000   -12.3407800   21.6280900   -53.0247000   -8.7854450   -53.8071200   -2.5774180 
 		     -12.4476100   21.8232500    -0.7459781  111.9243000   -54.5536700  -10.5169200   -52.6466400    1.7524760
 		     -53.9133300   -7.3088040   -53.9387000    4.1390940    -1.1233580   68.3788700   -18.5894800  -19.0689300
 		     -50.1354400    5.1046860   -52.0588100   20.1125600   -18.5938700  -18.8049500    -1.0988910   68.1214900
   28845880000    -0.7724515  111.8142000   -12.3602500   21.6477000   -53.7919000    2.6631570   -52.3430700   -2.6492770 
 		     -12.4323000   21.1996400    -0.7350374  111.7897000   -57.3433600   15.1969000   -50.3352300    8.9294820
 		     -49.9330500    5.8441090   -50.8566600   13.6894100    -1.1272620   68.0777300   -18.6239700  -19.1336800
 		     -52.1762700   -9.8199230   -53.3657400   -7.9050920   -18.6550100  -19.0008000    -1.1103620   67.8944500
   28915870000    -0.7417052  112.0580000   -12.4954800   21.7046400   -53.2496600    1.7725140   -51.5291800   -6.4060870 
 		     -12.3828100   20.9631900    -0.7646269  111.4192000   -54.1073300   -1.7654370   -53.5130200   -3.1116310
 		     -53.8058500  -33.3090600   -49.7181100   13.7257700    -1.1188840   67.6936300   -18.6458200  -19.5682100
 		     -49.9734000   27.7132900   -50.5663300   -1.4609810   -18.6682800  -19.9428100    -1.1128470   67.4973800
   28985860000    -0.7329620  111.6399000   -12.4214900   21.1499000   -52.2668900   -3.3576690   -54.0622100   -3.3898430 
 		     -12.4170200   21.1511800    -0.7556273  111.6825000   -54.4180800   -8.7709760   -52.3774100   -0.8977777
 		     -54.8188600   16.6159200   -64.0993300  -54.4519200    -1.1266010   67.5015300   -18.6969500  -19.8587900
 		     -58.0830900   44.6763600   -50.2596400    6.9858010   -18.7148600  -19.5129800    -1.1038920   67.3119000
   29055850000    -0.7551024  111.4850000   -12.4013100   21.4635800   -50.9900300   12.6494500   -54.7734000   -5.0067640 
 		     -12.4678400   20.9501500    -0.7261601  111.0496000   -53.2947100    5.7030350   -50.8890700   -9.8187550
 		     -60.0268300   29.1997000   -55.2421500  -39.3060400    -1.1259920   67.2667200   -18.7864800  -19.7606000
 		     -49.3128200  -10.2689400   -52.1031600  -20.0818100   -18.7461900  -20.0250500    -1.1192730   67.0982100
   29125840000    -0.7575870  111.3600000   -12.4167500   20.8196000   -53.0691800   -4.5236620   -51.4218900    7.1012520 
 		     -12.4312300   20.8877000    -0.7663229  111.1459000   -53.2971500   12.4377200   -51.7878000    7.1794770
 		     -59.1686900  -32.8733600   -57.1422000  -11.9761600    -1.1333610   66.9768400   -18.7541600  -20.1829600
 		     -54.9468800    8.1443280   -55.0874500   -3.4845220   -18.7780500  -20.1404700    -1.1105350   66.7458200
   29195830000    -0.7301248  111.3476000   -12.4728500   20.6110800   -53.6104000   -9.1484300   -56.8006900    0.8621272 
 		     -12.4554900   21.0343900    -0.8137475  110.9660000   -53.7787600  -11.5251800   -52.2941400   24.9092900
 		     -55.0607000    7.9191410   -50.3362900  -33.3350200    -1.1171900   66.8231500   -18.7727400  -20.3733700
 		     -54.1983000   -4.0682130   -52.5627500   -5.4025030   -18.7646500  -20.3491900    -1.1030830   66.5346900
   29265820000    -0.7600260  111.1996000   -12.5108900   20.9997900   -52.7968000   -0.6698467   -52.1016700   -3.8756830 
 		     -12.4075700   20.5874800    -0.7784533  110.6456000   -52.0838400   14.8554300   -50.2404800   -0.0598284
 		     -48.8134100   13.6778300   -53.8072500  -77.3157200    -1.1285850   66.4801400   -18.8534800  -20.7825400
 		     -52.7811000   33.0266600   -53.8438200   13.9526700   -18.8242400  -20.5004800    -1.1103900   66.3010900
   29335810000    -0.7236443  110.9664000   -12.3373500   21.3125500   -54.2155500    0.0084407   -51.9666700    7.1925650 
 		     -12.4263700   21.0289700    -0.7220495  110.3505000   -52.1096600    3.2802770   -51.3589100    5.8387710
 		     -49.4861000   15.4568800   -52.6321000  -16.5253800    -1.1398090   66.1597700   -18.8698500  -21.0030100
 		     -54.4808500  -35.4601400   -53.1421100   -2.9582010   -18.8518000  -21.1793700    -1.1055310   65.9350700
   29405800000    -0.7368731  110.7478000   -12.4407400   20.7097800   -55.7594500    1.1437300   -55.9603000    4.3256740 
 		     -12.3787100   20.6864500    -0.7625440  110.4785000   -54.3320400   -1.0081560   -53.1189100   20.9691500
 		     -51.5367500    0.3012099   -52.3220400  -16.8826900    -1.1319440   66.0868500   -18.9184900  -21.0343000
 		     -56.0148600  -24.0005400   -57.6611300    0.5153802   -18.9077500  -21.4959200    -1.1070900   65.7454500
   29475790000    -0.7728385  110.6075000   -12.4177700   20.6547400   -53.2592700   10.3124900   -51.6075000   -4.0682360 
 		     -12.4592800   20.4009800    -0.7557299  110.1709000   -55.8765800   22.8497200   -51.6827900    6.7667450
 		     -51.1847600  -28.4588300   -56.7239600  -23.3732700    -1.1267370   65.7816000   -18.9403000  -21.3868500
 		     -51.0995800    9.6315850   -51.4818400    6.2278420   -18.9713600  -21.3281600    -1.1192370   65.6069100
   29545780000    -0.7400191  110.4206000   -12.3837900   20.3686100   -52.8240400   -7.9105980   -51.8007000   -8.0115750 
 		     -12.4377700   20.3555700    -0.7418401  110.2477000   -51.7149700   -4.2011370   -56.8210800   -2.4168820
 		     -52.2186900  -13.1093800   -50.4933900   -3.0865950    -1.1341130   65.5314100   -18.9944900  -22.1884700
 		     -51.8682100   -1.5163010   -50.5655400   15.4735500   -18.9569800  -21.9079500    -1.1188840   65.1469600
   29615770000    -0.7527353  110.4382000   -12.3644600   20.3572300   -53.3448300    5.5843730   -52.4653100    3.4999170 
 		     -12.4239700   20.1029400    -0.7372440  110.0998000   -52.0212500    1.8296940   -50.8929500    1.8535980
 		     -51.5498500   -2.9232040   -53.1983700  -32.4218300    -1.1212130   65.2375400   -18.9448100  -21.6644800
 		     -54.1998300   -1.6561370   -52.3607900  -25.9967200   -19.0074700  -21.8109300    -1.0960770   64.9869500
   29685760000    -0.7708011  110.0163000   -12.3697100   20.3495300   -53.8780400   10.0075700   -53.0584800    7.2152910 
 		     -12.3985600   20.4254500    -0.7382855  110.0681000   -52.6467600   10.4292200   -53.5479700   -4.1493550
 		     -51.0617600    0.2239877   -52.8011300    0.3295025    -1.1248780   64.9909900   -18.9986600  -21.9678500
 		     -53.3517900    1.5300250   -49.6710100  -26.5654900   -19.0138400  -22.1561100    -1.1061310   64.7531700
   29755750000    -0.7578443  109.8427000   -12.4624200   19.9845500   -51.6577900   10.9052700   -53.7597400   -4.9223920 
 		     -12.4478100   20.0381300    -0.7369308  110.0421000   -51.7817100  -15.9940300   -50.9997100    4.6571630
 		     -52.1854500  -18.4161300   -52.1002800  -15.6193000    -1.1420920   64.6246200   -19.0891100  -23.1039200
 		     -55.5784200   -1.9710420   -50.6469100   12.0421600   -19.0907900  -22.5945300    -1.1182160   64.2881800
   29825740000    -0.7748263  109.9491000   -12.3824100   19.5239700   -54.4491400   16.2162400   -51.2751400   -9.1010280 
 		     -12.3940700   19.5376900    -0.7222537  109.6439000   -52.7476700    0.0315177   -54.9416900   20.3382600
 		     -51.0064300   19.8511900   -50.8441400  -14.8756000    -1.1182480   64.3476600   -19.0597900  -22.9659800
 		     -56.1575900    4.9448450   -53.7933000   12.4483100   -19.0565300  -23.0447300    -1.1041450   64.1567800
   29895730000    -0.7634994  109.6233000   -12.3324400   19.3916700   -52.8130000   17.3332900   -53.0600900   11.3960900 
 		     -12.3128900   19.7368500    -0.7026938  109.5107000   -54.3856100   12.4937200   -50.6522700    1.8090450
 		     -52.1294100    3.8609440   -53.1667600   14.6775100    -1.1303750   64.1855600   -19.1837700  -23.2506800
 		     -52.8054600   -2.6489480   -53.3975600  -28.2357500   -19.1693000  -22.8811300    -1.1103090   63.9209600
   29965720000    -0.7627807  109.6972000   -12.4350900   19.5082100   -52.3207100  -10.8531800   -53.5183900   -0.6247201 
 		     -12.3548100   19.6160100    -0.7215482  109.3743000   -54.4183100   18.9615000   -52.1963800    7.0802350
 		     -52.0790300    5.9937150   -58.3104400    7.9640530    -1.1409080   63.9754200   -19.1997400  -23.6596100
 		     -54.9918400    0.4347841   -51.1033600   -2.4729020   -19.2059400  -23.6137300    -1.1083810   63.5944900
   30035710000    -0.7430817  109.6105000   -12.3799600   19.1315500   -51.2699800   -3.9558890   -52.3526600   10.8742300 
 		     -12.4159800   19.4584000    -0.7071450  108.9904000   -55.6921800   -3.0991380   -53.9866900  -16.7810000
 		     -51.4546000  -14.8373400   -53.5214000   16.2087000    -1.1150360   63.6481400   -19.1912300  -23.8020500
 		     -58.3988900   26.6523100   -59.8159600   18.4560700   -19.2147300  -23.7608200    -1.1016010   63.3669300
   30105700000    -0.7594575  109.2188000   -12.4568000   19.0253400   -52.7548200    6.8358860   -53.3822900   -8.6985750 
 		     -12.3516000   19.4075500    -0.7152165  109.1538000   -54.6952800   -0.6933177   -53.1402000   -5.4301840
 		     -55.3553800   -8.5823090   -61.1386300   -1.1463110    -1.1333260   63.3855700   -19.2002000  -23.8023100
 		     -51.3342400    9.5136620   -54.9236500   -2.2295810   -19.2732700  -23.4915000    -1.1111210   63.1020700
   30175690000    -0.7662262  109.2303000   -12.3896400   19.2451500   -52.0518800   -4.6934240   -52.5474900    3.3131580 
 		     -12.3878200   18.7565700    -0.7204753  108.8072000   -53.3149300   15.1451100   -52.4970900  -10.5036500
 		     -53.9692100  -13.7142600   -57.9268100  -47.6892000    -1.1462640   63.1663400   -19.3021900  -24.3403300
 		     -51.7215000   14.1171600   -54.2272100   27.0516900   -19.2726900  -24.4959000    -1.1346230   62.7712700
   30245680000    -0.7448708  108.9543000   -12.3815400   18.2265400   -53.6882600    3.9834560   -52.5206800    0.5453975 
 		     -12.4012000   18.6457400    -0.7306299  108.5135000   -54.7373500   -9.7268250   -51.9037200  -15.8032400
 		     -52.2428200   -8.3562730   -52.0404000    4.5833230    -1.1337260   62.7811800   -19.3156500  -24.6298700
 		     -51.9881500   -0.8882129   -56.3387000    3.9264410   -19.2834100  -24.5320700    -1.1075680   62.5370400
   30315670000    -0.7755077  108.8489000   -12.4403700   18.4062800   -51.6645900   11.0527400   -52.0701400   11.1760500 
 		     -12.4383100   18.1151000    -0.7418950  108.5617000   -53.0324200    7.5000000   -50.3720300   -1.3300530
 		     -50.8914600    0.5606058   -55.1280400   20.8557300    -1.1357580   62.6072200   -19.3419400  -24.5518100
 		     -50.8704200    0.5100843   -52.8978800   -4.2640760   -19.3256700  -24.6248200    -1.1191130   62.2225200
   30385660000    -0.7494878  108.9966000   -12.3765800   18.7147900   -52.8616500    4.0751090   -52.5195100   14.1039500 
 		     -12.3865600   18.5034400    -0.6899229  108.4759000   -52.7448900   -4.3095640   -53.5408100   19.3617600
 		     -50.0597300   -6.9753280   -51.1242700  -17.1384800    -1.1473630   62.3456800   -19.4500000  -25.0260800
 		     -59.2363300   -6.6113930   -53.2317900   27.1341200   -19.4189600  -25.1941500    -1.1223430   62.0176600
   30455650000    -0.7700555  108.6466000   -12.4241500   18.4816700   -52.0040100   -1.0090440   -53.9316600   -2.2992400 
 		     -12.3835400   18.6281400    -0.7226233  108.3014000   -52.6315300  -14.3276300   -51.5547200  -16.0681100
 		     -51.0462100   -2.7976760   -54.5503400  -18.4150100    -1.1305780   62.1165200   -19.4496400  -25.1190600
 		     -50.8789100   12.0369200   -50.2434200  -16.2518700   -19.4257300  -25.6427400    -1.1041560   61.8278000
   30525640000    -0.7508175  108.5268000   -12.4881000   18.0518800   -53.2100900   -0.2879224   -52.8770400    8.5060850 
 		     -12.4660300   18.0486800    -0.7189929  108.3928000   -55.2347600  -15.1604700   -53.7301800    0.9190338
 		     -55.0078200   16.9499200   -50.7763400    2.8759550    -1.1409980   61.9059800   -19.5155800  -25.6566100
 		     -53.6652400   -0.7123047   -54.2843700    4.2154440   -19.4613300  -25.2132300    -1.1247950   61.4332000
   30595630000    -0.7218380  108.3347000   -12.3982600   17.8828500   -53.8313800  -13.4082200   -51.6086400   -8.6252010 
 		     -12.4526000   17.5911000    -0.7415855  108.0993000   -53.3094700    1.5134910   -52.6210200   -6.5849170
 		     -54.5403600   -6.8777390   -48.9947500   12.9050900    -1.1531070   61.5974900   -19.4724800  -26.0074700
 		     -52.2520000  -19.8194200   -51.7307600  -30.5814300   -19.4968800  -25.9839000    -1.1325540   61.2854500
   30665620000    -0.7396091  108.1271000   -12.4031300   17.9026700   -52.2635800    1.3061180   -50.6469400   -8.6831170 
 		     -12.4351800   17.9344500    -0.7408912  107.8603000   -50.9398100    0.7776572   -52.1521300   -2.5847550
 		     -52.3542800   10.9746900   -51.3098200   32.2521900    -1.1342310   61.2334400   -19.5683000  -25.9795800
 		     -53.5420000   -9.1936280   -51.4050600  -13.3293000   -19.5785300  -26.0990500    -1.1210290   60.9466600
   30735610000    -0.7834541  108.2179000   -12.4509200   17.3881200   -52.4806500   -3.1629960   -52.8921500    9.5752020 
 		     -12.4868500   17.4586100    -0.7029188  107.5860000   -53.0503300   -2.9830310   -52.6997100   -5.2997220
 		     -52.0762300   -9.9301800   -55.2424300  -41.4848700    -1.1571380   60.9911300   -19.5431400  -26.6718400
 		     -51.9562600    3.2751160   -49.6492800  -16.3382600   -19.5611900  -26.5390800    -1.1398890   60.6717400
   30805600000    -0.7905665  107.8214000   -12.4747000   17.2188600   -53.0834400    5.5454220   -52.6146000    3.8771020 
 		     -12.5042300   17.2160200    -0.7519981  107.3265000   -52.0722500    7.6648760   -53.6205800   -5.3842720
 		     -53.4595000  -10.9639000   -51.5149700   16.7363800    -1.1425500   60.8150400   -19.6120700  -26.6428400
 		     -54.6335600   -2.3925300   -54.7464000   22.5347200   -19.5607300  -26.4447000    -1.1276210   60.6043100
   30875590000    -0.7104146  107.6719000   -12.3734200   17.4196400   -52.8376000  -13.8543400   -52.1044900    2.0868630 
 		     -12.4259000   16.9584800    -0.7261426  107.2266000   -52.5020700  -12.9672000   -51.1707800    0.2647623
 		     -49.2033000  -17.0525200   -51.1954300   22.5907000    -1.1478070   60.5219200   -19.7353100  -27.0285400
 		     -59.6901800    2.1252440   -48.4089400  -10.1114000   -19.6876100  -27.0668600    -1.1403030   60.1586200
   30945580000    -0.7768878  107.6288000   -12.4957000   16.9086000   -53.0914100   -9.9871060   -51.7536700    2.9102440 
 		     -12.4501200   16.5558300    -0.7213254  107.2897000   -53.3106200   -2.5014820   -53.5545700   -4.6408740
 		     -52.7412600   -1.6019230   -56.3975300  -32.2249200    -1.1441350   60.2061100   -19.6593200  -27.3405300
 		     -56.7340600   -4.0743340   -53.1947300   22.9093600   -19.7222700  -27.5388900    -1.1473740   59.9484900
   31015570000    -0.7363806  107.4200000   -12.4857000   16.7137000   -52.2458100   -5.7989760   -52.2128700    1.6453930 
 		     -12.5130500   16.8847800    -0.7187974  107.2192000   -54.4805100  -15.6641100   -52.0971300  -16.8076500
 		     -55.2470200   -1.8004270   -56.5906800   30.7983500    -1.1489250   60.0500300   -19.7300100  -27.1609400
 		     -53.2999400   -8.0336070   -54.3712500  -15.2526800   -19.7459300  -27.6764800    -1.1157120   59.7787700
   31085560000    -0.7205968  107.2014000   -12.4565000   16.3651000   -55.7145200  -19.0176400   -55.0634300   -2.3913020 
 		     -12.4766000   16.7366900    -0.7333442  107.0247000   -53.6148500   12.8940100   -53.9884100    5.7815180
 		     -59.2097500   62.1205200   -53.5277900  -74.5667900    -1.1661910   59.8172600   -19.7859300  -27.8857100
 		     -50.1015700   13.5492200   -50.0802600    2.7293140   -19.7827000  -27.9044300    -1.1375070   59.4116200
   31155550000    -0.7704425  107.2342000   -12.5667400   16.4149000   -53.2678600   -3.0806230   -51.5279800    4.6832820 
 		     -12.5366700   16.8131100    -0.6952975  106.8567000   -55.7511100   19.3593800   -53.2462500   12.3536200
 		     -51.2698700   -6.8847530   -52.0219700   -7.8302040    -1.1557190   59.4420200   -19.8418600  -28.1450800
 		     -53.8600400   -5.5763910   -54.3748500  -15.4399000   -19.7972000  -28.0307600    -1.1436760   59.1638000
   31225540000    -0.7434580  106.7772000   -12.4553300   16.0214000   -51.1866600    6.1013130   -53.6738400   -5.5889480 
 		     -12.6120300   16.2573400    -0.7632620  106.7529000   -53.6974900   13.1654900   -51.8429400    4.8821280
 		     -50.9323100  -18.4728300   -49.7362600  -39.5966400    -1.1570600   59.3223800   -19.8892800  -28.4151200
 		     -50.6969000  -14.6382600   -52.2056700   -9.9174240   -19.8548100  -28.3480800    -1.1382510   59.1414600
   31295530000    -0.7353726  106.6105000   -12.4639000   16.8009400   -54.0134800   -1.8136770   -54.3443700   -2.2086080 
 		     -12.5211800   16.1867500    -0.7043734  106.5780000   -52.8695100  -15.8708900   -50.3610900   11.1981000
 		     -52.6711400  -12.7982000   -51.7723100    3.8389870    -1.1648850   58.8714700   -19.9773000  -28.8051600
 		     -55.6760600   -2.2202010   -48.5331900  -14.9646100   -19.9773000  -28.7653400    -1.1446400   58.6335600
   31365520000    -0.7650933  106.7191000   -12.5597700   15.7872700   -52.2694500   -9.6353540   -52.5185600   -2.1424870 
 		     -12.5461600   16.1067300    -0.7287651  106.3226000   -53.3310500  -27.8598000   -52.5537300   12.5049000
 		     -56.8158500   20.9373100   -56.3848600   10.2221000    -1.1652270   58.6294300   -19.9276400  -29.3829500
 		     -50.3439300  -22.9908000   -51.1842900  -11.6903300   -19.9018300  -29.1613500    -1.1463980   58.3838500
   31435510000    -0.7288596  106.4879000   -12.5343200   16.1475900   -51.4313500    2.9421440   -53.6363600   16.9370100 
 		     -12.5384800   16.0871500    -0.7407436  106.2432000   -55.4374300  -13.9649500   -50.5626000   13.1550100
 		     -55.9578700   -4.1032800   -56.5716000   16.8987300    -1.1673630   58.4878100   -19.9867500  -29.2141000
 		     -54.2444000  -20.8941500   -49.7834500  -47.4928900   -19.9420000  -28.8455500    -1.1436580   58.3036500
   31505500000    -0.7389320  106.3125000   -12.6201000   16.0920900   -53.4522100  -32.5272400   -52.3026000   16.6176900 
 		     -12.6067600   15.7878900    -0.7467729  106.1300000   -52.8005200   13.0573800   -55.2687100   -4.3535680
 		     -56.3242800  -42.4224600   -52.7916400    2.5568770    -1.1688990   58.1998100   -20.0649900  -29.5389500
 		     -53.0226700  -28.0597500   -50.1819200   16.0829600   -20.0185500  -29.4422900    -1.1584690   57.9922200
   31575490000    -0.7402776  106.1959000   -12.5896300   16.1532900   -52.1683500   -7.1525290   -51.6988200    0.9063137 
 		     -12.5598900   15.7133200    -0.7374370  105.9450000   -54.3510500  -12.0691800   -51.9401200    1.5857310
 		     -51.4714400    3.3081910   -64.9354600   59.5807800    -1.1724400   57.9176700   -20.1152300  -29.7451900
 		     -52.4374000    6.9684210   -50.9006700  -15.6240300   -20.1101000  -29.7278600    -1.1593620   57.7387400
   31645480000    -0.7367674  106.0002000   -12.5819100   15.2665500   -51.2659500    4.8855200   -52.7538700   -7.2669350 
 		     -12.5662800   16.0076600    -0.7290256  105.4913000   -55.6116600    3.4976180   -52.9078000    7.2903940
 		     -58.4828200   -1.5143300   -51.7286400   18.0072400    -1.1723670   57.7754100   -20.1116400  -29.9517300
 		     -51.9454300   15.6283300   -45.6251800   20.3367000   -20.1721300  -30.0276100    -1.1553890   57.4231000
   31715470000    -0.7350154  105.8813000   -12.6177400   15.7535500   -51.8870500   -8.6244520   -52.4183800   12.1634600 
 		     -12.6008100   15.6750100    -0.7623845  105.6184000   -53.0770400   13.8682300   -52.7011000   -1.0550570
 		     -52.6850600    1.3358360   -52.7016800   -9.6924180    -1.1851170   57.3646000   -20.1642500  -30.5561200
 		     -54.1130400    1.5247490   -54.3542200   33.8067800   -20.1254800  -30.0339700    -1.1541770   57.2360700
   31785460000    -0.7573176  105.7377000   -12.6170600   15.4345500   -51.3521800   -4.7688710   -55.0219300   -4.4607380 
 		     -12.6050400   15.3673700    -0.7360524  105.4323000   -55.8584600   11.3395600   -52.8282700  -14.7348300
 		     -52.3762300   10.9784400   -57.8928800   -3.1228750    -1.1916510   57.1567800   -20.1636200  -30.6208100
 		     -55.3122400  -13.0575800   -52.9086100  -37.1885200   -20.2290900  -30.6303000    -1.1612210   57.0227800
   31855450000    -0.7770566  105.6095000   -12.6282600   15.2537900   -53.9028400    2.2077750   -52.6446200   -3.4682280 
 		     -12.6145800   15.7944600    -0.7128003  105.2723000   -54.6433200  -17.4793100   -51.2376000   -8.8578870
 		     -54.1910600   20.8303000   -50.2507200  -50.2390300    -1.1728820   57.0230900   -20.2317300  -30.8901100
 		     -51.3730600  -26.2309500   -51.9830200   -3.2804100   -20.2495500  -31.3357300    -1.1532500   56.7894400
   31925440000    -0.7694037  105.3564000   -12.6082600   15.0710300   -53.9440500   15.1886400   -52.9271300    9.2400720 
 		     -12.6683100   15.2629900    -0.8324360  105.1796000   -54.7877700   -9.4990520   -51.9578700    8.3445980
 		     -54.4335700    1.0987970   -46.7587900   -2.6915210    -1.1825820   56.7342200   -20.2733900  -31.3216900
 		     -52.4090800    9.5537220   -54.4503000  -44.6519500   -20.2606200  -31.2517800    -1.1667660   56.5150600
   31995430000    -0.7629108  105.3723000   -12.6025600   15.3589500   -52.5438600    1.3580980   -53.2364700   -4.0684620 
 		     -12.6949800   15.0862800    -0.7648933  104.8901000   -57.7599800   19.0796500   -51.3224800    5.2484260
 		     -52.6242900  -27.6245000   -50.7864000   12.9427600    -1.1758750   56.5017400   -20.3337700  -31.2894900
 		     -55.3481300    3.7790230   -50.2134200  -25.1713000   -20.3461800  -31.7764500    -1.1617510   56.2170300
   32065420000    -0.8054156  105.1929000   -12.6306000   15.3894100   -53.6668200  -20.0658400   -52.0990900   10.2251200 
 		     -12.6354800   15.2867100    -0.7242008  104.7349000   -54.8879800  -24.6623700   -54.9966100  -14.8043400
 		     -56.9971700    6.0516260   -54.5102700  -22.0567500    -1.1854910   56.2835900   -20.2873700  -31.6588200
 		     -53.3661100    5.3822580   -49.3574000  -39.3750500   -20.3023800  -31.7923300    -1.1734070   56.0048100
   32135410000    -0.7718866  105.0849000   -12.6343500   15.1450900   -53.8708300  -13.0573900   -52.6681900   -7.3483870 
 		     -12.6409900   15.0907000    -0.7611955  104.4872000   -54.3725600   15.3546500   -54.1859500    5.0100730
 		     -54.2976800  -26.6339900   -51.8627200  -15.8292900    -1.1900380   55.9062700   -20.4224700  -32.3146400
 		     -52.8608200   -0.2205693   -52.1284500  -11.3179800   -20.4037300  -31.9783100    -1.1603030   55.7384500
   32205400000    -0.7781709  105.0420000   -12.7038600   14.6829700   -51.8885200   -2.3161810   -53.5412200   -1.6486220 
 		     -12.6497800   14.8310900    -0.7908714  104.5749000   -53.6870000    0.3364416   -54.2283400   -5.5607810
 		     -53.9002800  -18.6603700   -58.3000500   12.2373900    -1.1831880   55.7910700   -20.3962900  -32.3184100
 		     -51.3638300   -3.5835640   -55.6797100   61.0439200   -20.3922500  -32.1731500    -1.1489640   55.4956100
   32275390000    -0.7818849  104.6862000   -12.6362300   14.4962400   -51.2834700    1.9973850   -53.5508900    6.9209810 
 		     -12.7629900   15.0148300    -0.7321144  104.2926000   -51.8960000   11.9633700   -50.9763400  -12.9563400
 		     -51.0694700  -10.5507100   -81.2422500   56.3915900    -1.1711440   55.5348900   -20.4236000  -32.5233000
 		     -49.6794900   -3.7536040   -51.9150500  -24.6658800   -20.4465600  -32.9649200    -1.1670570   55.2171900
   32345380000    -0.7749616  104.4823000   -12.7036000   14.7930900   -51.3751000    3.9826870   -52.6562300    3.9242350 
 		     -12.6954100   14.8584100    -0.7474737  104.2561000   -51.7393400    0.3094241   -54.2825700  -15.7252200
 		     -49.5357100    2.0238020   -57.4596800   -6.4357810    -1.1715680   55.1355800   -20.5227300  -32.5673900
 		     -50.8968700  -39.1267000   -51.6265700  -15.1340000   -20.5454400  -32.7158900    -1.1709640   54.9261400
   32415370000    -0.7427847  104.6678000   -12.6859500   14.4924300   -52.1786500    1.5690590   -54.9264600    4.1896630 
 		     -12.6742600   14.8500900    -0.7443017  104.1279000   -55.0327400   -5.1829520   -54.2594300   -1.9824550
 		     -54.9291400  -22.5701300   -51.7594700  -19.5077600    -1.1878580   55.0648000   -20.5118200  -33.2825900
 		     -59.2899700  -14.2294100   -50.2771300   23.0392400   -20.5584100  -32.7576900    -1.1606570   54.6407000
   32485360000    -0.7874355  104.2453000   -12.6495000   14.4500100   -51.3731300  -15.3530700   -53.6421400   10.6376300 
 		     -12.7650800   14.6001000    -0.8263705  103.9560000   -52.2122300   -2.5210190   -51.5346900  -11.4072100
 		     -50.9488400    5.0733630   -54.1021800    4.2376360    -1.1781680   54.8013200   -20.5593200  -33.3476600
 		     -53.4088600    5.9459460   -49.0932500  -16.7427900   -20.6111600  -33.4286600    -1.1633990   54.5472000
   32555350000    -0.7820564  103.9745000   -12.6448900   14.5134900   -51.3772500    1.6198500   -51.6185000   16.6799900 
 		     -12.6465100   14.3128300    -0.7297212  103.9361000   -54.1749000   -6.9915720   -51.4535700    0.2923787
 		     -48.6398400  -30.1844000   -52.5746000  -20.8937700    -1.1833480   54.3293200   -20.6221600  -33.1500300
 		     -52.3584500  -21.6853400   -52.5885200   -5.7869100   -20.6288300  -33.5516800    -1.1625040   54.1159000
   32625340000    -0.7584509  104.0570000   -12.6581900   14.3792500   -54.3830600   -3.7175920   -54.5684600   -9.1883840 
 		     -12.6754400   14.3868000    -0.7161945  103.5363000   -53.6871000   -7.9434220   -52.0536700   -4.4309980
 		     -54.2565400  -17.0797800   -63.3542600  -36.8740600    -1.1868340   54.1286200   -20.6360900  -34.2056400
 		     -53.7550100  -12.3702000   -51.1304100  -12.0908800   -20.6290400  -34.1226500    -1.1710010   53.8188200
   32695330000    -0.7879460  104.0434000   -12.6212100   14.7158600   -53.5973300   -2.7346590   -52.3674400    5.1695240 
 		     -12.6987300   14.7103300    -0.7258288  103.4496000   -55.9798700  -17.8709100   -53.8185800   10.5578100
 		     -57.2211500  -33.4363700   -56.6957700  -46.9336900    -1.1741030   53.9211600   -20.7149500  -34.1767700
 		     -49.4601500  -18.6565200   -48.8746500   46.1515100   -20.6703000  -34.5903500    -1.1526350   53.7147600
   32765320000    -0.7974172  103.6074000   -12.6672300   14.0122500   -52.0171100   -4.7127810   -54.9229500   22.2452100 
 		     -12.7089300   14.1259300    -0.7626504  103.4566000   -53.8216100   12.7389000   -54.1774200   -4.6517230
 		     -52.1527800   -1.6015080   -52.8090700  -26.7128600    -1.1753830   53.6382600   -20.7248000  -34.7355600
 		     -53.9892700  -37.6118700   -48.6551100   -6.4145450   -20.7655700  -34.8369700    -1.1736060   53.3215800
   32835310000    -0.7735174  103.7420000   -12.6695300   13.6704700   -54.2946600   -8.5849910   -52.5964500   -7.3058440 
 		     -12.7221100   13.3695300    -0.7087215  103.2660000   -52.9987900    6.0649160   -54.1335800    2.2898520
 		     -54.5916300   -1.9101680   -55.9624400   27.5803700    -1.1660730   53.3057700   -20.7973800  -35.5375500
 		     -51.2031500  -16.6334100   -52.8205900   10.7364700   -20.7832000  -35.2986000    -1.1696170   53.0401600
   32905300000    -0.7893009  103.3652000   -12.7079400   13.8471500   -52.5933500   -8.4545760   -53.4659300   -6.9595890 
 		     -12.7728700   13.9347700    -0.7431152  103.3798000   -53.2831900   -7.8123640   -50.7962300   -7.3542550
 		     -52.3501900   -2.1620010   -51.5928800   -8.3738950    -1.1648970   53.1513100   -20.8235000  -35.4021000
 		     -55.9397200   -4.1011710   -48.8054900  -15.1376300   -20.8234700  -35.6071600    -1.1628780   52.8369600
   32975290000    -0.7838115  103.3859000   -12.7590800   13.9092200   -53.5704500    5.7735570   -50.3501900  -13.8189800 
 		     -12.7327600   13.7222000    -0.7153172  103.1120000   -51.1125000  -19.2881600   -53.6811800   -5.4952520
 		     -52.0139300   -4.1095730   -53.6577800   -3.9755020    -1.1742950   52.7571800   -20.8405300  -36.0789100
 		     -54.6542500   -9.0501090   -54.5462000   -8.7196230   -20.8619300  -36.0066300    -1.1791690   52.5804300
   33045280000    -0.7234394  103.2835000   -12.6876400   13.6891700   -52.7185600   -8.4214160   -54.0784000   -1.7486640 
 		     -12.7105800   13.7892200    -0.7679524  102.8073000   -55.8280500  -21.6928300   -51.0302800   -4.0913320
 		     -65.9703700    7.0372500   -54.2098000   28.1855700    -1.1768970   52.5955200   -20.8625000  -36.2866700
 		     -57.1019100  -18.8517300   -54.4136500  -16.7352900   -20.8910500  -36.5164500    -1.1593980   52.2614200
   33115270000    -0.7738963  102.9675000   -12.7627900   13.7363400   -52.0974200  -14.8577000   -54.3760800   -4.2491730 
 		     -12.8149200   13.6004400    -0.8003749  102.9414000   -58.2046200  -21.6736000   -50.8124600   -3.3257270
 		     -52.9886600   -2.3913020   -54.6120900  -21.3696400    -1.1794040   52.4008900   -20.9230300  -36.1853900
 		     -53.1570100   -0.0468183   -58.5326500   35.3467400   -20.9190800  -36.1732700    -1.1606250   52.0250900
   33185260000    -0.7668855  102.8624000   -12.6628800   12.5579100   -53.0531700   -3.7909520   -54.8017800    5.6591480 
 		     -12.7411500   13.3199500    -0.7265001  102.6576000   -53.3248700  -13.6222500   -52.1414900   -5.5864050
 		     -61.4550800  -39.0097400   -49.3005600  -21.7521700    -1.1923220   51.9787100   -20.9554300  -36.9074000
 		     -53.1702000   24.8711400   -56.7719600  -15.6974000   -20.9166500  -37.3133900    -1.1817480   51.7936500
   33255250000    -0.7452899  102.8315000   -12.6892800   12.5215700   -52.6678000   -5.7362140   -55.0844800    0.9675089 
 		     -12.6659500   13.0667300    -0.7351837  102.1121000   -55.9247400    9.5528480   -52.8992200   -3.3743480
 		     -51.0260200  -17.3539800   -59.3618700   -0.3221802    -1.1726130   51.7255600   -21.0335800  -37.3609100
 		     -53.3269100  -21.3111200   -52.0617700    0.8361581   -20.9386000  -37.3072200    -1.1559530   51.4693000
   33325240000    -0.7623104  102.3516000   -12.7718100   12.8505700   -53.9286800  -14.6802000   -53.0857500   -4.1518520 
 		     -12.7979600   12.9825800    -0.7436912  101.9963000   -56.0335900   -1.4400050   -51.6654200   -5.6461340
 		     -53.7901800  -19.9795400   -56.8431500    7.6059990    -1.1897300   51.6478900   -21.0013400  -37.6088100
 		     -50.9270500  -31.3058400   -56.6793000   -1.8171130   -21.0489800  -37.6811500    -1.1787740   51.1403800
   33395230000    -0.7834525  102.4610000   -12.7281000   12.6633300   -56.8481300  -13.2233500   -53.8417600   -1.5894310 
 		     -12.7840100   12.8396400    -0.7256042  101.8396000   -54.0397600  -13.2427700   -52.9430600   11.3766500
 		     -51.3931800   -6.9456600   -50.7544200  -32.3463500    -1.1953520   51.2312000   -21.0823100  -38.0783500
 		     -52.6568900  -15.8556000   -53.2781000  -11.8468800   -21.0657500  -38.0931400    -1.1834870   51.0339900
   33465220000    -0.7726133  102.4119000   -12.7279500   12.9079800   -53.0397700   -4.7637330   -52.5870000   -9.9022410 
 		     -12.7760500   12.5543100    -0.7770776  101.9008000   -54.3351700  -10.8782600   -55.1999400   -7.4824190
 		     -53.1076500    9.9384750   -51.6348100   -6.8615640    -1.1858160   50.8470600   -21.1582200  -38.8586200
 		     -56.2365000    4.0644110   -55.9773800   12.9646000   -21.1284400  -38.9193400    -1.1701410   50.6013300
   33535210000    -0.7708938  102.0766000   -12.7462400   13.0642600   -54.1908300   -0.8480403   -53.6252100    9.2617410 
 		     -12.7562400   12.7252800    -0.7297657  101.8135000   -56.7016800  -18.6728800   -52.5069200    0.5764836
 		     -54.4210000  -18.3374600   -51.2049900    0.2709642    -1.1915150   50.7166000   -21.1369300  -38.6600800
 		     -53.0943100    3.2393910   -48.6401600   -0.2566501   -21.2106400  -38.8297100    -1.1798290   50.3188800
   33605200000    -0.7790278  101.9130000   -12.7954300   11.8959400   -52.2464400  -10.8489600   -53.6765500  -11.1827800 
 		     -12.8447000   12.7412400    -0.7473900  101.4519000   -56.0018800   -0.4509090   -50.5403200    2.2251010
 		     -54.1692000   19.0332700   -52.5009500  -26.9085300    -1.1996370   50.4658500   -21.2097000  -38.8318600
 		     -57.1756200  -20.5420600   -52.6442900   -6.8265070   -21.1890400  -38.8762400    -1.1724020   50.2575800
   33675190000    -0.7368894  101.7662000   -12.7980600   11.9013700   -54.0638300  -17.7452900   -54.8165700   -4.2332450 
 		     -12.7510500   12.0710500    -0.7397681  101.0298000   -54.7487700    5.3950190   -52.0702900  -20.1671700
 		     -54.1380500  -11.0561400   -53.4215700  -10.4685500    -1.1939010   50.0896300   -21.2741300  -39.3171500
 		     -58.6883500  -65.9388200   -52.9259700   13.2134500   -21.2204500  -39.2142300    -1.1839340   49.8268100
   33745180000    -0.7715455  101.7435000   -12.7497400   12.3170300   -55.1367200   13.4441700   -53.1055900   -5.2851360 
 		     -12.7168700   12.5471100    -0.7179531  101.4453000   -52.3562300   -6.1982980   -53.4358000  -23.3633700
 		     -53.6357300   -5.2681060   -54.6164300   47.1210700    -1.1909590   49.9561300   -21.3242500  -39.4475400
 		     -54.0443800   -8.9816330   -49.9836100  -23.7317400   -21.2747500  -39.6932600    -1.1776340   49.5887200
   33815170000    -0.7631093  101.4933000   -12.7820400   11.7926800   -55.1436000  -11.9198900   -56.6066800  -18.5897600 
 		     -12.8063600   12.1039100    -0.7509874  100.8708000   -56.4805800  -20.6514100   -51.1378300   -5.2341460
 		     -55.8736600   -7.1975610   -52.9719700  -57.4793700    -1.2084660   49.6756200   -21.3296800  -40.1957700
 		     -52.0761300  -13.8019500   -57.5279700  -45.1535800   -21.2800500  -40.5095100    -1.1736730   49.4415700
   33885160000    -0.7541677  101.3840000   -12.8606100   10.8387900   -52.2798500   -8.7396810   -53.2109600   -3.2522400 
 		     -12.8521700   11.6920100    -0.7922646  100.7894000   -53.0448200  -11.8094400   -54.3999900   -6.7621170
 		     -56.7096300  -15.3842700   -54.6841900    7.5920990    -1.2145070   49.2603800   -21.4013700  -40.3015700
 		     -56.2727800   26.2102000   -50.0560800   -8.3736880   -21.3577300  -40.8674200    -1.1999550   48.9998200
   33955150000    -0.7563602  101.2141000   -12.7432200   11.4047100   -53.6343200  -13.2375500   -54.7781900   -0.6791511 
 		     -12.7499400   11.1760400    -0.7798192  100.8180000   -54.3722900   -7.4592170   -54.9215200   -2.8471990
 		     -53.7472100  -28.5856800   -57.7299300    1.6041360    -1.1949400   49.2639300   -21.3486900  -41.1318400
 		     -51.5382800    5.1607700   -52.3126300  -17.3979300   -21.3595800  -40.9209700    -1.1781370   48.8035100
   34025140000    -0.7664223  101.1446000   -12.7659900   11.7545800   -54.4351900  -11.9700200   -51.4699600   -4.2629800 
 		     -12.7488900   12.1375900    -0.7470211  100.6458000   -54.4924900  -14.6710000   -49.5946800  -25.4001100
 		     -54.8695900  -14.1315800   -54.1943400  -46.2889800    -1.2060230   48.8918600   -21.3714800  -41.0707300
 		     -55.3848200   18.4503900   -69.9207200   83.3918000   -21.4178800  -41.2678800    -1.1740080   48.6776400
   34095130000    -0.7594609  100.7322000   -12.8327000   11.4023000   -54.0180600  -10.9237700   -53.1276500  -15.4067500 
 		     -12.8243900   11.4330600    -0.7516570  100.5018000   -55.7175500   -4.1490890   -48.9476500  -10.5141400
 		     -56.5261900  -17.9902700   -56.9630200   61.0822900    -1.2526190   48.3129700   -21.5377800  -41.2264100
 		     -51.8294700  -22.0662200   -54.1569300  -26.5418000   -21.4392400  -41.4860800    -1.2106330   48.3596300
   34165120000    -0.7609093  100.7280000   -12.8223300   10.7913200   -51.7591000   -9.9770530   -52.4826700    4.7504450 
 		     -12.7966900   11.0025700    -0.7299001  100.3403000   -53.6132300   -7.4902730   -51.9887700  -10.8617800
 		     -53.7480500  -17.9625500   -50.2764500   13.3650700    -1.2173640   48.3607100   -21.4761300  -41.6275400
 		     -54.6807100   -1.9642290   -50.8054600  -28.3913200   -21.5506400  -42.3506100    -1.1921850   48.0713500
   34235110000    -0.7550346  100.4772000   -12.7915800   11.0255100   -51.6824300   -6.9257470   -52.2795800   -2.3848470 
 		     -12.7186000   11.1682300    -0.7039524  100.2627000   -53.7414500    8.5157590   -51.9551400  -16.8172900
 		     -51.4884100   -7.3972800   -57.0541800   23.5632300    -1.2122800   48.2115500   -21.5270600  -41.9646300
 		     -57.5923900    1.4915690   -47.9877600   -4.1766890   -21.5967900  -42.1870500    -1.1784350   47.7495100
   34305100000    -0.7564348  100.0075000   -12.8658900   10.9998700   -53.3471300   13.5896300   -54.3058700   -9.1160460 
 		     -12.9080200   10.9280500    -0.7554015  100.3147000   -53.7394200    0.8365571   -52.7726000   -0.5771197
 		     -50.9925400  -14.7060300   -56.3397000   27.6248600    -1.2569950   47.7482300   -21.5706700  -42.9883100
 		     -50.2838100  -19.6864200   -52.7859500   13.8998200   -21.5867100  -42.8442500    -1.2183270   47.5607900
   34375090000    -0.7634172  100.3272000   -12.9008800   10.5687600   -51.3248300    2.4745720   -51.8478900   -6.7835310 
 		     -12.8783600   10.2783500    -0.7566009   99.9788000   -52.3696900    2.1636760   -55.0441400   -6.3826350
 		     -53.5429700    5.2763670   -60.9525100  -15.8033000    -1.2124010   47.5468800   -21.6503200  -43.3130600
 		     -51.2985300  -14.9232900   -55.0256400   25.2046900   -21.7356900  -43.2425800    -1.2068960   47.2959500
   34445080000    -0.7758936  100.3117000   -12.9052000   10.5621800   -53.8655000   -8.3814530   -54.3714100   -4.2732250 
 		     -12.8349200   10.3413500    -0.7037692   99.9336600   -55.6479500   10.5954400   -54.0344700   -1.0660020
 		     -54.1871700   -4.4610670   -52.8588800  -45.2127100    -1.2194940   47.3018300   -21.6605500  -43.3920300
 		     -49.7839900   -2.0098440   -49.0438200   13.2545500   -21.7552400  -43.4022900    -1.2098440   47.1214400
   34515070000    -0.7470371   99.8887800   -12.9207500   10.3095500   -53.6073400  -13.1649000   -53.1470000  -21.3816300 
 		     -12.9142700   10.5715100    -0.7446642   99.5960200   -53.3747100  -11.8122800   -54.0252900  -23.2694700
 		     -52.7022900  -23.8859900   -48.9880500   -7.3425790    -1.2451280   47.0154800   -21.7628300  -44.2251900
 		     -54.6187500  -16.3371000   -48.7073500  -34.5320900   -21.6936100  -43.8519400    -1.2232910   46.7985200
   34585060000    -0.7667910   99.7570400   -12.9195100   10.3409900   -54.3157900  -16.0897700   -55.3418000   -4.8405070 
 		     -12.9835000   10.2289700    -0.7639147   99.5538000   -54.2505500   12.3665400   -50.5340500   -4.8302320
 		     -55.8638000    0.0872066   -57.1936100  -28.5907800    -1.2195740   46.8623800   -21.7324800  -44.2550300
 		     -64.8492100  -36.1270800   -53.4404300  -36.8360700   -21.7763900  -44.5389200    -1.2185000   46.4652200
   34655050000    -0.7685984   99.7867100   -12.9144800    9.9391780   -54.9030300   -0.2261439   -55.2135800  -17.0946300 
 		     -12.9049900    9.8912270    -0.7697452   99.2738000   -55.2530800   -2.5278410   -52.8031600   -4.3121180
 		     -53.2443700  -29.6169100   -54.6410400   57.7993500    -1.2275740   46.4843400   -21.8320000  -44.6319700
 		     -53.5316200   10.5832400   -48.8657600  -21.6327000   -21.8803400  -44.7593900    -1.2116360   46.2005900
   34725040000    -0.7517389   99.5049100   -12.9640000   10.3335500   -53.7558700  -14.0778100   -56.8020900   -3.1182980 
 		     -12.9872200   10.3323400    -0.7481431   98.9826900   -57.4700500  -24.6811700   -51.4781400    2.7891890
 		     -49.5772800   -2.2070200   -52.6079300   35.6876300    -1.2480090   46.2508100   -21.8151500  -44.7806000
 		     -52.4987200   35.9702800   -48.8525400    6.0972090   -21.8462300  -45.4190000    -1.2265850   46.0309100
   34795030000    -0.7463448   99.2578700   -12.9978800   10.0523200   -55.7912100   13.6988100   -51.8205000   -4.8067930 
 		     -13.0315500    9.9063910    -0.7974116   99.0787500   -52.7560000   -7.3148280   -54.1250900   -2.3496880
 		     -50.7843400   -3.8218800   -48.4011200  -29.6814500    -1.2264060   46.0976100   -21.8176000  -45.5731600
 		     -56.2538400    7.6134420   -51.0524500   -2.0429770   -21.9525500  -45.3580600    -1.2415070   45.7493300
   34865020000    -0.7535105   99.1369500   -12.9093000   10.1254600   -56.6204100  -16.2004500   -52.5575200   -9.5711910 
 		     -12.9000000    9.9699450    -0.7372820   98.7398100   -53.7975400    1.6189360   -51.8763600  -18.8234400
 		     -53.0435700  -11.0408900   -54.4690100   -9.3016200    -1.2106650   45.6844600   -21.9271500  -45.9528100
 		     -53.7323200    5.1427650   -48.3868000   -0.4210156   -21.9217300  -45.8577700    -1.2383110   45.4858100
   34935010000    -0.7449266   98.9366100   -12.9720400    9.5768010   -51.9477800   -7.1681740   -52.5365000   -6.9037310 
 		     -12.9519300    9.9364140    -0.7712750   98.6330200   -53.6927100   -7.2373520   -55.3340300  -17.7444400
 		     -58.5870200   13.2419200   -51.1409300   35.8273100    -1.2654700   45.6585100   -22.0108400  -46.6179400
 		     -55.6457700    7.6694170   -49.3240800  -32.1393200   -21.9363000  -46.5111200    -1.2289930   45.2524800
   35005000000    -0.7580341   98.9070700   -12.8771600    9.6504920   -54.2360800  -20.3325800   -53.0508200  -17.9770200 
 		     -12.9489400    9.0963790    -0.8197438   98.6365600   -54.1954500    2.4889420   -51.0436100   -8.7400940
 		     -55.6328500   18.5841500   -56.0421800   34.5559000    -1.2439840   45.3124500   -21.9787200  -47.0534600
 		     -54.9068600  -56.8276900   -55.7238500   -4.8090570   -21.9774300  -46.4111400    -1.2247530   45.0054100
   35074990000    -0.7590758   98.6854600   -12.9891700    9.5862720   -52.0299800   -5.1417870   -56.9869500  -14.3340700 
 		     -13.0194600    9.0688480    -0.7705306   98.3895600   -55.4541100   13.4048800   -53.4809600    7.5366000
 		     -61.7112700  -28.3849400   -51.5505900   11.3544200    -1.2445730   44.9481700   -22.0837800  -47.2377400
 		     -51.4191500  -27.2598800   -48.7822800  -15.6529100   -22.0244000  -47.1590300    -1.2452110   44.7138500
   35144980000    -0.7688571   98.6487600   -13.0137500    9.6367700   -54.3387900  -12.6917900   -53.7898600   14.5262200 
 		     -13.0061300    9.6062290    -0.7660646   98.2477000   -55.7326600  -35.2835600   -55.1685300  -20.9057300
 		     -49.9319400  -16.1504600   -53.0608500   -3.3395320    -1.2569630   44.8009500   -22.0655300  -48.0198100
 		     -50.4879100   -5.4806320   -52.1449000  -24.9069100   -22.0473400  -47.8312400    -1.2267990   44.5438600
   35214970000    -0.7749197   98.3388700   -13.0206100    8.6432870   -56.6213800   -4.4467280   -54.6930800  -16.7731700 
 		     -12.9785600    9.1318570    -0.7510200   98.0253000   -54.3142200  -17.8869000   -51.4102200    0.9649007
 		     -57.4689300   -7.4185640   -48.6798900   -1.7797260    -1.2413130   44.4473100   -22.1489700  -47.7168400
 		     -60.3078100   21.5694300   -47.7125500   15.4611300   -22.1897500  -47.6219600    -1.2492870   44.1850500
   35284960000    -0.7595741   98.3511800   -12.9406300    9.1609810   -52.1441300   -1.9742450   -54.6881900  -12.5012800 
 		     -13.0201400    9.0592870    -0.7697906   98.0064200   -56.3532300  -36.9883600   -53.6878000    4.8787720
 		     -50.8545100  -20.4461200   -57.0196200   45.1968800    -1.2422620   44.1566700   -22.1342800  -48.3187000
 		     -56.9158600   10.2674800   -49.6912600  -23.7444600   -22.1340000  -48.3216900    -1.2694180   44.0239600
   35354950000    -0.7661650   98.3599500   -13.0609600    8.9667360   -52.7839300   10.2205600   -53.1458100    0.6982198 
 		     -13.0284400    8.7274660    -0.8001579   97.4417000   -53.7060400  -22.8836100   -53.4746500  -25.0194600
 		     -52.8626200   -5.4406640   -48.0576300    5.5297780    -1.2491750   44.0884000   -22.2103000  -49.1866300
 		     -52.4081100    8.1595540   -53.0099800    1.0224170   -22.1639900  -48.6004000    -1.2421230   43.7401000
   35424940000    -0.7723659   98.0018200   -13.0777200    9.1087270   -53.8394400    3.3732970   -55.2206800  -17.1163200 
 		     -13.0050800    9.1000840    -0.6929082   97.9046900   -54.3814500    7.1256340   -50.8508800  -14.2638200
 		     -51.5659300   25.6985600   -51.1228900   -3.1326520    -1.2660340   43.7950400   -22.3236500  -49.2774500
 		     -57.2015300    9.6996810   -51.8305400   24.0713200   -22.2205500  -49.5831300    -1.2628960   43.4525200
   35494930000    -0.7793282   97.8380700   -13.0936300    8.7997990   -52.8989800   -2.7328390   -52.2338500   -3.8551900 
 		     -13.0372800    8.6632440    -0.7068316   97.6228100   -53.6420900  -10.1069700   -53.6721600   -1.0762420
 		     -53.5858100  -16.0474900   -55.8993800  -86.0068200    -1.2567500   43.3284300   -22.3128900  -50.3568000
 		     -49.4457900   -6.0290250   -51.4771300   -7.9990390   -22.3686800  -49.5662600    -1.2819320   43.2823500
   35564920000    -0.7709180   97.5402900   -13.1046900    8.8990860   -51.6617900  -11.3195900   -50.9499600  -12.1904400 
 		     -13.0999300    8.5811600    -0.7640792   97.5601200   -53.1848800  -15.0901800   -57.2860300  -22.6093400
 		     -50.9136200   -9.2080900   -55.4585500   41.0655500    -1.2572690   43.1683000   -22.2864600  -50.4071100
 		     -55.6477500  -25.2198100   -48.7402200   45.2609400   -22.3107800  -50.1843500    -1.2543070   42.9460400
   35634910000    -0.7984661   97.6182200   -13.0533100    8.2539760   -53.8205700   15.6814400   -56.5274600  -34.4835600 
 		     -13.0583000    8.3829870    -0.7495001   97.3450900   -56.2692900  -22.3675200   -55.5695300  -19.3393500
 		     -51.5026000  -22.8307400   -56.1633500   29.4741500    -1.2618470   42.9926500   -22.3852800  -51.0134200
 		     -52.2138900   -2.8013340   -56.4466300   43.3916900   -22.4099800  -51.1529000    -1.2616550   42.5840600
   35704900000    -0.7391393   97.5009600   -13.0686600    8.3823800   -53.0150900  -29.5567400   -54.1773300  -12.6822600 
 		     -13.0535200    8.5206260    -0.7604319   96.9684400   -53.3397900  -12.1027100   -55.4527100   -0.8064052
 		     -47.5728000  -41.1324500   -50.4488100   19.3957800    -1.2463400   42.5758500   -22.4781900  -51.5741200
 		     -52.9230800   -1.2441410   -56.5869600  -10.7253700   -22.5242800  -51.0826200    -1.2630400   42.5397700
   35774890000    -0.7454691   97.1562400   -13.1245000    8.0629330   -51.5793300  -13.0769800   -53.7081600   -9.0558610 
 		     -13.1568900    7.9934510    -0.7472135   97.2653600   -52.5873000   -0.8815394   -49.7487300  -26.1731900
 		     -52.4302900    6.8646740   -51.8174700  -38.0874600    -1.2646560   42.5189800   -22.4581300  -52.0630100
 		     -48.1755100  -13.6037300   -51.9819300  -10.8614900   -22.5511800  -51.8632900    -1.2461820   42.1766700
   35844880000    -0.7670937   97.2248100   -13.0955300    7.8477770   -54.7234500  -44.2826500   -51.7681200   -7.1729610 
 		     -13.0620000    8.1653750    -0.7264823   96.9541200   -54.4680500  -28.4730500   -53.8761600    5.8186920
 		     -52.7263300   30.0635200   -61.0639800  108.4666000    -1.2763250   42.2100200   -22.4270400  -52.5935100
 		     -53.4694500   -2.3216940   -51.5365000    0.1344884   -22.4611900  -52.4679000    -1.2668880   41.9423400
   35914870000    -0.7746143   97.0158000   -13.1520500    8.0300990   -53.1395300   -7.3256780   -56.1382300    1.5841890 
 		     -13.1467000    8.2506700    -0.7769234   96.5915800   -51.3085900  -20.8387200   -54.9452900  -16.3388900
 		     -58.1857800    3.3022600   -52.0005000   -8.9802060    -1.2672110   41.8909000   -22.4803100  -52.4420100
 		     -59.0601300   14.3445100   -50.9381400  -15.7326800   -22.5766600  -52.9035500    -1.2627820   41.7418400
   35984860000    -0.7623496   96.9574500   -13.2187300    7.0869980   -56.8487500   -1.5295400   -52.6189000  -12.3211900 
 		     -13.3049300    7.3834980    -0.7774079   96.6275900   -51.5958800  -26.9474400   -52.1395100   -9.1046990
 		     -53.6840900  -30.1370300   -53.9646000    0.6472691    -1.2695040   41.6216400   -22.7447900  -52.9327400
 		     -50.9363400    4.5542390   -48.1487500    0.0512795   -22.5885700  -52.7876300    -1.2577750   41.4015400
   36054850000    -0.7845647   97.0206200   -12.9805500    7.2742090   -53.2595400   -2.1566720   -53.5489700   -1.1707190 
 		     -13.0705600    7.2401100    -0.7651758   96.4862400   -53.4947700   -6.9776210   -54.1725900  -13.9730700
 		     -54.9516900   -9.2811960   -53.4114200  -36.0503100    -1.2650910   41.4190100   -22.6728800  -53.4418000
 		     -54.6710000    2.8246410   -57.6374400  -41.6980000   -22.6543000  -53.6750400    -1.2763250   41.2186700
   36124840000    -0.7930317   96.3222100   -13.1582300    8.3875200   -56.6291000  -35.8780000   -49.9395300   -4.9677050 
 		     -13.0991100    7.9717460    -0.7574186   96.3692400   -54.8203200    1.2413900   -52.8477900   -8.6863700
 		     -57.4891400    8.3952220   -56.1841200  -42.1692200    -1.2613510   41.0762300   -22.6089300  -53.9750300
 		     -58.7097800    8.9979910   -51.5528100  -30.2557400   -22.7491100  -54.3593000    -1.2745440   40.9019400
   36194830000    -0.7755365   96.4777500   -13.0856000    6.5484620   -53.2809900  -25.8861800   -56.7362200   -4.5489600 
 		     -13.1952800    7.0104940    -0.8324203   95.9793400   -57.3632500   12.7192600   -52.0840900  -19.1701000
 		     -51.0109700  -18.7643800   -52.0604600   48.1970200    -1.2945870   40.8680200   -22.8023300  -54.2966300
 		     -50.9913500   34.1558800   -56.1649100   -6.4681860   -22.6791100  -54.4479400    -1.2969410   40.8079300
   36264820000    -0.7574911   96.2554200   -13.0603000    6.8156990   -52.3971300  -16.7431700   -51.3886400   -6.9761960 
 		     -13.1092700    6.1023170    -0.7357755   95.7630600   -52.0952800  -11.5325600   -55.0932300  -22.9018400
 		     -54.1364100  -22.6795300   -49.7009400   16.5129000    -1.2784650   40.6905300   -22.8340600  -54.4690700
 		     -52.5817800   -7.6874180   -55.2275400  -23.4078700   -22.7939100  -54.7283700    -1.2929220   40.4926400
   36334810000    -0.7749590   96.1270400   -13.1179200    7.8497510   -52.8187000   -2.3291280   -55.7060500    1.7686010 
 		     -13.1028400    7.1803210    -0.7544187   95.8903100   -53.7761800  -29.4849100   -55.1499400   -1.4716140
 		     -53.1534800  -34.0948100   -48.2672800  -88.3954800    -1.3026630   40.2608800   -22.9232800  -55.4100600
 		     -52.8304700  -10.6780100   -69.6413500   10.4234200   -22.9032800  -54.8812100    -1.2925630   40.1261700
   36404800000    -0.7675064   95.9380000   -13.2192500    6.7180510   -54.0078400  -13.4498000   -56.3033000  -20.3797200 
 		     -13.2266900    6.5069980    -0.7768822   95.5798200   -57.9151700   20.3634300   -51.6937900   -6.9399680
 		     -54.7487700  -12.1451300   -51.1677100  -25.3779700    -1.3071290   40.0603800   -22.9132200  -55.5733600
 		     -60.1587600   -6.2773700   -53.5150600  -37.2815800   -22.9090900  -55.7152200    -1.2817250   40.0010100
   36474790000    -0.7595509   95.8259700   -13.1992400    6.2448920   -54.3898900  -12.1653100   -51.2200200   11.9798100 
 		     -13.1998300    6.6629100    -0.7539666   95.3914400   -53.7439600   -5.3412010   -56.8831200   18.0890200
 		     -51.1264000   13.9517900   -53.5435300  -51.1914900    -1.2895650   39.9692400   -22.9998700  -56.0716200
 		     -54.7886200    6.3677890   -51.1010600   17.8461400   -22.9116200  -56.0259700    -1.2863060   39.6281700
   36544780000    -0.8038703   95.6967300   -13.1911500    6.9365980   -52.1919000    5.2311480   -54.9074400  -16.3312000 
 		     -13.1910900    6.6684150    -0.7216748   95.4630700   -54.7097100  -11.6192500   -52.1716900   -7.7133550
 		     -49.0597000  -44.2601100   -56.3996300  -19.4818700    -1.2916860   39.3464300   -22.9346300  -56.9540900
 		     -57.6822200    6.9651680   -53.1196900  -61.1026700   -22.9747600  -57.0147700    -1.3248700   39.4399600
   36614770000    -0.7924920   95.7085500   -13.3519500    6.1977130   -54.5528400   -9.2655970   -58.2337300    4.5604750 
 		     -13.3143400    6.2693960    -0.7548846   95.2535200   -53.4030100  -21.2769000   -57.3207500  -18.5798900
 		     -54.0408600   -9.1189000   -51.3936700   21.7040500    -1.3185460   39.4489300   -22.9949900  -57.1790800
 		     -56.8837800   -2.1817040   -49.0362500  -14.2611600   -23.0390100  -57.1522200    -1.2803460   39.2234900
   36684760000    -0.7631105   95.3486300   -13.3377200    5.4016210   -53.7337900  -28.8772800   -53.7486300  -15.1158400 
 		     -13.3388200    5.5809670    -0.7614260   94.6146700   -53.5409800  -22.2032700   -52.8694500  -16.8594600
 		     -54.3820800   25.6717900   -60.0832800   49.5468300    -1.2891010   39.1225700   -23.1762100  -57.2908400
 		     -51.2799500   17.3391300   -48.4353300   -4.6464400   -23.0480300  -58.3772100    -1.3167020   38.9461500
   36754750000    -0.7748071   95.2832100   -13.1619200    6.0092170   -51.2191600   -6.1333380   -53.0776300    7.5467270 
 		     -13.2120800    5.7779940    -0.7600724   95.0111800   -55.3952600    7.5563230   -51.7920000  -22.9559700
 		     -59.2472900  -57.5137700   -52.6595400   50.0381700    -1.3150070   38.6969100   -23.1607500  -57.7747600
 		     -53.0479900   -8.9463410   -50.1857500   36.2908700   -23.0938200  -58.5444900    -1.3248130   38.8144700
   36824740000    -0.8094272   94.9726900   -13.2308700    6.5448360   -56.0681500   11.0310500   -53.8713800  -15.1742600 
 		     -13.2479700    6.5937610    -0.7790872   94.8910000   -54.4681100    0.7504349   -53.7975400    1.0923980
 		     -49.7408300    0.3547377   -66.7931400    0.2371733    -1.3225110   38.7855900   -23.1875800  -58.2531900
 		     -56.0444200  -22.0533300   -54.3120800  -15.1982600   -23.1294300  -58.4907800    -1.2481040   38.4969600
   36894730000    -0.7591513   94.9307900   -13.4308400    5.8922360   -53.5138900   -0.6841033   -54.0525100   -9.7046670 
 		     -13.3592800    6.0304150    -0.7738193   94.4737100   -55.9439200  -37.2488600   -55.4874300    8.5881010
 		     -48.6168100  -61.6855500   -47.8239500  -13.8604900    -1.2913240   38.2708300   -23.2715500  -58.9632800
 		     -52.0258100  -15.5495700   -54.4789500    6.3272180   -23.2230700  -59.0087100    -1.3195770   38.2702700
   36964720000    -0.7871578   94.6007900   -13.2590600    4.8773930   -54.0929300  -23.8606600   -53.3169900  -23.5221400 
 		     -13.3642300    4.7810850    -0.7725555   94.3846800   -55.6481400   11.3879500   -61.4338400   11.6714000
 		     -49.9250200   -4.8265310   -57.0880800  -37.0095700    -1.3124630   37.8964400   -23.3493100  -59.8927700
 		     -54.1302900  -62.7161500   -54.9490100  -24.9152500   -23.1546300  -59.8375800    -1.3088590   38.1071700
   37034710000    -0.7815453   94.6358300   -13.2782000    5.9278290   -51.2653200  -10.0359000   -58.6837900  -32.7365300 
 		     -13.3201500    5.4406100    -0.6790695   94.1665300   -54.2761200    5.7243290   -54.3882100  -16.4923200
 		     -51.9671200   -6.7168330   -61.4383100  -53.4824200    -1.3080350   38.0490400   -23.3755600  -59.5634000
 		     -49.1362300  -19.3636900   -50.5214200   45.0008200   -23.2831200  -59.6583900    -1.2683630   37.6468700
   37104700000    -0.7796156   94.2943400   -13.3458300    5.7746070   -53.1013800  -14.8225200   -53.1720500  -12.6535200 
 		     -13.4219000    5.4602240    -0.8067317   94.2264900   -54.2198200   -7.0688890   -58.5874200  -10.1287400
 		     -52.0146600  -12.4954200   -49.1716900  -26.5517500    -1.3052300   37.5124500   -23.4387500  -60.0995400
 		     -49.0968300  -19.7886400   -52.0771000   30.3043800   -23.3545300  -60.4139900    -1.3188120   37.5757600
   37174690000    -0.7831192   94.4706000   -13.2288400    5.4830480   -52.7136000   -4.2220520   -54.9201800  -23.6080200 
 		     -13.2784400    5.3696330    -0.7152181   94.3967300   -53.9166100  -13.0688300   -51.2090400   -9.6318320
 		     -53.8554900  -12.9525300   -57.5027400    3.1140420    -1.3233920   37.1359700   -23.4257200  -60.6447100
 		     -52.3034600   -5.4513630   -55.3533500  -37.5186700   -23.4648200  -60.4123000    -1.2910920   37.3637500
   37244680000    -0.7767489   94.1543400   -13.3402400    5.8654230   -52.2768100  -10.7290800   -52.8633300  -20.9196400 
 		     -13.4447100    5.4598900    -0.7030296   93.7603900   -52.2818000   -7.8369620   -55.3075400  -28.5620000
 		     -51.5975800  -17.6810300   -54.5994600  -43.6509600    -1.3233270   37.3028600   -23.4102600  -61.3991900
 		     -56.6176200  -32.1477500   -47.6851000  -34.2742900   -23.4669500  -60.8687900    -1.2571850   36.8401100
   37314670000    -0.7788494   93.7439700   -13.3086900    4.2218150   -51.7690600  -17.7252100   -52.0862000  -15.7056700 
 		     -13.5180700    4.5402660    -0.7960361   93.7018800   -57.6684200  -21.0235700   -50.9775700  -10.9937400
 		     -56.2652400  -27.4839100   -47.9737000   42.6076600    -1.3087100   36.6036500   -23.3469800  -61.3797500
 		     -54.5791900   -9.2874310   -49.5657400    8.3325700   -23.4374400  -60.6342700    -1.3175880   36.8907600
   37384660000    -0.7799088   93.8489400   -13.3182200    4.4458150   -53.8822900   -4.9978210   -55.5502700  -15.3937500 
 		     -13.3161300    4.1503970    -0.7989263   93.7078400   -52.8649600  -10.5617500   -53.5508800  -23.3422900
 		     -56.4673700   13.0282300   -51.1140300    0.2032514    -1.3485310   36.4484700   -23.4648200  -61.5327400
 		     -56.1652000   11.1128400   -55.6025300  -34.8286100   -23.4349100  -61.7381900    -1.2920840   36.6286800
   37454650000    -0.7428594   93.8618700   -13.3714300    4.9693560   -55.4561200    2.0023740   -54.5021000   10.5189600 
 		     -13.3397400    5.4487490    -0.7323589   93.2287900   -55.7440000  -30.2495200   -54.4170000  -51.0131400
 		     -50.0606300   -4.8777260   -50.2911000  -41.6278300    -1.3304400   36.5419000   -23.5280300  -62.5558700
 		     -56.7819400   10.6382700   -49.5514100    0.9909679   -23.5418000  -62.5096300    -1.3073980   36.1526300
   37524640000    -0.8212931   93.5971200   -13.5059100    3.9386830   -52.7314500  -10.1643700   -53.9044200  -25.3931400 
 		     -13.4605300    4.8651420    -0.8072922   93.1328100   -57.5543000   -4.0509330   -55.1540000  -30.1465000
 		     -50.0154300  -14.4307000   -54.0693500   13.5624000    -1.3300730   36.0186600   -23.6942900  -62.8696800
 		     -50.4670900   -7.2112330   -58.4283300  -53.4276800   -23.6711600  -62.2544100    -1.3227060   36.1359000
   37594630000    -0.7756705   93.6929900   -13.3296000    4.3458760   -53.6380800  -15.0378600   -54.5127500  -10.1670800 
 		     -13.4453400    4.3314430    -0.7438396   92.8318400   -53.5271800  -38.4576500   -52.3881700   -2.0857340
 		     -53.4115700  -28.3901100   -50.2240000  -52.2479500    -1.3526700   35.7853100   -23.6662400  -63.1425300
 		     -53.0733200  -13.4242000   -46.8503100  -18.1006100   -23.7012900  -63.1248000    -1.3002740   35.7360000
   37664620000    -0.7887995   93.1458600   -13.4041200    5.1861160   -55.7778500  -30.0639400   -52.7706100  -19.2353500 
 		     -13.4415400    4.2351030    -0.7547319   92.7742000   -55.7453300   15.9189500   -53.5964600    4.2043770
 		     -51.9699100  -33.8897600   -54.3584100   15.5416500    -1.3391350   35.6832000   -23.7168200  -63.6725800
 		     -51.3580700   -5.0866390   -50.9185200    4.8582120   -23.6547800  -63.7579000    -1.3013230   35.4083300
   37734610000    -0.8095348   93.1320600   -13.4869600    4.4104610   -52.4143600  -22.2638000   -57.2022200    8.8663070 
 		     -13.4190600    4.6087270    -0.7951298   92.8288700   -57.1664100  -32.8877100   -51.8961100   -3.1521020
 		     -51.3773500  -26.1945700   -51.6351800  -15.4763200    -1.3224770   35.2108300   -23.7673100  -63.9013300
 		     -52.5261700  -28.7564000   -53.2857400    9.0121210   -23.7000500  -63.8576000    -1.3149540   35.4614700
   37804600000    -0.7467961   93.1303900   -13.3865200    4.1376510   -55.1634600  -19.0103600   -53.8726500  -18.9187000 
 		     -13.4004300    4.0011240    -0.7056754   92.5769100   -53.1670600  -15.4586500   -53.4879100    9.5507260
 		     -55.3520600  -19.7989000   -49.3548800  -19.3680100    -1.3506880   35.1874000   -23.6778100  -64.7822000
 		     -54.3607300  -21.2363900   -53.2031300  -23.1638000   -23.8175200  -64.3921700    -1.2947390   34.9878000
   37874590000    -0.8059884   92.8168900   -13.4385100    4.7286980   -53.5000900  -19.8097100   -53.7076200   -6.0614950 
 		     -13.4497600    4.2467080    -0.7899240   92.3063300   -52.4984000  -15.2975900   -52.4040100    4.8301580
 		     -49.7400700   -6.4838110   -54.3649900    3.4491640    -1.3304770   34.9703100   -23.8312500  -64.2103800
 		     -52.9545900  -32.8305900   -55.2530700   -9.1654250   -23.7963800  -64.8247400    -1.3134730   34.6717100
   37944580000    -0.8047360   92.9466300   -13.4943100    4.5813290   -55.2103200  -11.8170800   -51.8631000  -10.3039200 
 		     -13.5479500    3.6536160    -0.8023468   92.3268200   -54.8721000    1.8613640   -54.2261100    6.3820860
 		     -54.8354500  -15.1020500   -70.5527800 -108.1301000    -1.3344860   34.4088700   -23.9028200  -64.2129400
 		     -62.9391600    5.9076360   -50.3995600  -14.1134900   -23.7632300  -65.5042600    -1.3108670   34.6202200
   38014570000    -0.7721510   92.5286900   -13.4539700    4.0053720   -53.0696300  -12.3621500   -54.4107500  -13.8422500 
 		     -13.5106900    3.7285970    -0.7439582   91.9935400   -54.2696800   -5.4612500   -53.5932800  -11.9121800
 		     -55.2904300  -29.6100100   -59.4579000   63.9513000    -1.3677320   34.3477500   -23.8728200  -65.2229900
 		     -66.3757600  -53.2956400   -55.2835900  -28.3821900   -23.7392000  -65.0221900    -1.3042130   34.1050300
   38084560000    -0.7860734   92.5094700   -13.4108800    4.0591380   -53.5635000   -8.9398980   -55.1688800  -11.5855200 
 		     -13.3984400    3.7046820    -0.7281322   92.0533500   -56.0299100  -23.8130400   -54.6881000  -21.3476700
 		     -56.4933900   -7.1364200   -56.6790200  -41.0013900    -1.3285820   34.1033600   -23.8415700  -65.6433000
 		     -51.1803200   23.9616100   -50.0315000  -15.3470400   -23.8717100  -66.5037100    -1.3177880   33.9076600
   38154550000    -0.7834860   92.5227500   -13.4937100    3.1517330   -53.7890800  -13.6051700   -53.1073600   -6.4044390 
 		     -13.5986500    3.7717050    -0.7256189   91.7974800   -52.7943400   -1.1410130   -53.3342400    3.4354490
 		     -54.2132600  -11.9067900   -54.0549500  -32.6126000    -1.3427640   33.6793700   -23.8486100  -65.9894600
 		     -53.6652000   -7.8072210   -51.8663700  -40.6813900   -23.8685600  -66.1073500    -1.2895920   33.7590000
   38224540000    -0.7614565   92.1190100   -13.5143000    3.0750180   -52.5140800   -7.0159410   -57.9670500    4.5341620 
 		     -13.5457500    4.6564690    -0.7179052   91.9192400   -52.2463200   -0.3106955   -60.3431000  -29.2236300
 		     -51.3008200  -12.1186700   -54.0278200   28.1709300    -1.3619430   33.5428000   -23.9128300  -66.7655600
 		     -56.5738000  -19.9847800   -46.8224500   -3.6826410   -23.8102600  -66.5113500    -1.2989840   33.3320800
   38294530000    -0.7997220   91.8883700   -13.5037100    3.3745990   -49.8884900  -38.9629700   -57.7431900    3.5930200 
 		     -13.5780900    3.2804320    -0.7680318   91.8437300   -56.4813400    3.4339270   -50.6167700  -37.6703300
 		     -51.3967700  -25.0158700   -50.4785900  -32.7623100    -1.3255880   33.2604700   -24.0209800  -67.3049600
 		     -66.7741500   19.0633700   -55.4589800  -37.9163400   -24.0041600  -66.8399400    -1.3253460   33.0523800
   38364520000    -0.7615530   91.9269000   -13.4237800    3.4403640   -53.6569400  -10.5411700   -53.4922600   -3.1511480 
 		     -13.4752100    3.5137240    -0.6932738   91.5316800   -57.9340200   23.0410300   -56.0166600   -7.3303330
 		     -53.9544600  -21.8483600   -50.7752500   -9.6198080    -1.3520470   32.9701600   -23.8107900  -68.0136000
 		     -51.8463300   -9.9709230   -51.0446100  -27.2399900   -23.9741700  -67.4738500    -1.2991910   32.8640800
   38434510000    -0.7497252   91.6803800   -13.5570200    3.0803750   -53.0867200  -35.7408800   -58.5164900   -1.1669770 
 		     -13.5621300    2.8336660    -0.7259539   91.3104900   -51.9289400  -27.3388700   -52.6442000  -18.1231800
 		     -55.4381900  -18.0109900   -49.1935300   34.0214000    -1.3407160   32.6560400   -23.9179500  -68.3677100
 		     -52.7272500   -6.1932210   -54.7862200  -11.4174000   -24.0743700  -68.7551000    -1.3207780   32.5389300
   38504500000    -0.7758308   91.6832000   -13.4937400    2.5364070   -53.8168300  -17.7143800   -54.1358500    2.2545530 
 		     -13.5902900    2.3694620    -0.7449930   91.4156900   -54.8954300  -18.3795700   -52.1609100   -7.1823580
 		     -51.6077500  -20.2743400   -60.6734200   47.4169300    -1.3291730   32.3677700   -24.0175300  -68.6567100
 		     -61.5578200   -0.7875847   -55.3699700   22.2874700   -24.1575700  -68.8002500    -1.3153890   32.4439300
   38574490000    -0.7689497   91.5207300   -13.5042500    2.6927620   -56.5579000  -11.6718400   -57.9608500  -24.7064600 
 		     -13.5601700    2.6530270    -0.6798683   90.6692700   -54.5449100    0.9970305   -57.1336300    6.6009660
 		     -51.7615500  -23.5665300   -55.1195700   49.0844800    -1.3629530   32.1373400   -23.9349500  -68.5871700
 		     -49.3590000  -11.1644300   -49.2909300   34.6256000   -24.0610500  -69.7654100    -1.3090990   32.0210800
   38644480000    -0.7667540   91.2532200   -13.6964000    3.1056530   -52.6643700  -29.3825000   -53.3077200   14.5815300 
 		     -13.7046600    3.9033880    -0.7106400   91.3848700   -54.7948800  -18.7828200   -53.2700300  -34.5901400
 		     -58.1045700    9.1207150   -65.4916500  -69.0565500    -1.3527650   31.8219200   -23.9157300  -69.8251300
 		     -56.7194600    7.5537600   -56.7335500  -17.2378500   -24.0435400  -69.3353100    -1.3345410   31.8791800
   38714470000    -0.7533886   91.2141500   -13.4997000    1.5654720   -52.9101200   -1.8927710   -51.9827300  -15.2246200 
 		     -13.5371300    2.0461680    -0.6648853   90.9730600   -59.0519600   10.1225400   -52.7940700   -1.4048880
 		     -54.2314900    6.5764650   -62.2018400   22.0031500    -1.3524820   31.6911900   -24.1003300  -70.1274300
 		     -49.1932100    1.0881700   -66.5034800  -41.9567200   -24.1070400  -69.8129600    -1.3128020   31.6787400
   38784460000    -0.7523715   91.1368500   -13.6117800    1.6011250   -52.4081400    8.4833980   -52.3171700   10.8574100 
 		     -13.6357900    2.3699860    -0.7080209   90.4497900   -53.7131700  -20.9913100   -51.8618000  -44.7079100
 		     -54.3823600  -20.3773200   -52.0987700  -21.5020800    -1.3719220   31.3992500   -24.1220500  -70.4780200
 		     -55.3437800   17.0846600   -47.9992500  -12.3706700   -23.9821900  -71.4084300    -1.3228480   31.0999700
   38854450000    -0.7733794   90.8650500   -13.7484800    2.4535240   -52.7214200  -22.1515900   -55.1241900  -13.7170600 
 		     -13.6690100    1.9195860    -0.7794834   90.2513900   -57.2374100  -49.5543400   -56.9093500   22.6766700
 		     -53.7392100  -15.8413300   -52.4757500   -3.0584250    -1.3514080   30.8254100   -24.1155400  -71.1647500
 		     -54.1462300   14.4028400   -50.5000500   -4.6353920   -24.0724800  -70.6984600    -1.3378050   31.1899000
   38924440000    -0.8093614   90.5355100   -13.6700400    1.0061080   -51.2713400    3.0396020   -54.3901000   -4.3149940 
 		     -13.6222900    1.6407360    -0.7730246   90.5754700   -55.5223000  -32.1855300   -52.6299400   11.0039000
 		     -50.6739800   -0.3330639   -53.6128200   32.9499900    -1.3621660   30.8631000   -24.0247200  -71.4549900
 		     -53.4408600  -12.9174700   -55.8045600  -20.5390900   -24.1092800  -71.2803300    -1.3079760   30.7092300
   38994430000    -0.7735235   90.4591900   -13.7048500    1.8419010   -53.4290300    1.5242020   -51.1878900  -13.7834800 
 		     -13.7322000    1.5133260    -0.7551514   89.7921800   -51.0541500   -8.4730260   -49.0474500    4.8072900
 		     -53.0892600   -8.5434470   -59.5878900  -67.1536900    -1.3652050   30.7285800   -24.1114900  -71.8591100
 		     -51.3708100  -46.9720700   -50.6602400   22.1258300   -24.1992400  -72.2048600    -1.3751890   30.3499400
   39064420000    -0.8094630   90.3081200   -13.7139600    1.0818220   -55.4414600  -30.5579200   -54.7607700  -32.1621300 
 		     -13.7624600    1.1402170    -0.8025747   89.7800300   -56.1403200   22.3719700   -50.4561100  -29.7022000
 		     -52.8184300  -47.6142600   -49.4640800    5.2678020    -1.3961300   30.1571700   -24.1274500  -72.0989800
 		     -56.8269700   18.1849000   -58.4441100  -11.4199400   -24.0398500  -71.8348100    -1.3342110   30.6541900
   39134410000    -0.7967579   90.1365400   -13.8467600    1.0244720   -51.9734300   16.4728500   -52.2263100   -8.7595350 
 		     -13.7356400    1.3671840    -0.7877790   90.0472000   -53.5472500    3.0076310   -60.3287900  -60.8943400
 		     -49.0414700    7.8586090   -53.1031000  -47.2015100    -1.3920870   30.1585700   -24.3707900  -73.1360400
 		     -55.6554300  -20.7713000   -48.3087800    6.9748570   -24.1596000  -73.3867000    -1.3150810   29.9860100
   39204400000    -0.7436571   90.0873000   -13.8145900    1.8504510   -51.7578400    7.3165990   -51.8388700    1.7447380 
 		     -13.8007900    0.9527705    -0.7827318   89.2823200   -55.4737700   -9.2311010   -50.5400000  -27.1859600
 		     -51.9413000  -32.7060700   -46.4644800   -3.3347640    -1.3565190   29.7821800   -24.0670600  -73.2731200
 		     -51.0216800   12.6751400   -55.9694300  -17.0840200   -24.1534600  -73.5173800    -1.3731190   29.7693100
   39274390000    -0.7826518   90.0006000   -13.8417300    0.4873252   -54.3294000    0.6123112   -53.0394200   10.8348600 
 		     -13.8371000    1.0012410    -0.7844357   89.7212500   -56.3889300    3.7367750   -54.4842100  -20.2528500
 		     -51.1134200  -36.8933800   -65.9824700 -137.3389000    -1.4183660   29.5038400   -24.2316000  -73.4789700
 		     -54.0724500   -2.6237310   -56.5702700   56.6480800   -24.3202200  -74.0365400    -1.3202880   29.7763700
   39344380000    -0.8015406   89.9198800   -13.8026700    0.6826932   -53.3337100  -19.1773100   -53.3330800  -30.5097600 
 		     -13.8574800    1.0950360    -0.7382941   89.3516800   -58.1529300  -38.5689300   -53.9727400    3.2470330
 		     -55.2751700  -14.0891200   -53.7456900  -14.7313200    -1.3801780   29.4285700   -24.2089800  -73.7344700
 		     -52.2664500  -19.6771500   -53.9241900   21.0321400   -24.1376700  -74.2327300    -1.3402590   29.3914000
   39414370000    -0.7892630   89.8523000   -13.7390600    1.1267860   -50.6852300    0.9372668   -50.3835300  -14.0925200 
 		     -13.7957200    1.0879320    -0.7606428   88.9206000   -52.1561500   22.8712300   -50.0215300  -26.0674300
 		     -48.5440400  -22.4120200   -54.3477800  -76.4820600    -1.3653620   29.0208600   -24.2024200  -75.6577500
 		     -52.7755200   15.9872800   -53.4980400   28.0915000   -24.2557600  -74.5201600    -1.3589700   29.2634300
   39484360000    -0.7750683   89.4074600   -13.7379800    1.7454170   -53.7249000  -10.7431400   -52.6867000   -1.0041330 
 		     -13.8475400    0.8635280    -0.6945357   89.1481300   -55.9601400   -8.2350700   -59.9351900  -68.7917300
 		     -52.8476000  -10.1296400   -59.0317300  -43.1350100    -1.4066480   28.8133400   -24.0767700  -75.7948600
 		     -54.2499300   -2.7654630   -46.5622700  -12.7357200   -24.3316900  -76.7212200    -1.3142600   28.7976700
   39554350000    -0.8093249   89.5688300   -13.7476900    1.4249220   -51.1225900  -33.9089700   -53.1601000  -14.5195600 
 		     -13.8664700    1.1977930    -0.7250808   89.1071800   -52.7727900  -26.7931700   -54.0823200   10.4586400
 		     -54.7141800  -13.2391500   -58.4321800  -35.3662500    -1.3832770   28.6351700   -24.2553500  -75.2981900
 		     -54.5650500  -50.9468900   -49.3000300 -157.1514000   -24.2224700  -75.0175200    -1.3723590   28.5410900
   39624340000    -0.8044208   89.3523100   -13.9670100   -0.4375804   -52.3657800   13.1926800   -52.4812700  -28.8153600 
 		     -13.8560100    0.1729120    -0.7416929   88.8365600   -54.4934700   19.6708700   -53.3914500  -36.5587000
 		     -49.0759500  -48.5447400   -50.4902700  -26.7343300    -1.3778750   28.3442500   -24.2952100  -75.5671200
 		     -50.2817800   -9.9383880   -51.4827200   56.1112600   -24.2231400  -76.5639400    -1.3489090   28.4506500
   39694330000    -0.7364664   88.7641700   -13.8875100   -0.1192208   -53.1080800  -36.7709300   -59.5891700  -40.6196000 
 		     -13.8300300    0.6904074    -0.7386667   88.4469000   -51.5829300    1.8386000   -50.1591500   20.3534000
 		     -62.3430600  -30.5479000   -55.3611900  -78.7747600    -1.4246010   28.1781000   -23.9348800  -77.3355600
 		     -52.8678700   17.9332800   -51.5171100  -55.6235300   -24.0668500  -77.2575100    -1.3396800   28.1348000
   39764320000    -0.7752060   88.8327700   -13.9679100    1.1352430   -51.2090100    5.2424370   -53.8450800  -22.9253700 
 		     -13.9121900    0.7556314    -0.7990971   88.8631300   -55.1299500  -22.0227200   -56.7502100  -23.2164200
 		     -54.3057600   33.2571700   -54.8797000  -87.8843700    -1.3654830   27.8712900   -24.2803600  -76.4750100
 		     -52.5515400  -80.0495300   -58.4310000   87.0515100   -24.1390600  -77.2551800    -1.3587760   27.9881000
   39834310000    -0.7732192   88.6937300   -13.9243000    0.8869680   -52.8632000   15.9494700   -54.7480300   20.6959500 
 		     -13.9525500    0.1490509    -0.7727057   88.6996400   -52.0897700   -9.4906710   -56.3731300   -4.3756010
 		     -46.9697400  -25.8381500   -55.0677900   95.4916100    -1.3801730   27.5435300   -24.3781700  -76.7939600
 		     -64.6761300  157.6429000   -59.0510500  -95.9420600   -24.1729200  -78.2924000    -1.3377870   27.7176900
   39904300000    -0.7759472   88.4515500   -13.9164900   -0.1112045   -51.4968500  -22.4175000   -59.6506500   -5.8413160 
 		     -13.8681400    0.8011327    -0.7203717   88.3570300   -53.4378700  -17.3109000   -54.1239500  -19.4877900
 		     -57.0245300   -5.6171100   -51.8481400   -4.3243740    -1.4158100   27.4723900   -24.0999600  -78.1968000
 		     -61.4049900   -2.1415570   -53.4794400  -43.2582900   -24.2311400  -78.2551700    -1.3334590   27.0924500
   39974290000    -0.8206903   88.3504600   -13.7960500   -0.0771980   -51.8686200  -29.3352700   -56.2329600   -1.4152900 
 		     -13.9438700    0.6070695    -0.7384319   88.0779000   -60.7157400  -24.7548100   -54.7427400    7.2569130
 		     -55.6403200  -41.9771800   -54.0708400  -10.0984000    -1.3731060   27.0118000   -24.1751500  -79.1096800
 		     -48.7020300   -4.7651770   -53.2876700   36.2709200   -24.1873300  -78.2041600    -1.3532850   27.2828800
   40044280000    -0.8035021   88.5474500   -13.9186100    0.5770513   -51.6403400  -24.3806400   -56.0292600   68.2989600 
 		     -13.9787400   -0.0252144    -0.7827070   88.0207900   -54.8964700  -15.4106300   -51.4590400  -22.5554700
 		     -44.6760700  -27.8912800   -60.4976300   17.2217900    -1.3862620   26.8145200   -24.1518400  -80.0689800
 		     -48.1555300  -16.7364700   -57.1168100   37.2583200   -23.9956900  -78.2520800    -1.3411730   26.8352200
   40114270000    -0.7785057   87.7387500   -13.7772800   -0.2007021   -49.6209700  -28.8068600   -52.1093700  -20.8880300 
 		     -13.6711800    0.1153786    -0.6580343   87.7624400   -54.0032500  -14.0020600   -70.5985300  152.1669000
 		     -53.3345800  -17.7501500   -58.3966300   88.0173400    -1.3957890   26.5936400   -24.1854900  -79.1191600
 		     -52.6223700    2.0442700   -49.0170500   -4.0261580   -24.3220400  -79.6043200    -1.3703620   26.3375900
   40184260000    -0.7431982   87.7821000   -14.0509100   -0.8214306   -58.0125000  -30.6036100   -51.1933500   12.0442400 
 		     -14.0979200   -0.0040216    -0.8296024   88.1847800   -50.7722000   14.1439000   -53.2875900  -11.7372500
 		     -59.6147700  109.1539000   -45.4624400   27.4139200    -1.3841760   26.2388100   -24.1635100  -79.5790300
 		     -55.7920000  -78.3763700   -47.9847000  -26.5572200   -24.2533600  -80.6358500    -1.3291350   26.5747200
   40254250000    -0.7852136   87.9130700   -13.8822400   -0.4961467   -57.2390400   -5.5925690   -49.1911700   16.7812000 
 		     -14.0002200    0.5627201    -0.7392040   87.7221500   -66.6779400  -55.5892000   -52.0902300   -5.8621820
 		     -47.5596100   -4.3212670   -50.8497200   14.1438100    -1.4158480   26.0100600   -24.1890100  -80.9291000
 		     -58.5239300   32.7695200   -45.3874700  -31.9402000   -24.2855900  -81.0258700    -1.3459390   26.1081900
   40324240000    -0.7843638   87.4065400   -14.1699000   -0.2290929   -52.1199400   -0.5120634   -77.4278700   13.4143900 
 		     -14.0765500   -0.5117092    -0.7333347   87.7852600   -54.2287100   26.0652800   -48.6110400  -57.4356300
 		     -45.8655500   35.6990500   -46.5924500  -12.8249300    -1.4229930   25.7936900   -24.1171400  -82.4502000
 		     -52.2357900  -67.6320800   -45.0934800  -25.1853500   -24.4022900  -81.4290500    -1.3294170   25.7816500
   40394230000    -0.7984651   87.7093100   -13.9928900   -0.7559996   -58.6625100  -49.8722900   -51.3835300  -13.7143000 
 		     -13.8890700   -1.0549240    -0.7283729   87.4906800   -84.9783700 -176.1820000   -49.9289100  -11.8986900
 		     -49.5665400  -23.5539200   -54.1615500   95.5215800    -1.3970450   25.4613400   -24.2141900  -81.8146100
 		     -47.5566800  -38.0769500   -51.0664600  149.4942000   -24.2703200  -81.9978500    -1.3333710   25.7950600
   40464220000    -0.7166017   87.5004700   -13.9349700   -0.7227347   -53.3994100  -11.1170200   -51.5904200   30.1625500 
 		     -14.0027100   -0.3053533    -0.7117215   86.9204700   -58.3282200  -10.7599700   -54.9487300   17.2969200
 		     -52.7257700  -16.3232800   -50.5145700  117.2677000    -1.4389620   25.3014300   -24.4142700  -83.2387500
 		     -50.4420900   21.5389600   -52.8838700  -99.8876400   -24.1848300  -82.5075200    -1.3421470   24.9718500
   40534210000    -0.7867817   87.4012100   -14.1683600    0.1496150   -52.4242500  -26.1798200   -53.5272700  -11.3957500 
 		     -14.1517800   -1.0024550    -0.7480524   86.5752000   -55.7030400   33.4379300   -55.6524800   -1.9918670
 		     -55.9345300  -33.2748800   -50.0309800  -31.8193400    -1.4288000   25.0452500   -24.3249800  -83.9859800
 		     -49.6080200  -11.9289200   -69.5208100   11.7009100   -24.2996600  -84.2776900    -1.3859130   24.8240400
   40604200000    -0.8171172   87.2852900   -13.9382800    0.2639961   -52.6178800  -41.4342400   -54.6994700  -23.0675500 
 		     -14.1121000   -0.7587289    -0.7531420   87.0147800   -57.3153500  -36.5599700   -51.2649500  -15.2077000
 		     -56.4516100  -72.1950700   -49.7450100  125.7561000    -1.3946790   24.7050900   -24.1740800  -83.1876400
 		     -50.9117200  -69.2691700   -51.7659200   -7.4850740   -24.0110900  -82.6507700    -1.3369460   24.7734100
   40674190000    -0.7189623   86.8616900   -13.9088400   -0.3099157   -55.4321600  -20.5336200   -52.9043400  -38.8154800 
 		     -13.9329500   -0.6482859    -0.6622481   86.6950200   -50.9591000   20.4099900   -56.2133700  -15.5174200
 		     -53.4893800  -13.2276600   -52.3448900  -81.4566500    -1.4223910   24.5089400   -24.1169000  -84.5510300
 		     -50.5362700  -32.1192200   -51.2780900  -59.4080000   -24.2273600  -85.3367000    -1.3327430   24.1826200
   40744180000    -0.7789773   86.7043100   -14.1306500   -1.1882590   -56.4854700  -18.4161200   -54.8895600  -12.8553700 
 		     -14.1286900    0.1405560    -0.7053855   86.4923600   -52.5121100   -8.0947100   -50.4552400  -18.4772700
 		     -59.4984100 -105.7346000   -70.1811100   41.0066200    -1.4265800   24.3417500   -24.1394700  -85.5646100
 		     -58.0973000    9.6926090   -53.4875900   43.6902600   -24.0755900  -84.7740900    -1.3602020   24.2442900
   40814170000    -0.7721937   87.1171200   -13.9218700   -1.0451910   -50.8012000    0.4935279   -54.3463700    8.3429860 
 		     -14.0164100   -1.7383830    -0.7213939   86.6496000   -55.7942000  -56.6953100   -61.6300300   37.2260700
 		     -55.2814300  -15.7238200   -53.5820000  -26.7913600    -1.4314020   23.7817400   -24.2559100  -85.3102700
 		     -73.6714600 -125.0763000   -49.5498500   15.4629800   -24.0942200  -85.6649600    -1.3307390   24.0320600
   40884160000    -0.7725471   86.4740700   -13.9961200   -1.9249610   -56.1394900   -8.0371510   -53.4560500  -21.2858800 
 		     -14.0211600   -1.6169250    -0.7098209   86.0541500   -50.3581300  -11.9689900   -51.4117900   11.0774700
 		     -55.2006200   11.5425900   -47.2373200  -21.5161200    -1.4286700   23.6427900   -24.1038100  -86.2545300
 		     -49.2072100  -54.5119600   -52.1856900  -30.0964700   -24.0958400  -86.4144100    -1.3549500   23.3018900
   40954150000    -0.7893468   86.2755300   -14.1510200   -2.1650270   -52.2044800  -48.9664400   -52.8591200   -4.8259880 
 		     -14.1696800   -1.6747480    -0.7001103   85.6076700   -52.1555400   44.3470100   -52.0733200   11.5901300
 		     -50.6350400  -42.9841400   -54.6272400  -26.5799900    -1.4196120   23.4480200   -24.1156200  -86.1625400
 		     -53.0002900    0.7241978   -55.7302300  -32.8723800   -24.0813600  -85.8580100    -1.3691420   23.1304200
   41024140000    -0.7714596   86.4903100   -14.0061600   -1.7109990   -51.5337000    5.8234850   -55.4196600   15.1362800 
 		     -14.0007200   -1.9491470    -0.7306262   86.0558000   -59.3172500   21.7054100   -59.3319700  -30.6522500
 		     -52.2613200  -10.3885400   -44.4200500  -27.0754900    -1.4406210   23.0510000   -24.2926300  -86.0503900
 		     -49.9831900  -21.6457200   -59.9181900   50.3808900   -24.0464300  -85.9354200    -1.3310410   23.0447000
   41094130000    -0.7519403   86.3210100   -14.0671400   -1.6435120   -52.6508100   -3.1161980   -49.2678200  -27.6708900 
 		     -14.0595200   -1.7383940    -0.7283885   85.5129800   -56.3401800   -1.2070820   -49.1267200   -6.1506040
 		     -51.3866800   -5.1315960   -51.4092300   48.9522900    -1.4576080   22.8831900   -24.1029200  -86.3527300
 		     -50.2641200   39.0435900   -47.1756500   -1.8290550   -24.0033900  -87.5271000    -1.3572270   22.5797600
   41164120000    -0.7650245   85.9453700   -14.0373900   -2.8509560   -55.3737400  -17.6752500   -50.0352900   12.2452400 
 		     -14.1429900   -3.4362230    -0.7918595   85.1919600   -59.2206000  -50.8607400   -50.0670200  -21.8338000
 		     -56.6889200  -44.8026500   -64.7869900  -95.2544900    -1.4254430   22.5577500   -24.2460600  -87.9531700
 		     -50.1485900  -25.8974700   -50.4667100   -3.4264640   -24.1211900  -88.6062900    -1.3635890   22.3358500
   41234110000    -0.7635179   85.8498500   -14.1399800   -3.2755880   -51.7682700   -9.8622640   -52.7276300  -10.1299200 
 		     -14.1104000   -3.0538640    -0.6361806   85.5761000   -54.5212200  -32.7848400   -51.1213400  -12.4871200
 		     -51.7264700    3.0722320   -44.2027700  -31.2175400    -1.4639690   22.2407600   -24.2411300  -89.0391200
 		     -52.5527000  -70.9392700   -47.1518300 -157.9905000   -24.2032700  -88.3475900    -1.3679020   22.1559800
   41304100000    -0.8138121   85.5709800   -14.2079100   -3.5916010   -52.8596300    1.5797420   -56.2179600  -10.6608500 
 		     -14.1620600   -3.4125020    -0.7152836   85.0672400   -52.1805300   11.0942800   -49.8664100  -19.5244300
 		     -56.3053900   21.2247800   -44.3003700  -47.2830400    -1.4613650   21.9039800   -24.1947000  -88.7484200
 		     -58.5343100   -3.0606480   -60.3865300   81.6515400   -24.3090400  -89.4634600    -1.3756770   21.7908300
   41374090000    -0.7924696   85.7009600   -14.1095600   -2.5212980   -53.4197500   -8.8422460   -58.3988400  -54.7568900 
 		     -14.2612400   -2.2003260    -0.7770807   85.0197800   -51.3323400   -8.1656840   -55.4888200   17.3258100
 		     -52.1795500    3.6267050   -60.2762800   86.2846800    -1.4462390   21.7740400   -24.1898100  -89.4678300
 		     -53.1829100   26.7003400   -48.6358800  -20.9168100   -24.1103000  -89.6110600    -1.3812460   21.6891600
   41444080000    -0.7619994   85.4394700   -14.2974700   -3.3601350   -53.3486000    5.5588960   -52.9403700  -35.0580100 
 		     -14.3942700   -3.2445120    -0.8577914   85.1919100   -55.5109200   21.4826400   -56.9864500  -49.1434900
 		     -47.3752000  -50.9815700   -58.3768400  -23.3692400    -1.4452300   21.4803800   -24.2075900  -90.0150900
 		     -54.9269200   57.6344200   -51.4466100  115.7786000   -24.3345700  -90.3035300    -1.3817230   21.4400200
   41514070000    -0.7097172   85.4131500   -14.2111600   -3.3124370   -52.8595000  -27.2963600   -51.9006700   -9.2115000 
 		     -14.1060600   -3.2367730    -0.7408763   84.7963900   -61.3232100   70.0202300   -49.2599100  -21.8673700
 		     -46.0637900   26.9788900   -49.3177200   35.2036400    -1.4720390   21.1989700   -24.1360100  -88.9526500
 		     -50.6405100  -38.5874700   -50.7328300  -22.1311800   -24.3309400  -90.7051500    -1.3750040   21.1217700
   41584060000    -0.7693434   85.4298200   -14.1520500   -3.1779740   -54.7700500  -41.8817600   -52.9097000  -10.0939100 
 		     -14.1929300   -2.7496980    -0.7055634   84.6072800   -54.0041000   -3.7075420   -50.4964300  -16.5379000
 		     -53.3466600   30.8057000   -49.0911800   25.6041200    -1.4595990   21.0522700   -23.9812700  -90.3624800
 		     -56.2648700  -15.8456900   -51.9359900  -73.5394200   -24.1481900  -90.9830200    -1.4205910   20.8092200
   41654050000    -0.7979690   84.8512300   -14.4120900   -4.5136320   -55.6057900  -22.3244000   -51.0613400    2.7829000 
 		     -14.4006300   -3.9419340    -0.8036000   84.8114200   -55.1360600   -3.1684840   -57.7498200   12.7297400
 		     -54.7531600  -39.4295300   -49.3774500   83.0670000    -1.4715160   20.6644300   -24.0696500  -92.8968900
 		     -51.3076100  -13.4618500   -46.3363800  -45.5878000   -24.0311500  -90.8142900    -1.3982610   20.7278500
   41724040000    -0.7832544   84.7932500   -14.3566900   -4.1200040   -53.7046800    0.1977649   -50.9423000  -45.6615200 
 		     -14.3057800   -4.6486340    -0.8682262   83.8103600   -57.6041300  -13.1006400   -52.4985300   34.1891700
 		     -46.9378900   18.6292300   -52.3882300   23.3353700    -1.4916150   20.3537400   -23.9587900  -91.5720100
 		     -45.2610200   -2.9530940   -48.0257500  -19.1230800   -23.9870000  -92.5243500    -1.4139460   20.2535600
   41794030000    -0.8222215   84.3434400   -14.3355000   -3.8068530   -55.0231900  -10.3717900   -51.7850700  -10.6862100 
 		     -14.3673300   -4.0855360    -0.7430765   84.2761100   -57.5868100  -35.3353300   -49.7089300  -11.7488400
 		     -58.4344600  -33.5691400   -45.7682200   61.1988800    -1.4975320   20.4046600   -23.8555100  -92.3154500
 		     -56.6999600  -49.0534400   -43.8247200  -62.5480800   -24.1118300  -93.2681500    -1.4393420   19.9960200
   41864020000    -0.7782186   84.1396500   -14.4562600   -4.4883740   -53.7920000  -26.5985300   -49.4866700  -12.3157800 
 		     -14.4914300   -4.8446950    -0.8014130   83.7231000   -55.1378200  -23.7282200   -59.3569900   63.0576600
 		     -63.4525400  -86.3038800   -52.8726100   68.9618100    -1.4753170   20.0142100   -24.1399300  -93.3494600
 		     -50.7366300   11.4924000   -46.2015300   61.3906000   -24.0404800  -92.9183900    -1.4108470   20.1526500
   41934010000    -0.8283366   84.1024800   -14.3055700   -4.9907240   -47.2085200    2.5340610   -50.9028200  -51.7647300 
 		     -14.3948100   -3.9557340    -0.7936258   84.1871900   -54.8056600  -82.2358600   -52.3956000  -32.3141600
 		     -57.7809800  -24.5927500   -49.3626800  -59.3316200    -1.5145030   19.6119600   -24.2237300  -93.5172700
 		     -56.5083400  -44.1814200   -54.7569700  -96.1486300   -24.1344300  -94.4961200    -1.4208960   19.5442600
   42004000000    -0.8187279   83.6379200   -14.1939200   -4.0224090   -54.7348200  -50.3029100   -53.7017300    6.9267640 
 		     -14.5739300   -4.4868730    -0.7127911   83.4924500   -55.8488200  -16.0603000   -51.6941600  -11.7304600
 		     -49.1709400  -13.7485600   -48.2975700  -31.6756600    -1.5159580   19.4890600   -24.0382600  -93.8976400
 		     -60.2899700   16.5793500   -51.9271300  -23.7233800   -24.1726600  -93.5145600    -1.4676280   19.2051300
   42073990000    -0.8343804   83.9978300   -14.4992000   -4.6921470   -50.3790700   12.9560600   -62.7732700  -37.1484000 
 		     -14.7175300   -3.7986570    -0.8417085   83.3721600   -51.5612800    4.7168510   -53.1924700  -25.9313600
 		     -52.8539500  -25.7561800   -48.2846900   10.1786800    -1.4579020   19.0552200   -24.3627500  -94.0623900
 		     -52.8497100   -9.7333330   -60.5413800   49.7496100   -23.9460300  -93.7045700    -1.4058220   19.4739100
   42143980000    -0.8118856   83.6209300   -14.6286100   -5.1248180   -50.4724800  -56.3268900   -53.0192300  -12.7858600 
 		     -14.5378500   -4.7426760    -0.7895930   83.5371400   -50.8654700  -25.7183200   -48.3889000  -11.0397700
 		     -51.8875700  -36.2748000   -44.5185900   -5.7444040    -1.5576680   18.9234300   -24.3284800  -95.8460800
 		     -59.1188400   19.9455600   -58.1851600   25.3772300   -24.1225900  -94.4356700    -1.4144180   18.4032600
   42213970000    -0.8501887   83.4971700   -14.4489400   -5.3556330   -50.7581300    6.4828070   -51.2918400   -8.2188270 
 		     -14.5875300   -5.0913310    -0.8443431   83.0281300   -56.1727600   56.7701600   -52.1641800   12.9387500
 		     -56.3438800  -55.8981600   -52.3466100  -31.6460900    -1.5044650   18.9169200   -24.1931800  -95.8879000
 		     -57.1343200  -99.6121400   -54.4554900 -131.2101000   -24.1103700  -96.3914000    -1.4719490   18.5102800
   42283960000    -0.8109679   83.4089900   -14.5217100   -6.2161520   -51.0960600  -10.6906200   -54.0187400  -10.9535200 
 		     -14.6520600   -5.9675870    -0.7652103   83.1067300   -54.0384100   10.8073600   -51.8193100  -10.4774700
 		     -51.1807800  -45.0467800   -47.4170400 -117.0168000    -1.4843670   18.3697400   -23.9250900  -95.6781000
 		     -58.9403800   60.7724500   -49.3241600   54.5952800   -23.9825000  -95.4593600    -1.4019820   18.6895600
   42353950000    -0.8144822   83.5038700   -14.7116500   -5.3063270   -51.2773200    7.0825290   -51.5079300    9.0638960 
 		     -14.6417900   -5.6313300    -0.7631797   83.2696700   -50.8568200  -23.1253100   -55.4304500    9.0926580
 		     -44.7377500   14.0748100   -57.6415900   76.8824500    -1.5588710   18.1390700   -23.8938600  -95.0742500
 		     -54.1524700    0.3912685   -56.3987700  166.2789000   -24.1337400  -95.7656300    -1.4448530   17.6929200
   42423940000    -0.8620114   82.8062300   -14.5549500   -5.6264870   -52.6113500    3.3662740   -50.9345800  -34.5864900 
 		     -14.5488800   -4.9270040    -0.7809438   83.5695100   -53.4064700   -6.2765770   -58.3037100  -36.2530900
 		     -45.7936100  -34.3354000   -49.1950800   -7.0824310    -1.5116520   18.2936800   -24.1026300  -96.2673700
 		     -61.8057900   63.4705500   -46.5259100  -55.2799700   -23.9869400  -96.5848800    -1.4580760   17.9093200
   42493930000    -0.8410144   83.1135500   -14.6269400   -4.0675440   -55.0103300   10.3064700   -51.3961100  -32.8440700 
 		     -14.5383100   -4.7925360    -0.6626862   82.6405600   -55.2103800  -12.2921000   -54.6285500  -11.2821800
 		     -50.7742700  -23.0669900   -50.7806400   31.6044300    -1.5008910   17.5475600   -23.8509800  -95.7003400
 		     -50.2814300  -31.6596500   -47.6742900  -31.6412000   -23.9941300  -96.7530500    -1.3711830   17.8338800
   42563920000    -0.8287379   82.9409900   -14.7462400   -5.9233630   -56.4663000   15.7177600   -55.3132600   -7.6419790 
 		     -14.6815100   -5.8366120    -0.7390769   82.5446800   -51.7385500    4.0577800   -50.7056500   -3.9630580
 		     -50.2268900  -45.1126200   -58.1664400 -111.4181000    -1.5264110   17.5776600   -23.7399100  -98.1978500
 		     -48.4528000    5.7202330   -50.9085500  -18.6469300   -23.9198400  -96.4458500    -1.4433170   17.2935000
   42633910000    -0.7957613   82.7916400   -14.6962300   -6.1609730   -54.3681200   -7.8909410   -52.1193900  -18.2052700 
 		     -14.6718500   -5.7492290    -0.6876529   82.7680700   -49.9376600    8.6901840   -54.0360600  -11.3673200
 		     -46.8732700  -59.4487400   -61.2264000   10.9659300    -1.4903180   17.4790600   -24.1073600  -97.9115500
 		     -63.0617900  -33.4699400   -64.7634400 -109.3376000   -23.8114400  -98.6567300    -1.4299940   17.2129100
   42703900000    -0.8592097   82.5300200   -14.7151100   -3.6807530   -49.9359700  -30.4280000   -54.2312200    1.2962160 
 		     -14.7228900   -5.2838750    -0.7879938   81.9216800   -50.9981100   -6.8134100   -51.9419300  -15.3099200
 		     -53.2365800  -32.7985400   -42.2066700 -117.1728000    -1.5198310   17.0429000   -23.9056200  -98.2287200
 		     -54.1583000  -46.9728700   -43.5706300  -13.3587200   -23.7443700  -99.0372100    -1.4114860   16.6923400
   42773890000    -0.8307243   82.6398300   -14.5461100   -5.1213680   -52.8697900    7.3970350   -54.6905700   21.0271900 
 		     -14.7196100   -5.9516030    -0.8024753   81.7962500   -58.5980600   39.7879600   -54.1318600   -9.4815220
 		     -60.8360700 -156.1877000   -46.6340900  -70.1093700    -1.5214570   16.7407400   -24.0332400  -98.6581200
 		     -56.2836500   48.4372800   -47.3704900  -92.6420500   -23.9010800  -98.0533900    -1.4542510   16.5330000
   42843880000    -0.7419604   82.2367900   -14.7207000   -4.9457980   -49.9694600  -14.8857500   -55.5492900   -5.3403220 
 		     -14.7054400   -4.8263130    -0.8002787   82.0643500   -61.6801800  -27.7199400   -53.5528800  -30.5386000
 		     -52.8161700   18.6292900   -64.1324200   70.1462800    -1.5187860   16.7466300   -23.7257800  -97.4225400
 		     -51.5240100  -19.4506900   -49.9903700   -7.0199060   -23.8437300  -99.5183100    -1.4280820   16.3320400
   42913870000    -0.8297506   82.3218800   -14.7303100   -6.9355650   -56.1882900  -34.0203600   -56.1477400   37.7234000 
 		     -14.7731800   -4.8049400    -0.6799079   81.9192800   -50.9776300   -9.6782210   -51.3263400   21.5921100
 		     -48.9745100  -36.3505500   -57.7174800   77.6711700    -1.4964440   16.0886800   -23.8692600  -97.8056500
 		     -50.5298800  -15.1560400   -49.8409800   -2.4046100   -23.9186400  -99.7365000    -1.4193900   16.0123400
   42983860000    -0.8753545   81.8332100   -14.8473700   -5.6583140   -56.9127100  -19.0071900   -54.9510800   19.2198800 
 		     -14.9396600   -7.1983500    -0.7632883   82.4140100   -56.0341300  -39.8389200   -57.2544300   30.8759000
 		     -45.9644000   24.2273600   -45.7492100   41.3083300    -1.4940880   16.0361700   -23.5302300  -99.8371600
 		     -64.8177600  -53.0108000   -50.0940100 -107.0546000   -23.6704700 -100.7592000    -1.4271560   15.8634000
   43053850000    -0.8474197   82.0758100   -14.7194500   -5.7215640   -52.9403200  -12.8107700   -51.5302400  -12.8815500 
 		     -14.8490200   -7.1427470    -0.7835864   82.0578800   -52.7895500    9.2782820   -51.9793900  -56.9277600
 		     -56.6399800  -82.1605700   -57.3119000  -61.6837300    -1.5321900   16.0280200   -23.9724900  -99.5752200
 		     -65.5991500   40.9391300   -45.0066600   16.0860300   -23.8058300  -99.6500300    -1.4324240   15.3126000
   43123840000    -0.8350787   82.1217900   -14.6376700   -5.6894320   -59.9348300  -32.3255200   -51.3286800    5.7702800 
 		     -14.8027300   -5.1918320    -0.7147188   81.7377200   -55.2185000  -24.1280600   -50.3219400    4.4598610
 		     -50.9133100  -22.2700600   -60.7209600  -83.8802300    -1.5091550   15.4865200   -23.7048800 -100.4732000
 		     -54.1318300   43.1892000   -70.2570800  -55.8766500   -23.8296500  -99.7002600    -1.4404540   15.3245300
   43193830000    -0.8953723   81.9297200   -14.8946200   -8.1398260   -51.9554600  -34.9317200   -52.7250700  -18.6191000 
 		     -14.9385000   -6.3244890    -0.9528692   81.3869600   -50.7503100  -11.0081400   -53.3450200   -4.8791320
 		     -51.4030200  -60.5835900   -45.1078900  -12.1071300    -1.4956000   15.1863800   -23.7320500 -100.5780000
 		     -56.2222300   -6.0024290   -43.1388100  -16.7501300   -23.6435500 -100.1313000    -1.4088050   15.0355700
   43263820000    -0.7895139   81.3951000   -14.6736500   -5.6253160   -56.9432800  -24.5279000   -51.7556400  -24.8661800 
 		     -14.7867000   -5.3704510    -0.7810065   82.1023100   -56.3073400   17.8237100   -60.7129100    0.3430762
 		     -49.4814100   48.8261800   -64.8888400  113.6479000    -1.5206950   15.1243200   -23.6359900 -100.0090000
 		     -50.1619300   38.0214800   -51.7492100    8.3421820   -23.9647800 -100.2831000    -1.4572680   14.4787100
   43333810000    -0.8233904   81.6766000   -14.6693900   -5.9606950   -53.1178000  -37.4876100   -48.3160000  -12.9549000 
 		     -14.8263100   -6.0218330    -0.8355553   80.5884800   -51.7917100  -36.0187100   -54.9241300  -16.1450100
 		     -61.6381000  -37.6597000   -44.5350500  -32.5464700    -1.5011220   14.6492900   -23.7144800 -101.1834000
 		     -56.6931500  -50.5765200   -61.0556500   27.3707200   -23.6337500 -101.5947000    -1.4836100   14.5137500
   43403800000    -0.8224014   81.4871300   -14.6675100   -5.8738460   -52.2228600  -17.7495200   -49.9106100  -16.9097500 
 		     -14.7310100   -6.3141260    -0.7769811   81.1283600   -59.0851900   -7.5078100   -49.2599700   34.3575600
 		     -49.8577800   32.3261600   -52.9032400  -18.5290500    -1.5129880   14.2308000   -23.7229600 -100.8438000
 		     -48.5309000   24.0960500   -48.2927100 -112.7167000   -23.5975800 -101.7280000    -1.4210190   14.2132300
   43473790000    -0.8235627   80.7974500   -14.7601800   -6.2295460   -51.8703200  -16.6438100   -51.7039100  -11.6411000 
 		     -14.7156000   -6.0161190    -0.6638138   80.4066800   -60.5449600   18.3046400   -51.6557800  -26.2102500
 		     -50.8186300   29.0752000   -46.4842300   17.2861900    -1.5237280   14.2000200   -23.4832500 -102.3684000
 		     -52.1604900  -12.9504100   -52.2877900  -51.5479700   -23.4430400 -101.6223000    -1.4716340   13.8008100
   43543780000    -0.8293056   80.8449300   -14.7096000   -6.9876680   -51.9219100  -36.1148100   -52.3106000  -21.4904200 
 		     -14.7915000   -7.1023880    -0.7637647   79.6085700   -58.0796900  -25.6479800   -51.5651900  -24.2127100
 		     -43.9373500  -11.5916800   -53.8355300  -61.1329400    -1.4983410   13.9356700   -23.5472900 -101.8514000
 		     -49.7801800    0.1817602   -51.9247800   -4.2625870   -23.5347000 -101.9702000    -1.4647980   13.6943500
   43613770000    -0.8130298   81.3590500   -15.0658700   -6.0800220   -52.2733000   -9.7629050   -52.8243400  -11.4418400 
 		     -15.0665500   -6.2988910    -0.9509773   80.6245300   -56.6476200  -12.8187200   -56.3748200  -14.3647200
 		     -52.4479100  -36.2268600   -41.6634900  -45.2313800    -1.5157030   13.5098700   -23.4428600 -103.4134000
 		     -48.3059700  -24.5882100   -49.7048900   45.7545800   -23.3460900 -103.8711000    -1.4181300   13.2846500
   43683760000    -0.8601985   80.7514600   -14.9351300   -7.6826680   -51.4032700  -24.1619400   -54.2468900    4.6569590 
 		     -14.8529900   -7.5534990    -0.6597319   79.8419800   -58.6400400  -13.9917900   -55.8521800   -5.4042360
 		     -52.9695700    7.5334160   -45.5674400   60.1912400    -1.5292800   13.3732700   -23.3820700 -102.8487000
 		     -43.9699700   -5.6773770   -56.1351600   -1.4173500   -23.4559600 -102.4732000    -1.4906740   12.7876300
   43753750000    -0.7842144   80.4753600   -15.0065400   -8.7173330   -55.8047900  -34.4704500   -49.5959800  -26.9732700 
 		     -14.8442600   -7.6041530    -0.8261848   79.9825900   -55.5087700   10.5142700   -54.2002000   -6.5874590
 		     -62.0591300 -104.4332000   -49.9868200   -1.5505150    -1.4926170   13.0315900   -23.5496500 -103.1475000
 		     -50.6032000   25.4761600   -72.7289300 -165.1621000   -23.4167100 -104.2306000    -1.4862220   12.7928700
   43823740000    -0.8182087   80.5570800   -14.7972200   -6.5149200   -50.0645300  -13.5416600   -52.0778700   -0.5095460 
 		     -14.9363600   -7.0355770    -0.8034074   80.7155500   -52.4327400  -24.2404400   -51.5488600   15.1271100
 		     -62.8509300   71.4683800   -45.1047600  -24.4269600    -1.5353690   12.4381600   -23.3372400 -104.6091000
 		     -48.1256800   -1.4962000   -51.2490900 -125.2941000   -23.2281900 -104.6315000    -1.4245430   12.4753000
   43893730000    -0.7794840   79.7224600   -15.1103700   -5.3422160   -58.4415300   12.8642200   -57.6068400   13.8894100 
 		     -14.7914900   -8.4671750    -0.6111968   80.7056100   -51.5027200  -11.2181500   -49.1454700  -38.9232100
 		     -47.4771500   11.4438400   -47.4673800  110.7491000    -1.5424490   12.6249200   -23.0982600 -105.4242000
 		     -50.6103900   17.6943300   -44.6959300   37.5542600   -23.2148000 -104.6499000    -1.5091040   12.0194300
   43963720000    -0.7956092   80.0285300   -14.7602500   -9.0558580   -55.6143000    0.6960548   -52.9633200  -16.5514400 
 		     -14.8926700   -9.8846350    -0.7647086   78.9993200   -56.2395200  -22.5353600   -54.4622400  -50.1549600
 		     -52.1930700 -123.4679000   -48.3340100    7.7771810    -1.5285270   12.3499000   -22.9997200 -102.5473000
 		     -50.1060200   -0.6348642   -48.6818600 -122.8733000   -23.2214400 -105.4703000    -1.5006250   12.2945300
   44033710000    -0.8002114   80.2127100   -14.9029100   -8.2534690   -50.3853600  -30.7960900   -49.0817100  -26.2867600 
 		     -15.1919900   -8.2177100    -0.7841030   80.5018000   -54.9073000    5.1639820   -48.2061200  -30.0711300
 		     -47.1615000  -19.4345400   -57.3474900  127.1915000    -1.5593330   11.5970000   -23.0860900 -105.1623000
 		     -59.2581900   38.1941600   -48.1769900   71.8019900   -23.3459600 -106.5993000    -1.4070210   11.3267100
   44103700000    -0.8571463   79.7077200   -15.2474900   -8.6204990   -50.7067800    1.3068650   -53.1486800    0.6660097 
 		     -15.1159800   -9.4522320    -0.7028588   79.5083400   -48.5775400  -40.7938200   -47.3595400  -33.7821500
 		     -47.9551900  -32.2604400   -57.6957900 -103.1941000    -1.5402760   11.7840800   -23.1785400 -105.2787000
 		     -51.1842200   23.0824800   -46.2193200  -29.2078200   -22.9674600 -105.3658000    -1.4891900   11.0465600
   44173690000    -0.7876242   79.5400800   -15.0546200  -10.5115600   -52.8963100  -33.3234900   -57.7947200   -2.7324750 
 		     -14.9396200   -8.6762290    -0.7919682   79.2257300   -49.2057300  -10.4239600   -56.6461800  100.1049000
 		     -69.2488800   -4.4668860   -53.1214800  -50.1422700    -1.5088470   11.4197300   -23.2052200 -106.2448000
 		     -52.5361100  -25.8724000   -45.4253500   -7.1917590   -23.0882900 -106.0400000    -1.4941320   11.3262100
   44243680000    -0.7562243   79.7333800   -14.8607300   -8.7575930   -51.4853900  -30.2733500   -55.0839200  -22.0685500 
 		     -15.2132700   -8.2305610    -0.7879190   79.9768400   -52.7880900   15.0479200   -56.0019800  -15.2721100
 		     -49.2264600   -0.1051178   -50.6274800 -158.7478000    -1.5732010   10.9844000   -22.9538100 -104.5629000
 		     -46.3861700  -56.2681000   -46.0388700  -58.0288100   -22.9445600 -105.6060000    -1.4424510   10.6817000
   44313670000    -0.8086559   79.3698000   -15.1010100   -8.0142020   -58.0827700  -35.1338700   -52.7923400  -21.4356400 
 		     -15.1063700   -7.1749240    -0.7797557   79.6743700   -62.2419400  -85.8453800   -52.6075400  -57.6217400
 		     -47.0744600    8.2435730   -43.6941500   30.2221500    -1.5542430   11.0467300   -22.9623200 -106.9149000
 		     -55.9534500   30.0124200   -46.2238400   89.6714600   -22.8711900 -104.3863000    -1.5211830   10.5378700
   44383660000    -0.7687023   79.0181200   -15.2352400   -9.9510520   -49.9579000  -28.3736500   -55.0154700  -34.1451100 
 		     -14.9351600   -9.6167510    -0.7908199   79.0935400   -51.4333800   38.6821300   -51.3544300  -42.2420400
 		     -43.1616200    4.2895700   -44.0365800  -49.8705100    -1.5557990   10.5148900   -22.9486800 -105.5356000
 		     -48.1688000  -11.1282800   -43.8731200  -98.8572900   -22.7944300 -106.4763000    -1.4975660   10.5972800
   44453650000    -0.9016723   78.9995200   -14.9768400   -8.0769670   -62.6403100  -11.5420400   -54.1849400    8.5419950 
 		     -14.9890400   -8.5534610    -0.7368357   78.4232000   -49.0661700   17.1703500   -58.9872900  -79.0524600
 		     -52.0073500   23.0590100   -51.4508200  139.4596000    -1.5880040    9.9968960   -22.8383000 -107.5559000
 		     -48.8544900  -23.6245200   -46.8978100  -51.1463400   -23.0694800 -105.7900000    -1.4859200    9.7032470
   44523640000    -0.8844498   79.0291600   -15.0421100   -9.2085780   -50.6541300    0.7585778   -52.9595000  -10.8824300 
 		     -15.5157600   -9.6786770    -0.7533535   77.9111100   -61.1160400   50.9975400   -51.5910300   -0.2977135
 		     -48.9064200  -23.2538400   -47.0465100   36.1895300    -1.5462150   10.2495500   -22.8042100 -108.2162000
 		     -45.0597000   34.0898400   -59.2292600   53.0074800   -22.8056800 -107.5965000    -1.5134510    9.9439050
   44593630000    -0.8213946   78.7784600   -15.1970600   -9.8589290   -52.3119500   28.4012300   -48.8878300  -28.2242400 
 		     -15.1370600   -9.7505020    -0.6658179   78.6862400   -54.1151100  -22.7727700   -54.8461000  -29.2660800
 		     -57.0939400  -14.7044500   -48.2263100   79.7800400    -1.5792500    9.7777190   -22.7456600 -106.7514000
 		     -47.2316300    0.6505252   -50.5010400  -31.0368900   -22.8057100 -107.6196000    -1.5104480    9.8411510
   44663620000    -0.8252625   78.4139600   -15.0629500   -9.4731400   -48.4787600  -14.5738500   -49.2467700   -3.7736520 
 		     -15.3063100   -9.4215570    -0.8265874   79.2496200   -52.8899600   36.3337500   -46.6675900  -61.2985300
 		     -51.1088600  151.4193000   -43.3078400  -15.3667400    -1.6056370    9.7261920   -22.9991600 -106.4929000
 		     -61.8513300   35.8218800   -47.1460000  -27.6914700   -22.7960400 -107.2097000    -1.5183270    9.3107280
   44733610000    -0.7904807   78.7768100   -15.6886100   -8.9832120   -50.9121200   20.3525000   -52.0630200   25.7605700 
 		     -15.1913400   -7.9341710    -0.7944786   78.2225500   -49.9221200  -27.6338000   -49.7669600  -25.9755100
 		     -53.5627400  -80.2798800   -55.6511800  114.3342000    -1.5505340    9.5367420   -22.7251100 -107.2715000
 		     -50.5890100   11.9000800   -42.2520400  -50.9350500   -22.7636900 -108.9431000    -1.5212160    9.0321290
   44803600000    -0.8038610   77.9777100   -15.3292100  -11.1369200   -59.4480100  -84.8916200   -52.4543800   -5.0684730 
 		     -15.3676300  -10.0623400    -0.8147879   77.8393200   -46.8915700  -24.7521800   -59.4001500  -41.5727300
 		     -45.6518700  -80.1064500   -47.1674000  -26.6992900    -1.5822670    8.9159260   -22.7269100 -108.1291000
 		     -46.9832200  -11.0797900   -44.7150300  -51.5889000   -22.6719800 -106.9144000    -1.5425050    8.7573010
   44873590000    -0.8208812   77.7892300   -15.1331900  -11.1478000   -49.7675100  -59.7235700   -61.7789500   32.5070100 
 		     -15.3480900  -10.0907800    -0.7717731   77.7994700   -53.0780800    8.7682390   -49.1645500   13.7026400
 		     -48.1546400  -13.3875600   -52.3569800   -7.7808090    -1.5957950    8.7395740   -22.6648600 -108.4606000
 		     -48.0727400   37.4462700   -46.0531800  -42.3446200   -22.5369300 -108.1069000    -1.5296880    8.6118200
   44943580000    -0.7958838   78.1856200   -15.4141000  -10.8311300   -48.4161600  -18.9845000   -50.4219500   -9.7677610 
 		     -15.3234200   -9.7973130    -0.7831658   77.6711400   -53.7912100   12.1848400   -53.6988500  -57.7341900
 		     -49.3918000  -84.2420300   -47.7321400    7.7194030    -1.5547730    8.3804240   -22.5505200 -108.7211000
 		     -52.1287700   43.5615000   -49.1105100  -20.1364500   -22.5833100 -110.1807000    -1.4899830    8.1083110
   45013570000    -0.7747951   77.7461500   -15.4543300  -10.0409200   -50.0184600  -53.2526600   -53.8999300  -63.3344200 
 		     -15.3458800  -10.4750200    -0.7809674   78.0911800   -48.4941800   13.7668400   -46.5022500  -31.3544800
 		     -45.6763300   28.6412700   -42.2264200   14.4467200    -1.6100610    8.1758280   -22.3833700 -108.5593000
 		     -46.9477000  -27.5383500   -43.7637200  -12.1779900   -22.5490600 -109.5980000    -1.5985600    8.0634350
   45083560000    -0.8414043   77.3920000   -15.6328000  -13.7116300   -57.6279100   -7.1514060   -49.7781200  -27.1918700 
 		     -15.4110600  -11.3773000    -0.8883781   77.4575000   -50.8248800    2.3575170   -50.3774800   16.2286100
 		     -47.9816700  -76.7899900   -46.3684800  -89.2845500    -1.5940880    8.1312360   -22.3608300 -109.6949000
 		     -51.1703900  -85.5816900   -45.4512300  -82.3139000   -22.3566800 -110.1461000    -1.4723760    8.0107500
   45153550000    -0.7792053   77.4862700   -15.2864900  -12.6552700   -51.5919000   -1.1562600   -47.6517300    4.6557040 
 		     -15.2701800  -11.6120600    -0.7875950   77.9344500   -53.6848300  -38.7999700   -52.2539700   29.1566300
 		     -61.5156400   -6.8699890   -46.3402600  -51.8437500    -1.5936060    7.7739770   -22.2887000 -110.0028000
 		     -48.3145600  -56.6760200   -44.1548600  -23.8751400   -22.4137800 -109.6323000    -1.5362230    7.1122780
   45223540000    -0.8180818   76.8436900   -15.3455100   -9.7377820   -51.9356000  -10.2473000   -49.9575800  -22.5806700 
 		     -15.2880500  -10.5989900    -0.8374243   76.8560000   -55.1770300  -57.1821700   -54.5021900   -0.2072775
 		     -49.9466900  -69.5292800   -62.4296300 -142.7683000    -1.6156380    7.4306510   -22.0895500 -110.2793000
 		     -52.9601300  -78.2720400   -47.5808300   36.0852100   -22.2545900 -109.5734000    -1.5865570    7.3976730
   45293530000    -0.8576441   76.9512600   -15.0291300  -10.7527200   -48.5933100  -26.6384100   -63.8201200  -54.1651100 
 		     -15.2175900  -10.9936200    -0.7915526   76.1979600   -51.5128100    7.5381180   -50.5957000    9.9180940
 		     -52.8464700  -39.0899400   -47.8835600  164.8073000    -1.6069460    7.5051350   -22.1903300 -111.4374000
 		     -45.4325100  -28.4328300   -43.6483800   71.7690100   -22.1047800 -111.5696000    -1.5153690    6.9729650
   45363520000    -0.7996112   76.9977400   -15.5450600  -10.1781300   -48.8865100  -26.3178400   -49.6795000  -16.4949100 
 		     -15.3616800  -11.6629400    -0.7609053   77.3920000   -55.4736400   -3.6847900   -50.8757400   -5.5913730
 		     -54.6089200   22.7947600   -45.6330200   29.2507200    -1.5978530    6.7776670   -22.0042200 -111.1621000
 		     -47.0405700    2.4721650   -51.7734100 -167.3860000   -22.1476000 -111.3257000    -1.5579810    6.4638150
   45433510000    -0.8313562   76.3905900   -15.5383200  -11.3698700   -49.1207500   -4.7776560   -49.3320900  -55.7860400 
 		     -15.4630000  -10.3073200    -0.8538959   76.4934500   -51.1573900  -14.1072500   -57.3124200  -19.4339600
 		     -49.8597700   -7.6335230   -48.4422000   23.3214100    -1.6135670    6.7174970   -22.1012700 -111.8216000
 		     -46.7094600   47.7638100   -42.0080500  -16.5263500   -22.2039700 -111.9174000    -1.5716340    6.5180100
   45503500000    -0.8250424   76.9476500   -15.4815900  -11.2311100   -52.3646600  -34.8817400   -48.1308500  -23.3611800 
 		     -15.5465700  -10.4724200    -0.7688080   76.3669500   -48.9984600  -42.9176600   -49.5570000    1.0771950
 		     -43.0276100   -6.4596660   -48.1755300  -48.9690600    -1.6042040    6.6890970   -21.8586300 -112.3333000
 		     -48.8320000 -138.0273000   -49.5142900   81.2415500   -21.8795800 -111.7104000    -1.5116320    6.1563670
   45573490000    -0.7883861   76.7030300   -15.3991000  -11.2358400   -51.5668700    4.7156280   -49.1313300  -27.7829300 
 		     -15.5194500  -11.8042000    -0.6798253   76.8973300   -51.0211200  -24.3600000   -47.6932900   -7.7009060
 		     -47.5437900    7.3195790   -50.3705200   73.4202400    -1.5726160    6.1439470   -21.8474900 -112.5484000
 		     -49.6657200  -12.8136000   -48.3770600   -2.7750270   -21.9351700 -112.5608000    -1.5386330    5.6796060
   45643480000    -0.8870565   76.1375200   -15.5921000   -9.8132590   -50.7843400  -52.1517200   -49.1903900  -26.0659300 
 		     -15.5061300  -11.8709600    -0.6750026   76.0536300   -48.7935100    2.8035780   -59.9546500  -33.2866600
 		     -46.4723800  -22.2150900   -48.3314400 -156.8780000    -1.6164780    5.9976040   -21.8707700 -112.4403000
 		     -47.8222100    0.5247054   -49.7789200  -76.8616000   -21.7206300 -112.4057000    -1.5493350    5.8217020
   45713470000    -0.8081025   76.4375700   -15.8029500  -12.4590400   -53.0505200   -7.2335650   -55.4877700   -1.3023520 
 		     -15.6772300  -12.4110800    -0.8418816   75.7104200   -54.1764100  -23.3363400   -52.7480200  -56.5307400
 		     -42.8612200  -45.3778200   -41.3162200   14.0517500    -1.5879040    5.6741900   -21.7714400 -112.4491000
 		     -42.2352800  -42.4938400   -42.6350600   24.3572000   -21.7035000 -113.0803000    -1.5276450    5.4168900
   45783460000    -0.8382057   75.6742500   -15.4415800  -12.1414700   -54.2677200  -27.9755200   -46.8281400  -10.8344800 
 		     -15.3950700  -12.2105600    -0.7296478   76.4147000   -57.8827100   30.8209600   -48.1818400   28.9198500
 		     -47.5282500   -6.6849750   -45.7300000   16.8979200    -1.6052480    5.4693060   -21.5843100 -113.7430000
 		     -49.9338100   -1.4575130   -48.5794500   36.9015000   -21.7960200 -112.7762000    -1.5430120    4.8788640
   45853450000    -0.8304768   76.0836000   -15.4387200  -10.4223900   -49.5769000    0.2596438   -56.8638300  -42.4335600 
 		     -15.6840300  -12.0707500    -0.8876849   76.0493500   -51.5087900   -2.6006310   -51.8148800   10.8531200
 		     -50.3698700   64.8090300   -48.2977000 -140.4812000    -1.6294720    5.2292160   -21.7792000 -113.7218000
 		     -48.0567700    0.7008144   -40.2115600   23.2408600   -21.6563900 -113.3099000    -1.5553730    4.8698250
   45923440000    -0.8351754   76.4101300   -15.4078500  -12.8691700   -51.5130300  -11.4959700   -47.5781900  -30.0266600 
 		     -15.5197400   -9.7238590    -0.8185638   75.6997900   -47.2373500   37.8299100   -57.7248200   14.9688400
 		     -45.8710700  -44.7893200   -50.3032000  -90.9079400    -1.5969500    4.9197050   -21.6947800 -114.1143000
 		     -51.7919800   39.0022700   -46.2899200  -18.9902700   -21.5662900 -113.7911000    -1.5468780    4.6701700
   45993430000    -0.8182994   75.7887300   -16.0043000  -11.9082400   -48.7741800   -6.3231320   -45.9707900  -24.1468400 
 		     -15.5053000  -10.7982900    -0.7707881   75.8882100   -54.3754900  -16.6709500   -47.2986800  -34.4273700
 		     -53.3852200  -10.3204200   -47.7655100   64.7201400    -1.6200970    4.5672520   -21.5723400 -113.4948000
 		     -46.6260900   -5.6827270   -46.6784200  -22.1715100   -21.5522300 -113.9975000    -1.5267990    4.2108280
   46063420000    -0.8365797   75.5542500   -15.4908700  -11.9625100   -48.1843300  -37.2921100   -52.1071600   20.0402900 
 		     -15.8653900  -12.7460800    -0.8865777   76.0011500   -57.9028200  -23.2660900   -48.8336900    1.6073340
 		     -52.8532400   32.3710300   -55.9890500  -79.1412500    -1.6159390    4.0714580   -21.4848700 -113.9075000
 		     -55.3163100  -80.5620800   -40.6291200   -9.8019840   -21.5146300 -115.3006000    -1.6048790    3.9025150
   46133410000    -0.7995051   75.8803200   -15.5628700  -11.5611200   -48.6875500   -7.7778940   -46.4590100   -5.3729330 
 		     -15.5765700  -12.0128000    -0.7183755   74.9953500   -51.7224000    5.0526940   -47.3589100   -5.2442190
 		     -58.8290600  154.6590000   -47.1145000  -23.1553400    -1.6431910    3.8697950   -21.5041300 -115.1329000
 		     -44.4885600   58.5108400   -55.5384500 -142.1746000   -21.4478300 -113.7835000    -1.5879840    3.9432350
   46203400000    -0.8015001   75.6170100   -15.6207500  -10.2714300   -48.3448000  -13.3203100   -50.7441000  -25.3954000 
 		     -15.8529200  -13.2068400    -0.7684802   74.6457700   -54.6011400  -41.6020700   -55.0061400    0.8125402
 		     -44.2078200   -9.5599430   -39.0828200  -73.6711000    -1.6076220    3.6300070   -21.3913100 -114.3104000
 		     -49.2951400   14.6114800   -41.5585700  -51.9352800   -21.4965500 -115.6722000    -1.5483230    3.2860650
   46273390000    -0.8197782   75.5750700   -15.5687900  -12.1702200   -52.6160600    0.5022478   -48.8354300    6.3539660 
 		     -15.6449700  -11.0350000    -0.7365054   74.9647800   -48.9572400  -46.8305500   -47.4695000   13.1102400
 		     -51.8707800  -47.0025000   -52.0159700   49.2156100    -1.6286670    3.2813290   -21.2591100 -115.4536000
 		     -50.0541300  -32.8335200   -43.0097600  -16.1145900   -21.2122500 -115.1743000    -1.6018550    2.8919240
   46343380000    -0.8174168   75.1526200   -15.6640100  -11.5310200   -50.3629300  -28.8460300   -50.5615600  -14.8664000 
 		     -15.6787600  -13.5619400    -0.8162662   74.5764500   -48.2567900   -1.7687630   -51.7224300   28.7400000
 		     -50.2688300  -58.2294000   -53.8797000  -84.1925600    -1.6571760    3.1403660   -21.2817900 -115.6701000
 		     -57.6441400   16.4173700   -45.7110400   71.2809500   -21.1199000 -115.7450000    -1.6022950    3.1013120
   46413370000    -0.7453781   74.9101400   -15.6189000  -13.1781000   -51.6475100    3.1503470   -51.5669900   31.9951000 
 		     -15.5878000  -13.8092300    -0.8298976   74.7926100   -51.3411300  -10.9141700   -51.3379100  -10.4672000
 		     -44.2316400  -17.5277300   -49.0335300   11.0325800    -1.5880610    2.7167340   -21.1193900 -115.2505000
 		     -47.3800700    2.5585010   -57.9450400    8.5054330   -21.1786200 -114.9484000    -1.5525030    2.5200300
   46483360000    -0.8214183   74.7871600   -15.9262300  -13.7802900   -50.7076700  -32.7264800   -52.4532600  -60.1518700 
 		     -15.8348100  -12.9605700    -0.7043862   74.1823600   -52.7229700   -8.2844280   -55.0205400   -8.5295410
 		     -45.4905700  -23.3266900   -42.9813400  -38.5523500    -1.6680610    2.2672820   -21.0470000 -116.8586000
 		     -52.5924500   62.2982100   -52.7868100 -121.3926000   -21.3774900 -116.7442000    -1.6504970    2.2224940
   46553350000    -0.7484304   75.1549700   -15.7116600  -13.8096600   -48.3743100  -22.4618900   -48.5650200  -24.4868900 
 		     -15.9051300  -12.5744300    -0.9122289   74.3436700   -54.1986900   -2.6272650   -50.8706900   30.7134100
 		     -61.0184300  -55.2640400   -49.4487500  -87.6076900    -1.6717070    2.4791510   -20.9804300 -117.6307000
 		     -50.7377100  -74.2101300   -49.7387700   26.3990000   -21.0758600 -116.8790000    -1.5923790    2.2386160
   46623340000    -0.8079675   74.5966600   -15.7309300  -11.3799400   -48.1462200  -51.9154600   -53.2094100   -7.4998180 
 		     -15.7510300  -12.0498600    -0.7746896   73.8189800   -50.0785300  -23.3144400   -49.8533400  -12.0015300
 		     -47.0991500  -41.6459900   -53.3035600 -112.2252000    -1.6094010    1.9338700   -20.9358400 -117.3381000
 		     -49.4900900   15.1878700   -46.6835300  -83.9620700   -20.9938500 -117.4080000    -1.5592320    1.6604190
   46693330000    -0.7383153   74.2217300   -16.0508100  -11.9492900   -48.1426400  -32.4884300   -51.4609600   -2.8504790 
 		     -15.9387600  -13.4380000    -0.9192948   74.0788200   -54.6109800  -13.7673100   -51.1266700  -12.8847600
 		     -52.2394000  -84.4577300   -47.1444700  -45.5751000    -1.6935040    1.3399750   -20.9282300 -117.3079000
 		     -49.8629600   13.5066300   -48.9994700  -45.2668500   -20.9625900 -117.6586000    -1.6361050    1.3228880
   46763320000    -0.8051654   74.5344600   -15.7716300  -13.6350800   -50.8999300  -41.5087400   -52.9067500  -19.0078700 
 		     -15.7780900  -14.6739200    -0.7355311   74.4294400   -50.8583500  -16.1631000   -54.3668100  -40.5810600
 		     -46.7501300    4.6614730   -60.6379300   41.4718200    -1.6639830    1.6072840   -20.9007000 -117.3445000
 		     -52.5702600   -0.9179021   -53.5394500   50.6107700   -20.7306600 -117.6797000    -1.6098040    1.5702890
   46833310000    -0.8189854   74.3543700   -16.2014000  -12.5654800   -51.2351800   40.5665800   -51.4213400  -29.3614700 
 		     -15.8860100  -13.3115500    -0.7195941   73.7532300   -51.6107200    5.9318440   -54.0848700  -41.4861500
 		     -52.3650000  -43.9275100   -49.0894900   34.8318400    -1.6104930    0.7418352   -20.7473800 -117.2478000
 		     -44.8975600  -14.3116700   -43.9910600  -57.6942800   -20.7273300 -117.2769000    -1.5699010    0.6277412
   46903300000    -0.7736838   73.4963400   -15.8968200  -14.0677100   -53.2196400   22.1212800   -50.9555100  -26.8607900 
 		     -15.8714700  -13.5954200    -0.7778504   73.9529000   -47.8119900  -24.0472600   -47.9559000  -28.9977600
 		     -76.5551600  -86.8158200   -47.2475800  -33.5012500    -1.7168800    0.2280928   -20.8377200 -118.6572000
 		     -45.1989900  -25.5381100   -41.9896100    1.2658350   -20.8466200 -118.9951000    -1.6825100    0.2351416
   46973290000    -0.8108836   73.8982500   -15.7779300  -12.7268400   -47.5370400   -4.2492170   -48.2775300  -17.7583100 
 		     -15.8075700  -14.3636900    -0.7210492   74.2506700   -49.5526300   -4.2194200   -47.9785000  -39.8411800
 		     -55.4790600 -113.2457000   -52.2344400 -178.0976000    -1.6902480    0.7934176   -20.5425900 -117.3561000
 		     -60.4646000  -31.1288500   -50.2890100   92.7523000   -20.7660700 -119.1304000    -1.5828620    0.7323385
   47043280000    -0.8138440   73.5878400   -16.2853700  -15.3187800   -47.6217800  -24.5606500   -50.8182300  -40.7016900 
 		     -15.9406500  -13.6293100    -0.8629472   73.8127500   -51.5023800   -6.0045260   -48.2095300  -22.7223200
 		     -58.5515000  -31.9118600   -49.1170600    2.5470980    -1.6400250    0.0998693   -20.4157600 -118.8933000
 		     -46.6955600  -21.8002700   -43.0287100  -60.2776600   -20.4443800 -118.7627000    -1.5758150   -0.2907856
   47113270000    -0.8617940   73.8244200   -15.8858200  -14.1298900   -56.3815600  -12.2081100   -45.9760900  -12.6653400 
 		     -16.0584700  -14.0513900    -0.7828889   73.3244600   -54.1576200   20.5573800   -49.6625400  -31.2850000
 		     -52.5841500  -12.5110700   -43.1837800  -33.6434900    -1.7387660   -0.6783568   -20.5912200 -118.8948000
 		     -47.7306300  -14.3344700   -49.5610700   -7.1711460   -20.5803600 -119.5486000    -1.6989050   -0.4012758
   47183260000    -0.8581800   73.7222500   -16.1866700  -14.7552500   -50.5406500  -21.7515800   -50.3838300  -34.9484500 
 		     -16.2512200  -15.0623200    -0.8812000   72.9232800   -49.6729800   -3.2424650   -53.5173000  -30.3542900
 		     -47.9248000   22.1534900   -46.5211700  -75.7554700    -1.6622540   -0.0246701   -20.4963700 -118.8101000
 		     -47.3951000  -39.6533700   -47.0821600   45.3051600   -20.2094400 -119.0124000    -1.5663610   -0.1293664
   47253250000    -0.7553900   73.6601900   -16.0597600  -15.5208700   -49.7347900   -8.6116120   -46.8216700   -5.5271950 
 		     -15.9885400  -15.4697000    -0.7289261   73.0271500   -51.2533500    3.7917080   -49.3163500  -14.9232100
 		     -52.2129900  -41.8156000   -54.6048000   39.3034400    -1.6699270   -1.0976650   -20.3528600 -119.4917000
 		     -75.9711000  -96.5305900   -55.5190600   61.3627200   -20.3317200 -121.2351000    -1.6277300   -1.3609120
   47323240000    -0.9041768   73.0257200   -15.8032500  -15.3667700   -49.9841200   -8.5004100   -48.9789600  -18.3347200 
 		     -16.0365000  -15.1295000    -0.6585931   72.9064400   -51.5499600    5.7522240   -46.4106500  -28.9776500
 		     -49.1717900   -2.6760290   -47.3451600  -44.7597700    -1.7388010   -1.0855120   -20.3414200 -119.0312000
 		     -50.1399800    2.3015340   -50.2688000  -68.0635200   -20.5274400 -119.6145000    -1.6752070   -0.9699189
   47393230000    -0.8582557   72.1917600   -16.4725600  -14.9924200   -53.3426300    2.1710470   -50.1417100    2.8248760 
 		     -16.2587800  -16.0302800    -0.8898178   72.8244400   -52.3605800   -9.8787460   -48.4582400  -22.2646000
 		     -46.5669300   12.8444700   -42.3489900   -2.7559700    -1.6850540   -0.8395712   -20.3545500 -120.1280000
 		     -56.4493600  -20.8840300   -46.7518500   58.2483500   -19.9998200 -119.6805000    -1.5978750   -1.0626360
   47463220000    -0.7817572   72.4603300   -16.1077700  -13.5607500   -51.1447100   -0.0535606   -50.0116200  -37.3552900 
 		     -16.1132400  -15.4849600    -0.8924665   73.0915100   -49.6197300  -11.3439300   -49.1504200  -21.9334600
 		     -45.6146900   31.3361300   -51.6476700   50.6919900    -1.6744960   -1.8591290   -20.0741600 -120.7625000
 		     -51.8128900  -26.2050200   -38.1822800  -24.0503500   -20.1921500 -120.0652000    -1.6591070   -1.5714740
   47533210000    -0.8032287   72.5292900   -16.3084600  -16.5852500   -51.1956200  -44.4198200   -48.0984700  -25.5426800 
 		     -16.3608300  -14.8942500    -0.9404883   72.5659200   -46.6679200   -7.2095680   -49.7053600  -40.9790200
 		     -48.5340300  -10.3176900   -41.7056500  -59.7817200    -1.7542290   -1.8266500   -20.0318300 -119.5937000
 		     -46.4606100    7.6771650   -40.7867800   23.4732100   -19.9926600 -120.3524000    -1.6819690   -1.6535070
   47603200000    -0.9143333   72.3385200   -16.1699100  -13.9855800   -47.9263400  -21.9603800   -49.8168500   -3.0270470 
 		     -16.2103800  -14.9542000    -0.8057609   73.3705600   -48.6859200   12.2455900   -51.7026900  -18.4658700
 		     -47.4641000  -17.9794800   -48.5320800   79.9772100    -1.7061510   -1.9511020   -19.9038000 -120.6040000
 		     -44.1359900  -75.4344100   -43.7167000  -44.0230300   -19.9774200 -121.5309000    -1.6599860   -1.9700250
   47673190000    -0.8595473   71.8873700   -16.3796800  -17.0800900   -47.8769300   -0.7141461   -47.8662000   -2.8195570 
 		     -16.3421200  -17.1195500    -0.7850092   71.3995200   -48.1273800    3.4965470   -49.1647700  -13.8851900
 		     -45.0044400   -8.9597740   -45.9905300  -30.9755200    -1.7101120   -2.7641270   -19.8643600 -121.0243000
 		     -48.8895400   43.2894000   -51.3567700   13.5872500   -19.9604200 -122.5711000    -1.6767450   -2.3643150
   47743180000    -0.8135808   72.3407400   -16.3787800  -16.8739100   -50.3216300  -11.6079900   -49.8729400  -29.7852300 
 		     -16.2284700  -16.6632800    -0.9535208   71.7737600   -49.1768100    9.5257320   -48.8785400  -27.7728000
 		     -43.5029100   -0.8547709   -45.5957400  -15.7151400    -1.7438690   -2.3779490   -19.8752300 -121.0894000
 		     -43.7952800    0.5021677   -45.7293500 -103.8272000   -19.9137800 -121.5094000    -1.6625100   -2.5408190
   47813170000    -0.8653862   72.0708200   -16.4618500  -14.6845300   -49.7348700  -35.5552200   -51.6893400  -21.3497900 
 		     -16.4034900  -15.0217200    -0.7466408   72.0523100   -47.3819000  -19.5363500   -51.9824600  -27.4185000
 		     -44.4415100    2.6720050   -48.3891300  -22.3732700    -1.7433890   -2.8952560   -19.6730200 -122.0903000
 		     -53.4885400  -22.7534400   -43.2859000   10.5187800   -19.7904900 -121.7627000    -1.7135930   -2.8710760
   47883160000    -0.8897356   71.8899400   -16.2414100  -17.4419700   -54.3515900  -19.5492300   -47.8562200  -29.7542900 
 		     -16.3735000  -17.4402700    -0.8295203   71.4315100   -51.4917200  -10.5449200   -48.3638900  -52.5085900
 		     -46.9148300  -34.7449300   -49.5681300  -13.9098900    -1.7342580   -3.1790400   -19.7557800 -121.9658000
 		     -49.7886000  -35.4856900   -47.3000900  -92.3811300   -19.6859100 -121.1488000    -1.6639550   -3.0105570
   47953150000    -0.8769917   71.7831900   -16.0597400  -16.5144900   -50.4544400  -22.7470500   -47.1414500   -2.9418670 
 		     -16.3366500  -16.4336800    -0.9476931   71.3618500   -49.0287200  -18.8043700   -47.2677600   -2.6843650
 		     -46.3090900   15.5712600   -48.4512000    8.6024480    -1.7554870   -3.3591600   -19.5584700 -122.5388000
 		     -46.4561500    2.5857060   -38.1512100  -56.4659000   -19.6408600 -122.3883000    -1.6943970   -3.5061260
   48023140000    -0.8407480   71.2594500   -16.5455500  -16.3845600   -46.2989300  -24.1820000   -49.3500500  -36.7131700 
 		     -16.4940700  -17.5660100    -0.9053029   71.2237300   -46.9190600   -5.6028090   -50.2716600  -21.7536900
 		     -47.2146900   38.7250800   -46.9498100  -17.2873700    -1.7460940   -3.5789120   -19.7659000 -121.6105000
 		     -50.0976300   24.6132800   -45.2306600    8.1373480   -19.5564900 -122.1751000    -1.7234170   -3.5063840
   48093130000    -0.7884370   71.3889100   -16.2447100  -16.4261800   -48.3269800  -22.4545500   -48.8734100  -20.9551600 
 		     -16.4208900  -17.6374400    -0.7604495   71.1146900   -50.4707300   12.0794400   -54.3348100  -34.2824700
 		     -45.6880000  -23.1440300   -43.0189300   30.1879300    -1.7398800   -4.0483300   -19.4064100 -122.8462000
 		     -59.5324300    2.4062660   -58.6057400  -13.0637900   -19.3427700 -123.3133000    -1.6522960   -3.9969720
   48163120000    -0.8197591   71.4429900   -16.6160200  -18.0515300   -50.1783800  -29.9270300   -47.0381000  -21.9413700 
 		     -16.3915500  -18.7899300    -0.8612087   69.6871600   -47.5550400  -21.9412400   -47.4916000  -29.2627600
 		     -44.5229900  -24.4394200   -44.1317500  -55.7674000    -1.7831590   -4.1908670   -19.5817900 -123.5874000
 		     -47.4142200  -42.9673500   -48.5874000   61.5257900   -19.5623200 -123.8640000    -1.7102930   -4.5398050
   48233110000    -0.9321466   70.9090400   -16.6077700  -19.7668900   -48.1274900  -20.5319600   -49.5781900   -6.9396000 
 		     -16.6435500  -15.4738300    -0.7425814   71.3787700   -52.1848100  -14.4114500   -49.5113000  -31.3668700
 		     -50.7065000   -2.2270730   -48.0690600  -63.3084200    -1.7666620   -4.3429830   -19.3963400 -123.4472000
 		     -45.5383800  -19.8311500   -42.5137000   47.0615100   -19.3427800 -123.4271000    -1.7334730   -4.3273850
   48303100000    -0.9452564   70.6413200   -16.0222600  -16.7258200   -47.8712900  -29.4605800   -49.0383700  -27.7730200 
 		     -16.2528600  -16.8918100    -0.9254586   70.9052900   -49.2861000   -8.6650900   -50.1364800  -41.8464900
 		     -47.7621700    0.4618039   -52.4056500   85.9427900    -1.7836470   -4.6514630   -19.3951200 -124.6684000
 		     -45.1914300   58.8494900   -46.2290200    6.2698400   -19.2220000 -123.1978000    -1.6662150   -4.9354500
   48373090000    -0.8617356   70.9886400   -16.5874700  -16.3626900   -51.0519600  -29.1119700   -48.7357100    2.0445520 
 		     -16.5745500  -17.2858700    -0.6769283   70.9430600   -49.1015000  -17.5024400   -46.8340700    4.9411950
 		     -49.8746600  -66.8703400   -46.1815000   37.5502400    -1.7825810   -4.9766340   -19.2890200 -124.0874000
 		     -51.3079900   46.4374500   -42.5666200   -6.3313720   -19.2473300 -124.6861000    -1.7410880   -5.3376200
   48443080000    -0.8675364   70.3856400   -16.4125800  -15.5737700   -47.5041300  -29.8997800   -50.2473500   -3.7587070 
 		     -16.5375100  -17.8667900    -0.7234100   71.1513800   -49.6861300  -31.0970400   -50.1335400  -18.4989200
 		     -44.5719900  -55.2664100   -44.7082400   27.9641600    -1.8112220   -5.0420200   -19.2088800 -124.9656000
 		     -58.6938900   64.1571000   -57.3168000 -125.5296000   -19.1983100 -123.7340000    -1.7297620   -4.8772610
   48513070000    -0.9300652   70.7429900   -17.0749700  -15.4498500   -49.2061500  -25.2570800   -49.6066400  -28.8604000 
 		     -16.7210800  -18.0610600    -0.7759695   70.3316300   -49.0964200   -6.4685740   -54.8618900   -2.7747920
 		     -46.7772700  -26.4411700   -45.5335300   64.5594000    -1.7742910   -5.6130140   -19.0569700 -123.3525000
 		     -42.9195400  -20.4002600   -44.9772100   -7.7173690   -19.3301900 -125.0141000    -1.6774960   -5.7397170
   48583060000    -0.8338820   70.1663000   -16.3957100  -13.7937600   -47.6798600  -23.3370900   -44.0724200  -12.8933600 
 		     -16.4292400  -18.7601400    -0.5532070   70.8194700   -46.7684200   -7.2512640   -44.1077500  -47.0128600
 		     -49.3279500   -0.7326236   -45.0877800   99.5410200    -1.7886890   -5.8559700   -18.8667200 -124.6124000
 		     -51.0693100  -39.3605300   -51.7649500  -15.9088800   -19.0351800 -125.4709000    -1.7645720   -6.2066210
   48653050000    -0.8948544   69.9431600   -16.9760100  -16.3590600   -49.7243000  -14.3869500   -50.5089200  -20.2230200 
 		     -16.4360600  -16.2280000    -0.8169563   70.2408300   -50.7032100   16.1976000   -46.2053600  -16.6446600
 		     -46.2071300  -45.7834700   -37.7611300  -67.7307400    -1.8177440   -5.8851800   -18.9805300 -124.8994000
 		     -43.0381600  -24.5437700   -45.2948200  -76.4525000   -18.9672400 -124.7570000    -1.7241730   -5.9079550
   48723040000    -0.8099007   70.3734700   -16.7473900  -16.4146500   -49.1072500  -11.2854300   -52.2890500  -17.3921600 
 		     -16.5285200  -17.0009000    -0.8208454   70.1617100   -48.0848900  -29.2356500   -50.3739700   -0.4767316
 		     -45.4552700  -26.4481700   -48.2753900  -24.0486300    -1.7881400   -6.4419360   -18.9376900 -125.7024000
 		     -44.9353300  -44.5245100   -41.7324400  -49.4260600   -18.8459000 -126.1932000    -1.7085580   -6.8086740
   48793030000    -0.8887810   69.8021500   -16.3231500  -16.5786500   -46.3268400  -25.3736900   -48.5151700  -17.2410300 
 		     -16.5078900  -17.7101600    -0.6855705   69.5380200   -55.4217900    3.6353210   -51.4113500   -5.5530240
 		     -49.7679700  -14.6687600   -40.8682900   39.5847400    -1.8223620   -6.7953040   -18.8434700 -125.2786000
 		     -47.7907300  -41.1768100   -47.8993900  129.9011000   -18.7595900 -125.4245000    -1.7751850   -6.8656490
   48863020000    -0.9265267   69.9446900   -16.8293100  -16.5174900   -46.6831000  -40.0191600   -45.2507800  -23.8153400 
 		     -17.0764600  -17.3365500    -0.7205128   69.6476200   -47.7270900  -28.1109500   -52.2799600  -38.8612100
 		     -45.5991000  -29.0650700   -43.7104800  -29.1306200    -1.8378240   -6.7019810   -18.8089000 -125.5620000
 		     -42.8498700  -36.8472400   -46.0367400 -124.8305000   -18.7863100 -126.3913000    -1.7494660   -6.7036320
   48933010000    -0.8728099   69.6348000   -16.4588500  -18.3757000   -50.4952500  -25.9195000   -52.8211800  -71.8527200 
 		     -16.8070000  -18.6416500    -0.6174382   69.6509700   -45.0640300  -13.9437700   -48.1581000    0.7486030
 		     -44.6771600  -12.3291900   -45.0706800  -32.0274400    -1.7847110   -7.4583860   -18.8661500 -125.5735000
 		     -42.3939900  -31.5198300   -43.6063300  -28.4272300   -18.7282200 -127.3686000    -1.7203550   -7.4405980
   49003000000    -0.9130382   69.2487800   -17.3355100  -18.2655200   -47.8503300   -2.9297590   -47.9724700  -12.9076200 
 		     -16.7693400  -21.1922500    -0.7586420   70.6684300   -50.3180300   24.9766200   -44.9549900  -14.9387300
 		     -47.1746800   -4.1361380   -39.3398100  -69.6588700    -1.8439510   -7.7292680   -18.6167800 -126.5953000
 		     -47.8164300  -18.6550000   -40.8863200  -31.1786400   -18.6194900 -126.6148000    -1.7546770   -7.5724730
   49072990000    -0.7666471   69.4777800   -16.8118100  -18.0771800   -51.4969100  -47.8889000   -49.9369200  -22.2772400 
 		     -16.7040700  -19.5644000    -0.8791362   68.6551700   -47.2114200  -49.3844600   -46.3067200  -11.1427300
 		     -46.6570300  -53.7907800   -43.0558200  -64.9178600    -1.8558270   -7.6774630   -18.5698800 -126.8644000
 		     -54.3961000   19.0739000   -45.4568400   20.2719500   -18.4980900 -126.3683000    -1.7684900   -7.7734770
   49142980000    -0.8815967   69.5466400   -16.7515200  -17.5888100   -45.2230600  -36.6611900   -50.9402800  -19.0753200 
 		     -17.2140700  -19.2093700    -0.8572367   69.4273200   -47.2178200   20.5560500   -44.9344400  -13.3895200
 		     -46.5596700  -31.6807300   -46.4693400  -15.7059300    -1.8245570   -8.2241590   -18.5415200 -126.9253000
 		     -43.6361800  -17.2508200   -43.8468400  -14.0375500   -18.4143700 -127.6475000    -1.7908120   -8.2694100
   49212970000    -0.8746037   69.3869800   -16.7032400  -20.0927300   -47.4139600   -3.5860420   -51.3065500  -38.2701300 
 		     -16.5138000  -19.3561200    -0.9048641   68.0169100   -50.2563200  -14.7913600   -50.0061100   -4.1694850
 		     -42.8809600  -18.0928600   -38.6761300 -120.4857000    -1.8697690   -8.5614060   -18.5358700 -127.8442000
 		     -43.4554200  -23.6884800   -41.5829500   -9.6205190   -18.4793200 -127.9600000    -1.7712240   -8.5984690
   49282960000    -0.8540425   69.1856400   -16.7978100  -18.8379700   -47.5396700  -24.7251600   -47.1196700    1.6403290 
 		     -16.6263300  -19.0048200    -0.8022891   67.5191600   -46.4153500    0.2033481   -49.9329600  -46.6232800
 		     -47.1854600  -25.2473100   -55.5078800  -69.1532100    -1.8630630   -8.5892010   -18.3966300 -128.4568000
 		     -46.6883900  -72.8743400   -41.8235800 -140.0384000   -18.4524300 -128.6375000    -1.7813600   -8.8228920
   49352950000    -0.8752536   68.6615100   -17.3435900  -13.7387000   -47.4039400  -23.9708800   -44.9739700  -40.0656100 
 		     -16.9413600  -19.8315400    -1.0274420   69.8259600   -49.0272300  -24.0808500   -56.2103300  -15.2553900
 		     -42.3361600  -27.7002100   -48.2633600  -74.7764900    -1.8534300   -9.2636500   -18.2958800 -127.4173000
 		     -42.8122900  -12.7464600   -43.1758600  133.0448000   -18.5173700 -128.9091000    -1.7831440   -8.8611230
   49422940000    -0.9084789   69.0220800   -16.8502700  -18.0272100   -46.6101500  -26.4651600   -45.4989800  -36.9155500 
 		     -16.4087600  -18.2249500    -0.6694890   68.3148300   -50.3516900   -8.5337110   -48.7345300   29.2831500
 		     -43.9992900  -72.2915600   -44.0680900    1.7914090    -1.8681620   -9.1190450   -18.3319300 -127.5812000
 		     -45.8124500  -33.5818000   -50.6589800  107.8220000   -18.3038400 -128.4406000    -1.7689500   -9.3026650
   49492930000    -0.8705189   69.0466000   -16.9187400  -20.4813000   -46.8312700  -37.2425600   -46.1006400  -28.3596400 
 		     -16.5957100  -19.2672800    -0.6145348   67.7219900   -51.0053400   22.8497400   -51.1006700  -35.7151900
 		     -48.9744500  -37.4082700   -50.8967400  -89.0220300    -1.8538550   -9.4055690   -18.1865600 -128.9550000
 		     -46.7005200  -28.5350000   -45.4209900   52.9441600   -18.1022300 -128.5425000    -1.8282880   -9.8405390
   49562920000    -0.8944381   67.9546400   -16.8442600  -17.6611900   -45.6750300  -36.2487900   -52.0940400  -13.0552400 
 		     -16.6239200  -20.2148700    -0.7741225   68.1762700   -47.6120000  -10.0968100   -45.1844700  -20.4251000
 		     -51.6450100  -26.9455400   -44.3114400  -94.6607300    -1.8843980  -10.2358100   -18.2149800 -127.9683000
 		     -45.1343100    1.5788150   -42.7528700  103.2045000   -17.9868000 -128.6328000    -1.8432880   -9.9181270
   49632910000    -0.9404619   68.7408400   -17.0615900  -16.7485700   -49.7917300  -17.0788800   -47.9006200  -22.8431400 
 		     -16.8881200  -20.4815600    -0.5699983   68.2142900   -45.5125000  -49.1848200   -44.2341800  -10.8631400
 		     -43.6797900  -21.9034700   -41.5247800  -26.6775400    -1.9510990  -10.1355700   -18.1715000 -129.5995000
 		     -47.6720300    9.5092980   -41.6622500   39.0278700   -17.9366400 -129.0800000    -1.7584030  -10.7515700
   49702900000    -0.9377524   68.0746400   -16.8933200  -19.7827000   -60.0730700   22.1507300   -43.3581500  -11.0825900 
 		     -17.0381400  -19.6032800    -0.7542191   67.2114900   -45.5658800  -20.0607300   -44.4636800  -52.8438300
 		     -55.2450000    0.5224863   -50.6267300  -23.1918500    -1.8653810  -10.3141300   -18.0514800 -130.2386000
 		     -49.1004800  -25.5415300   -49.1416400 -139.5239000   -18.0217700 -129.7948000    -1.8794680  -10.9256600
   49772890000    -0.8781623   67.8311200   -17.0918400  -19.3535200   -53.6369900  -52.8966800   -45.2096700  -28.5151900 
 		     -16.9639100  -20.0662200    -0.7361168   68.3018400   -53.1582800  -23.5259500   -47.7051500  -28.6418600
 		     -49.8622300  -12.8639100   -41.5709300   12.3791200    -1.8924430  -10.9315500   -17.9113000 -129.7573000
 		     -46.6188300   16.3234800   -50.3049900    4.4891600   -17.9948100 -129.8069000    -1.7977420  -10.4249800
   49842880000    -0.8388852   68.3712300   -16.4723600  -19.5047200   -45.8025700   -7.4917880   -47.5017500  -27.7578800 
 		     -16.8773900  -17.9697300    -0.7729763   66.6986400   -51.6448900  -22.8039500   -45.1390400  -38.5573200
 		     -44.4763700  -40.8700900   -51.4296400   69.4795500    -1.9305920  -10.7408200   -17.9973400 -129.2040000
 		     -62.4002200  169.0061000   -54.5584100   81.0928300   -17.7018100 -129.7388000    -1.7992860  -11.7965300
   49912870000    -0.8025426   67.3408100   -16.8206200  -19.6516500   -50.7280800    7.6689270   -45.5156400  -30.5067300 
 		     -16.8999900  -20.4191500    -0.7374811   66.0437500   -48.3378800    7.0316930   -46.6956400  -62.4419000
 		     -49.7307800  -22.2379200   -57.2764800  -68.8627900    -1.8966240  -11.2269700   -17.8314200 -129.4358000
 		     -51.7487300  -21.7028300   -39.1293700 -129.1382000   -17.7866900 -130.3143000    -1.8820140  -11.5339500
   49982860000    -0.9705597   67.3563700   -17.2558000  -21.7141600   -47.4618600  -30.7588900   -48.8135800  -50.2768500 
 		     -17.1927700  -19.8039600    -0.7969662   66.9713100   -48.3317000   -2.1602900   -45.8269300  -30.9415100
 		     -42.2963900  -29.3431300   -47.2393800   22.6669900    -1.9529140  -11.8083600   -17.5497200 -130.9016000
 		     -48.8230900  -22.0670900   -58.6098300  166.3787000   -17.7164400 -129.7487000    -1.7992200  -11.3857800
   50052850000    -0.8234566   67.0951500   -16.9276500  -19.6181700   -45.5788100  -21.8651100   -48.0400200  -51.9589000 
 		     -17.0946500  -21.7132200    -0.8583813   66.8885500   -46.0568700    9.9005380   -50.2680600  -61.2521600
 		     -46.9221600   25.1197800   -42.3429800 -106.5093000    -1.9471260  -11.7766100   -17.7371500 -131.0701000
 		     -48.7758800  -55.0350900   -40.9367700  -80.0773000   -17.7555200 -132.0426000    -1.8543950  -12.4949000
   50122840000    -0.7707424   67.5967900   -16.5295800  -20.1181500   -45.7893000  -18.6778900   -44.8479300  -11.7318800 
 		     -16.8544200  -22.3609900    -0.6574103   67.0600700   -45.7721300  -35.0877000   -45.6650600   27.4345400
 		     -45.7560000    6.5727740   -60.5142100 -150.9600000    -1.9211670  -12.0917300   -17.6534000 -131.1145000
 		     -40.1427500  -38.3805200   -43.5828500    7.7683380   -17.6237700 -130.2811000    -1.9064530  -12.1792900
   50192830000    -0.8621501   66.7567700   -17.7036600  -22.8972000   -46.6132400   -6.3525430   -46.8809100   -4.9814980 
 		     -17.0770800  -22.9528700    -0.6974676   67.0760000   -47.7337300  -17.7652800   -43.9323200  -27.3632600
 		     -47.6024500  -14.1345600   -42.9528800  -68.2160200    -1.9668720  -12.5661000   -17.3720800 -131.4848000
 		     -43.3703900  -28.5389400   -48.2769400  -67.3821800   -17.5920900 -131.3470000    -1.8364360  -12.3004200
   50262820000    -0.8527598   67.1713100   -17.4622900  -20.2888900   -49.2393300  -26.7303900   -45.7872000  -14.3348700 
 		     -17.4220800  -21.8195100    -0.8555307   66.6758000   -45.1323500  -11.0723000   -44.3206200  -12.6120900
 		     -45.1740700  -19.8030500   -52.2503100  -57.0273900    -1.9381080  -12.4957500   -17.3662200 -132.7998000
 		     -46.0524400   -3.2928160   -41.9333000   19.2700300   -17.3818200 -131.6260000    -1.8817910  -13.2668600
   50332810000    -0.9108350   66.7503900   -16.9524400  -19.3050800   -46.7222800  -20.1301800   -45.7135400  -39.4560600 
 		     -17.4641600  -22.1053600    -0.9132583   66.7668200   -44.9493200  -13.2450100   -48.3881100  -31.2073400
 		     -50.3057400 -133.1758000   -51.9384200    3.4649060    -1.9734530  -12.9580900   -17.4061700 -132.0469000
 		     -51.5894900  -25.1490900   -56.6895700  -11.5896000   -17.1081700 -131.7266000    -1.9344660  -12.9148600
   50402800000    -0.9469194   66.5604900   -17.0637500  -19.9789600   -45.0802500  -51.6743400   -50.3439300  -83.6158700 
 		     -17.2200600  -22.9028000    -0.7765690   66.1619000   -47.6479000   -7.4178090   -48.4898000  -15.8295500
 		     -46.2020900  -12.4166700   -47.6174900  -87.3046600    -2.0258230  -13.3381400   -17.2551600 -131.5704000
 		     -45.0425400  -10.1773000   -50.2551300  -15.0460500   -17.2698400 -131.9658000    -1.9034720  -13.1129600
   50472790000    -0.8620424   66.2033800   -17.4460600  -21.9133900   -43.4332000  -21.6892800   -54.7396100   10.4389800 
 		     -17.3910600  -21.3718400    -0.9974710   66.5471600   -44.7360500  -17.2553200   -42.8873500  -15.2212700
 		     -42.6644700  -42.2640200   -43.1358400  -14.3962500    -1.9683020  -13.1328300   -17.2136500 -132.0464000
 		     -43.7296600   58.9874800   -43.1749500  -36.8986500   -17.0826400 -132.0645000    -1.9292600  -13.8304200
   50542780000    -0.8408771   66.2455300   -16.4462000  -22.0145200   -44.9946300  -48.3234400   -50.8937000  -62.7248600 
 		     -17.1354700  -20.8609300    -0.7821875   66.5762900   -45.3616100   -9.1214130   -51.1922400  -54.1376900
 		     -49.7230500  -40.4454200   -37.3725700   15.7542600    -1.9587860  -13.8421900   -17.2643700 -131.5609000
 		     -48.5087800   21.2704200   -38.5681000  -11.8563100   -17.1459000 -133.2673000    -1.9453350  -13.7907500
   50612770000    -0.9315252   66.8132300   -17.6958000  -22.6330200   -47.9317500  -36.0236400   -46.6477000  -33.2056400 
 		     -17.2375800  -23.6628600    -1.0833390   65.4770400   -48.1122300  -24.9444000   -48.5771000  -27.9017200
 		     -44.2072700  -45.7291000   -44.0631300  -54.9507400    -2.0155540  -14.0048900   -17.0214400 -132.0524000
 		     -42.7313400  -52.5579900   -42.1447400  -59.1164700   -17.0673100 -132.5355000    -1.9357220  -13.9793100
   50682760000    -0.9248160   66.2591800   -17.2011700  -24.1886300   -46.2619400  -38.1561500   -44.7472700  -28.5814600 
 		     -17.3711000  -24.5380200    -0.9745589   64.4495400   -45.1371200  -23.0871400   -40.3924900  -46.3062500
 		     -45.0586700  -52.4991600   -51.8232000 -114.2961000    -1.9889250  -13.9202000   -17.0226000 -133.5775000
 		     -52.0129400  -47.5036700   -55.7654300 -135.4961000   -16.9719700 -133.1730000    -1.9181980  -14.3765200
   50752750000    -0.9099150   66.0978700   -17.2902100  -25.3209100   -45.9784300  -52.6568400   -45.6892500  -39.8118200 
 		     -17.4841200  -23.1902400    -0.9445800   64.9291800   -47.4724500  -27.6103800   -44.9793700  -30.6711400
 		     -55.9027300   28.4051500   -64.6019100 -167.9417000    -2.0072440  -14.4466600   -17.0477700 -133.0005000
 		     -52.7205200  -41.3886300   -44.4018100   56.7729700   -16.8192000 -132.4715000    -1.9480480  -14.5446000
   50822740000    -0.9285929   65.7645300   -17.2008000  -22.0289900   -46.0235700  -52.6108100   -45.8863900  -38.9516900 
 		     -17.3741500  -23.7118700    -0.9117489   65.3604500   -45.7067200  -33.7754300   -49.3326600  -20.6487800
 		     -44.3372200  -34.0011100   -56.0983200    1.9161270    -2.0055290  -14.8163700   -16.8117200 -133.7865000
 		     -45.9033100  -73.0300700   -40.6873200  -31.2737100   -16.8852400 -133.3942000    -1.9371530  -14.8211700
   50892730000    -1.0468700   65.0320800   -17.6343100  -21.6500100   -45.8447600  -34.8195000   -46.9983700  -39.4822100 
 		     -17.7174200  -22.4905600    -0.6978825   64.9895300   -43.0713600  -19.8071300   -45.4235400  -25.0120000
 		     -43.8898100  -28.6403900   -45.5390600   26.3955700    -2.0314020  -14.9454900   -16.6864500 -133.7057000
 		     -46.2929700  -42.8418800   -48.8245600   19.2990800   -16.7839900 -133.9098000    -1.9393390  -14.7525000
   50962720000    -0.9594392   65.7022100   -17.4071200  -20.9537700   -49.1656300  -49.5782200   -45.7967100  -35.0514300 
 		     -17.7748400  -21.0255600    -0.7443241   66.4831800   -47.9854200  -20.7573000   -49.4809300  -30.2504100
 		     -44.6968100  -43.2821300   -45.6408000  -61.7893000    -2.0026300  -15.0847600   -16.7880000 -133.3785000
 		     -43.2529400  -13.0886400   -40.0197600   -3.5338350   -16.7255800 -133.9313000    -1.9703440  -15.5642900
   51032710000    -0.8447537   65.3794400   -17.3302100  -20.5704700   -48.0516600  -49.0625600   -44.7343600  -33.1530000 
 		     -17.6720100  -24.7205800    -0.7666054   65.0170700   -48.7112400   -4.5673190   -46.8562700  -35.4442700
 		     -40.8643800  -35.4973800   -42.5947200   -4.6997800    -2.0192900  -15.8312600   -16.6296900 -134.2449000
 		     -45.0999800  -83.3045500   -46.4836400   26.5991700   -16.6743800 -134.7026000    -1.9621160  -15.6165100
   51102700000    -0.8448830   65.6044800   -17.1883500  -23.3260500   -45.6253500  -52.0206500   -48.4640200  -23.2204800 
 		     -17.7372000  -22.5007800    -0.8940157   64.6121400   -48.0179500    5.7976970   -50.4857100  -30.6883700
 		     -45.5217300  -38.4920300   -45.9830400  -83.0596400    -2.0524550  -15.6153900   -16.6566600 -134.5172000
 		     -43.2717000  -20.0606400   -42.8701900   20.8249500   -16.5683900 -134.8489000    -1.9336030  -15.8200300
   51172690000    -0.8111539   64.8931700   -17.1270200  -24.3989800   -44.2392700  -34.7832300   -44.4235400  -17.1053400 
 		     -17.1111600  -23.7388800    -0.6610143   65.0309600   -44.7321400  -29.2598800   -47.3268900   -2.3777930
 		     -42.7929600  -34.3883000   -42.9420000  -66.1532500    -2.0260930  -15.9216400   -16.5556400 -133.7418000
 		     -44.6546900  -24.1361900   -39.7895700   13.7297800   -16.5710500 -134.8052000    -1.9701890  -16.4416800
   51242680000    -0.8777007   64.6073100   -17.8402100  -22.5983500   -45.5787000  -17.5419100   -44.0790700  -47.1631300 
 		     -17.4311200  -24.3730600    -0.8993024   63.6897400   -43.6442500  -42.1434700   -43.1869400  -14.9918700
 		     -42.2802400  -46.1565100   -43.8441300  -37.3353900    -2.0193100  -16.3767500   -16.5400500 -134.9183000
 		     -48.2541400  -16.3688000   -47.5030300  -17.3973700   -16.5405500 -135.2594000    -1.9922050  -16.3261400
   51312670000    -0.9398010   64.8320800   -17.9129900  -23.7622500   -45.8839000  -14.2869300   -45.8638700  -31.5999700 
 		     -17.6701400  -22.2880100    -0.8500820   64.4362600   -46.5066900   -7.6771800   -46.1480100  -12.8584600
 		     -46.0588500  -58.6742100   -40.4571000  -12.9643400    -2.0663800  -16.3419600   -16.4937700 -134.8466000
 		     -44.7871100    7.5880430   -44.6413800    5.1167670   -16.4659000 -135.7952000    -1.9310470  -16.7799600
   51382660000    -0.8292383   65.2210900   -16.9364000  -24.5485800   -44.0066900  -43.3875700   -42.6526300  -27.9772000 
 		     -17.4805900  -24.2749100    -0.6064020   63.8093800   -45.4607400  -22.2015800   -45.3085900  -33.9149700
 		     -46.3499600  -47.0701600   -46.0012400  -33.9674800    -2.0244770  -16.8248600   -16.2138000 -135.4310000
 		     -42.7038000  -44.8321700   -42.2761900  -30.3723900   -16.4285600 -135.3246000    -1.9849080  -17.1874500
   51452650000    -0.8926993   64.4267900   -17.1905700  -22.1234700   -46.9821900  -34.7139000   -47.4643900  -38.3786800 
 		     -17.7500900  -22.8726300    -0.9105711   65.2850700   -46.4630900  -42.6356700   -44.0754400  -19.2029100
 		     -46.2775300  -52.2771200   -43.9979000  -20.7104700    -2.0608540  -17.2055300   -16.3304200 -136.0976000
 		     -40.6400700    0.4312444   -41.3550600  -37.1994400   -16.1480400 -135.7367000    -2.0000150  -17.1549100
   51522640000    -0.8811083   64.0868500   -17.5688600  -27.9795900   -44.9080500  -26.8560700   -46.0927000  -39.9714800 
 		     -17.6348500  -22.9866900    -0.7922829   64.6357500   -46.5777200  -39.1751200   -45.2039600  -36.8411900
 		     -43.7211600  -55.3404600   -45.7674600 -101.7122000    -2.1012770  -17.0833300   -16.2019100 -135.4329000
 		     -43.7026200  -42.7506000   -38.5444100  -21.2339500   -16.2597100 -135.9492000    -1.9569810  -17.5122900
   51592630000    -0.8839958   64.6885100   -17.9960200  -22.4078300   -45.9647300  -39.7179500   -44.3628100  -35.7764300 
 		     -17.9004500  -24.3146200    -0.8893442   63.5365400   -46.3824400  -23.7640300   -41.7138600  -39.8817500
 		     -45.8336000  -41.2681100   -49.3324300   29.0063900    -2.0651340  -17.4601100   -16.1187500 -136.1926000
 		     -43.2076600  -36.5328400   -49.7427400  -85.1588800   -16.1780300 -136.0759000    -2.0063900  -17.8752600
   51662620000    -0.9754759   64.1528100   -18.0635500  -22.9592300   -47.3178300  -24.8753400   -42.9286500  -30.4341400 
 		     -18.0176700  -23.0607100    -0.8626104   63.4395600   -53.4505700  -16.3835900   -43.8373100  -31.6856600
 		     -47.4048800    1.1288910   -42.7884800  -36.8577600    -2.0562210  -18.1159000   -16.1266600 -136.2888000
 		     -44.3408500  -27.3544600   -45.7877400   10.2871600   -16.0011700 -135.8746000    -2.0266670  -17.8867100
   51732610000    -0.9527589   64.4100600   -18.0268900  -23.9821100   -46.0015100  -38.2273800   -46.1593700  -33.3941200 
 		     -17.6487600  -21.9720800    -1.0187920   65.1128100   -44.2408500  -41.5690200   -43.9192800  -31.8835600
 		     -50.2094400  -59.1467800   -58.9321700 -113.3976000    -2.0929310  -18.0607800   -16.0603200 -136.9281000
 		     -44.2555500  -19.6822300   -40.0344400  -24.2430900   -16.0742600 -136.6046000    -1.9542280  -18.2432500
   51802600000    -0.8341587   64.2376400   -17.4511300  -20.8878500   -45.4136800  -38.4658200   -48.0875400  -57.9949300 
 		     -17.5095200  -22.5014100    -0.8531971   64.4393300   -48.1856500  -29.1880300   -47.2519500  -16.8470900
 		     -50.9921500  -76.8587700   -46.0019500   -8.1891300    -2.0787250  -18.2736500   -15.9575600 -137.0792000
 		     -46.6482500  -76.7164800   -40.3425600   46.3834500   -15.9831200 -137.4044000    -2.0088320  -18.7612900
   51872590000    -0.8840331   63.6301500   -17.3433100  -20.8477900   -46.9680300  -36.6263200   -45.2389300  -32.2937700 
 		     -17.6917700  -24.0147500    -0.8184994   64.1438500   -46.6896700  -38.9069900   -43.1914600  -38.0304600
 		     -48.2233400  -85.4489700   -42.8820700  -60.1892500    -2.0971770  -18.6474800   -15.8997200 -137.0620000
 		     -42.4271800  -42.0060500   -47.5722400  -30.2943900   -16.0614600 -136.7835000    -2.0644170  -18.5042900
   51942580000    -0.9076107   63.1472900   -17.4997600  -26.6227700   -45.9933500  -54.0080100   -43.5508700  -39.7557600 
 		     -17.7832400  -28.6216300    -0.8323547   63.3037600   -46.9405100  -31.2636900   -43.1631500  -24.8974100
 		     -45.6447900  -37.8797700   -42.3474000  -27.1530300    -2.1155210  -19.0181000   -15.7581000 -136.5611000
 		     -40.8140400  -29.7398800   -52.4442000  -56.8625800   -15.8698000 -137.4927000    -2.0174790  -18.9207900
   52012570000    -0.8473778   63.7238000   -18.1965700  -26.3148500   -44.0536300  -47.3219000   -43.7400000  -18.3392700 
 		     -18.0140900  -23.9802400    -0.9681375   62.5056700   -47.5590500  -43.3222200   -48.8497200  -19.2883100
 		     -41.2163500  -57.9115400   -43.7141800   -9.4822690    -2.0928570  -18.9258000   -15.7054000 -136.8823000
 		     -44.1669500  -44.5877500   -46.1789000  -38.1123200   -15.8825400 -137.6760000    -2.0286510  -19.4755200
   52082560000    -0.9385561   63.4980200   -18.1391900  -26.9505100   -44.8479400  -30.9017000   -46.7940600  -54.3057500 
 		     -17.8654600  -26.4940000    -0.7763867   61.9879100   -46.2567200  -22.8989100   -48.7244800  -45.8455700
 		     -42.7262300  -21.5429200   -48.0099500   82.3557200    -2.1098460  -19.6345500   -15.8037100 -137.8974000
 		     -43.9504500  -47.1265500   -46.4931800  -22.7517700   -15.8825500 -138.3421000    -2.0726830  -19.2999000
   52152550000    -0.9030899   62.7032300   -18.5327700  -27.0423000   -44.8361000  -43.1542700   -44.9037800  -26.5501300 
 		     -18.0700200  -28.5133600    -0.9979098   62.2587300   -46.5324100  -29.2642500   -45.8979800  -26.1314700
 		     -44.0435200  -35.9839300   -50.5583000  -26.3232700    -2.1164800  -19.5532000   -15.6279700 -137.9694000
 		     -42.7488700  -29.2700100   -41.6596600  -38.7200500   -15.6842600 -137.9482000    -2.0142660  -19.6612600
   52222540000    -0.8875138   62.6311700   -18.1649800  -30.3855200   -44.9114800  -25.8299000   -43.4630900  -29.0243800 
 		     -17.8663900  -28.4468600    -0.9087584   61.8237500   -46.9950700  -22.8590500   -42.7134100  -27.4600900
 		     -47.3787500  -25.7639000   -47.8393000   26.5509600    -2.1167970  -19.7484600   -15.5330100 -138.5607000
 		     -44.9818400  -19.7152300   -50.1052200  -90.8550600   -15.6063400 -138.2442000    -2.0266380  -20.5528100
   52292530000    -0.9288362   62.4014200   -18.2562400  -23.9504900   -43.9405900  -43.4975100   -42.5000700  -43.5042500 
 		     -17.8551300  -25.6908600    -0.9951510   63.0239600   -49.6344300  -13.4399000   -48.6974900  -49.5262100
 		     -49.8652400  -12.1307500   -43.6384500 -114.0887000    -2.1429020  -20.4551300   -15.5577300 -138.1091000
 		     -41.4133100  -25.9303700   -43.1755000  -40.3536400   -15.5596600 -138.0897000    -2.1169200  -20.2501500
   52362520000    -1.0334570   62.7609200   -18.5141800  -27.4716600   -46.0714300  -39.8747900   -44.1312100  -57.2607200 
 		     -18.1373900  -28.5064600    -0.7428830   61.7438700   -46.2812100  -51.2875900   -44.3463400  -38.5803300
 		     -48.8191000  -20.9090000   -43.1530000  -20.2749900    -2.1573570  -20.3322900   -15.4063300 -138.3672000
 		     -50.2825700  -28.9673500   -46.0661100   -8.8815730   -15.4284600 -138.2775000    -1.9781460  -20.6130700
   52432510000    -0.9054824   63.1089600   -18.2287300  -23.7441500   -42.5235500  -39.3933400   -42.3526800  -48.7462200 
 		     -18.0723200  -28.2401400    -0.8229429   61.7434400   -49.2179400  -64.2305100   -44.3357500  -29.2919200
 		     -41.5432500  -78.6818000   -39.8472100  -74.2215300    -2.1259050  -20.7088100   -15.4701700 -139.0658000
 		     -42.1642700  -50.5393100   -45.0603600 -122.7455000   -15.4634100 -138.3500000    -2.0522430  -21.6976000
   52502500000    -0.9951338   62.6351300   -18.0566800  -26.4088400   -43.3963200  -54.7298900   -45.4367900  -38.2015800 
 		     -17.9968600  -26.2649800    -0.8452895   62.4370700   -46.0474000  -53.4851300   -44.0773400  -34.3465100
 		     -42.0152000  -18.7306600   -51.8172100  -34.1447900    -2.1384390  -21.3419300   -15.3092800 -138.9428000
 		     -46.9271500  -28.3589500   -39.8593800  -51.8671600   -15.3858800 -138.6906000    -2.0957660  -21.1009800
   52572490000    -0.9917455   62.3664200   -18.0105800  -24.6245900   -43.1186600  -54.0677800   -45.8056800  -41.2993600 
 		     -18.2723100  -25.9936800    -0.6421553   62.8091500   -47.4374400  -26.4395000   -43.6943700  -52.4894400
 		     -47.8251300  -33.1096100   -41.7800500  -95.9058100    -2.1848130  -21.1667600   -15.2493700 -138.7664000
 		     -43.7535300  -59.9093300   -40.0288600  -57.8933200   -15.2982700 -138.3169000    -2.0191940  -21.4056500
   52642480000    -0.8529705   61.8867300   -18.5696000  -29.5672800   -46.7614600  -47.4539700   -50.4393300  -49.7953900 
 		     -18.2743300  -29.9290300    -0.8179781   62.2397100   -42.3097200  -50.8699300   -43.6230500  -45.4365700
 		     -45.6627900  -55.2711300   -36.3844000  -33.4423600    -2.0981460  -21.6497500   -15.2956700 -139.3297000
 		     -45.9628300  -16.3550400   -46.1016700   -6.1636920   -15.2151400 -139.4245000    -2.0875620  -22.6535600
   52712470000    -0.9288526   62.1982700   -17.9119900  -28.2400200   -43.0871200  -43.5161400   -43.3149200  -57.2346000 
 		     -17.6066400  -26.6690100    -0.7206085   61.6405400   -53.7389200  -30.6890800   -43.8539400  -49.5020000
 		     -46.7486200  -16.6207900   -48.6717600   19.1139900    -2.1890820  -22.3086700   -15.2691400 -139.3284000
 		     -46.2973300  -39.7434600   -40.0558800  -59.0152500   -15.0168400 -139.6300000    -2.1478030  -21.9160600
   52782460000    -0.9711624   61.6676300   -18.0987900  -27.0505500   -43.6450700  -57.2638900   -43.0655100  -47.6033900 
 		     -18.2134000  -26.7452900    -0.7382181   61.0518800   -45.5674100  -46.5488600   -43.7462200  -36.0297400
 		     -43.5244800  -77.2713000   -40.3780100  -50.3110800    -2.1847520  -22.0645600   -15.0288100 -140.8863000
 		     -44.6318100  -49.9761700   -39.0414500   16.9616100   -15.2106900 -139.8288000    -2.0096810  -22.4585400
   52852450000    -0.9474909   61.7792100   -18.1118600  -28.1989300   -46.6364600  -61.8280600   -45.8838200  -21.9955200 
 		     -18.7295500  -31.0237300    -0.9375088   60.9009600   -41.7785200  -30.6704100   -43.1713800  -33.5432600
 		     -42.1691600  -34.0975400   -37.0821800  -41.7429400    -2.1083190  -22.6230900   -14.9718000 -140.4595000
 		     -43.2279600  -56.2068900   -40.9422100   -4.5122050   -14.9384300 -140.7295000    -2.0844380  -23.4818700
   52922440000    -0.8361089   61.0831000   -17.9968600  -26.4734300   -42.1865100  -56.7665400   -45.2102400  -45.1078700 
 		     -18.5080100  -28.4978800    -0.8670794   61.1346800   -43.9541500  -28.6279300   -43.4618800  -40.3751100
 		     -47.4308000  -62.3437700   -41.3063200 -108.9582000    -2.1908500  -22.9574000   -15.0422100 -140.7689000
 		     -46.9321000  -34.9148100   -43.0598900  -51.3655900   -15.0352900 -140.2042000    -2.1058390  -22.7883200
   52992430000    -1.0056180   61.3699400   -18.9683300  -30.1805800   -45.7657500  -67.9431500   -45.6229800  -53.0251000 
 		     -18.5391900  -27.6067600    -0.9382833   60.8343500   -46.8767500  -51.2556100   -45.1602600  -37.0749100
 		     -43.1415900  -70.7320200   -40.6734500  -71.4842500    -2.1794790  -22.9227300   -14.9032800 -141.2199000
 		     -41.3536000  -27.9423500   -41.2665100  -61.7837800   -14.9012300 -140.3665000    -2.0212250  -23.5377700
   53062420000    -0.9106457   61.3693800   -18.2473200  -31.6659900   -45.5389700  -43.6601700   -44.6303500  -45.8675300 
 		     -18.5656000  -27.6347700    -0.9362829   61.0818900   -43.7992700  -26.7801900   -42.3279000  -30.6350500
 		     -47.6107000  -64.8536700   -38.4002900  -39.2281900    -2.1915290  -23.5464600   -14.7887200 -140.5080000
 		     -43.3068600  -59.3173000   -48.1343500  -63.7643800   -14.8313500 -141.0388000    -2.1602660  -24.0489500
   53132410000    -1.0092790   60.8890200   -18.4215200  -29.4967800   -43.2340000  -38.8911300   -44.0864400  -54.1024400 
 		     -17.9397000  -29.0125100    -0.9943712   60.9711000   -43.6280500  -45.5870500   -43.9849800  -51.8636600
 		     -45.3269400  -53.2530900   -42.5253800  -59.2220700    -2.2233380  -23.7206000   -14.8607700 -140.0509000
 		     -43.6844700  -78.6326700   -45.7827700  -16.1112100   -14.8113500 -140.6314000    -2.1044190  -23.3569700
   53202400000    -0.9366184   60.9630100   -18.3245500  -25.6409800   -47.1330300  -58.3951400   -43.7757600  -47.3545200 
 		     -18.3764100  -29.8784500    -0.9249178   60.3508700   -43.2716800  -30.4779900   -42.2825000  -36.1304800
 		     -46.1214000  -70.6646800   -40.2370400  -75.5527600    -2.2078500  -23.7430500   -14.6201100 -141.7002000
 		     -44.8787300  -58.6630700   -56.4500400  -66.8818800   -14.6306900 -141.9703000    -2.1072540  -24.3425500
   53272390000    -0.9837724   60.1499100   -18.1327600  -31.6186700   -46.2280000  -59.3940000   -43.5578500  -52.9080500 
 		     -18.2877800  -27.8636300    -0.8357543   60.6518500   -40.5058800  -44.1657000   -39.6848200  -43.5744000
 		     -49.7497600  -61.3980400   -53.0949600   45.0144800    -2.1809900  -24.5645200   -14.6473200 -140.9945000
 		     -42.8905900  -60.7793800   -40.0375400  -66.9364200   -14.5959400 -141.9268000    -2.1945330  -24.4628300
   53342380000    -1.0106520   60.3926500   -18.2565700  -26.1964500   -44.4438200  -58.2481300   -43.8356900  -47.7471800 
 		     -18.2354100  -31.3467000    -0.8724912   60.6830900   -44.3198700  -60.5701800   -42.2311700  -41.1212800
 		     -40.4561900  -66.5884600   -50.0895700   28.7434600    -2.2662790  -24.5961200   -14.5912800 -141.1511000
 		     -44.0558200  -37.7052800   -47.1077200  -89.5197500   -14.5420000 -142.1029000    -2.1146440  -24.5116900
   53412370000    -0.9408792   60.2476300   -18.2488200  -28.6879000   -41.6712300  -43.1308400   -43.4999300  -60.6758000 
 		     -18.5211900  -28.8759800    -1.0367790   60.2461300   -41.1221400  -58.8339900   -38.9500000  -43.9598500
 		     -47.3414000  -15.4387800   -43.8827300   15.2739600    -2.1669770  -24.6223900   -14.6422000 -141.4980000
 		     -47.7359500  -66.1670800   -42.7687100  -21.4435300   -14.5934100 -141.9194000    -2.1367170  -25.1730800
   53482360000    -0.8549662   60.1903200   -18.3293900  -34.6981300   -47.0465900  -45.4145400   -43.9927900  -48.0606800 
 		     -18.7054700  -30.8183400    -0.9153854   59.3485600   -41.0654000  -55.3033700   -41.5083500  -35.2293800
 		     -43.0853300  -62.3504300   -41.7565600  -30.8970800    -2.2214740  -25.4259300   -14.5100000 -142.6756000
 		     -46.0519400   -6.1628600   -39.3024300    5.0851710   -14.5007300 -142.3764000    -2.1554810  -25.4376900
   53552350000    -0.8940942   59.5245700   -18.6017900  -35.3125000   -43.0636400  -38.6549600   -46.0022300  -54.1886500 
 		     -18.6446000  -30.5325300    -0.9193290   60.0596900   -44.9984000  -44.8105700   -42.8931100  -62.1384100
 		     -40.1596200  -55.1206000   -43.7071300  -34.6633800    -2.2652960  -25.4272000   -14.4168000 -142.3247000
 		     -40.0409200  -49.4260200   -42.1959500  -10.8182800   -14.4119900 -142.9888000    -2.1280130  -25.7968800
   53622340000    -0.9685018   59.2367900   -18.3671400  -32.0965400   -48.2505200  -44.2449400   -41.8976700  -52.2686400 
 		     -18.7671500  -31.1379100    -0.8626309   61.3979900   -47.3799400  -34.9100700   -41.4612000  -50.5740000
 		     -44.1774900  -61.9857200   -44.1193000  -86.0595300    -2.2109150  -25.5411700   -14.3175600 -142.4347000
 		     -45.0894900  -52.9250900   -43.4656100 -152.0636000   -14.2835400 -142.5063000    -2.1652310  -25.8380300
   53692330000    -0.9741184   59.8256000   -18.6574800  -25.0639600   -46.1091400  -45.4447600   -42.3684200  -59.1177800 
 		     -18.4530200  -32.2175400    -0.8865066   59.1449100   -43.3958900  -58.1899400   -42.8657600  -59.3420800
 		     -39.9384800  -61.7128600   -45.3924300  -57.9835100    -2.2630750  -26.3991500   -14.1981900 -142.4825000
 		     -43.7556800  -23.5539200   -38.2636700  -24.9343500   -14.2851200 -142.3570000    -2.1520480  -26.1496500
   53762320000    -0.9687888   60.3581000   -18.0180400  -28.7438300   -46.8062800  -78.2222900   -45.6155700  -26.9379400 
 		     -18.5441300  -29.7287900    -0.8322569   59.3565000   -45.2831600  -50.9379600   -46.0916500  -39.2935200
 		     -54.1090000  -90.1706000   -42.7654800  -98.7285200    -2.2656620  -26.1584600   -14.2495100 -142.4416000
 		     -44.0215800  -70.0885900   -41.4575600  -59.3507200   -14.1110700 -142.2727000    -2.1517880  -26.8258500
   53832310000    -0.9227964   59.2309500   -19.0304000  -28.0808500   -43.6818400  -56.2989100   -45.5330700  -32.5633400 
 		     -18.8598400  -28.1627500    -0.9621794   59.6214600   -41.7470500  -39.3102100   -43.7278500  -37.3921500
 		     -43.8809500  -40.9261800   -39.1024700  -46.6155500    -2.2016980  -26.5171500   -14.2155800 -143.2695000
 		     -41.9880300  -90.8697400   -43.3564100 -105.0695000   -14.1110200 -142.6649000    -2.2318620  -26.8461300
   53902300000    -0.9655642   59.8451000   -18.9025200  -35.0973200   -49.3867100  -72.2266600   -44.4787900  -56.5189000 
 		     -18.7067700  -31.4571000    -0.8861136   59.1790300   -57.9231700  -39.1433500   -43.8852600  -56.6746900
 		     -45.9490200  -46.6249200   -47.6597600  -83.9275100    -2.2996270  -27.5172200   -14.1519700 -143.6833000
 		     -45.7906500  -53.0717100   -43.1083100  -24.5812500   -14.0636900 -143.4570000    -2.1109020  -27.0076100
   53972290000    -0.8966396   58.8661200   -19.1909800  -30.3049900   -42.9412000  -58.2369500   -42.7645300  -69.8961300 
 		     -18.6381400  -29.2508900    -0.7613248   59.0712700   -44.1686800  -79.0425000   -42.5340800  -55.2171100
 		     -43.1259200  -23.4271700   -47.1290300  110.3218000    -2.3168320  -26.9235700   -14.0388600 -143.7623000
 		     -41.0299900  -74.3965800   -38.3324000  -40.7075700   -14.1527500 -143.9173000    -2.2304360  -28.0983800
   54042280000    -1.0714050   59.6023200   -19.1427500  -30.6515100   -43.3802800  -65.1641800   -42.2889300  -72.6279200 
 		     -18.6235700  -34.0235000    -1.0498910   58.4836200   -45.7439000  -67.8464700   -42.9025000  -42.2569500
 		     -44.4419100  -24.1770000   -51.2012700 -100.2813000    -2.2071160  -27.5551400   -13.9819900 -143.8551000
 		     -37.7244100  -50.7212400   -43.6764100  -13.2853300   -14.0247900 -144.1705000    -2.2099540  -27.3042600
   54112270000    -1.0236000   58.7994900   -19.3416600  -34.2298200   -44.9792500  -52.1489900   -41.3522300  -73.1295200 
 		     -18.5173200  -30.8588300    -0.8614309   57.8779400   -41.7719600  -52.2045300   -42.4654700  -38.4168400
 		     -42.0305300  -31.3746000   -42.5289300  -46.3811900    -2.2951930  -28.2337900   -13.8888800 -144.4911000
 		     -45.2642900  -93.2994100   -39.4370000    2.0560600   -13.7791800 -145.3073000    -2.0945270  -28.4294600
   54182260000    -0.9721890   58.7310800   -19.5260500  -29.8737500   -44.2495000  -46.1113700   -44.2163200  -54.2599300 
 		     -18.6271100  -32.5516900    -1.0298490   59.5479700   -42.1046600  -38.2561500   -42.6639400  -40.3338300
 		     -41.3661400  -63.9006200   -55.2556200   86.3858100    -2.3058610  -27.6920600   -13.8959600 -144.0422000
 		     -45.8214200  -67.5683000   -37.3642300  -77.7692600   -13.9483000 -144.0644000    -2.2672640  -28.9433600
   54252250000    -0.9467064   58.7085400   -19.5123100  -28.2281100   -46.3682300  -42.7725500   -43.2225900  -47.2849000 
 		     -18.4700400  -32.2499800    -0.9332803   58.7914400   -45.0410700  -52.8916900   -43.9986400  -45.7421700
 		     -40.2906000  -56.4512900   -41.7539000  -81.6417000    -2.2038810  -28.5827600   -13.6790600 -144.3104000
 		     -40.3728800  -65.8094200   -43.1540800   29.9583200   -13.6765800 -145.1893000    -2.2148160  -27.9999400
   54322240000    -0.9883725   58.8254400   -18.8119500  -32.2189600   -44.1917000  -63.8826900   -42.4923300  -44.3617100 
 		     -19.0003900  -33.2944300    -1.0158790   57.0695200   -46.8022900  -15.7964800   -43.8223300  -62.0487600
 		     -40.9897100  -48.1390300   -40.6603200  -11.1622200    -2.3248890  -29.2728600   -13.7946700 -145.0243000
 		     -46.5710900  -35.3113100   -41.0554500  -78.0569500   -13.7144300 -145.5275000    -2.1161410  -29.9147100
   54392230000    -0.9720439   57.9727900   -19.1238000  -35.6491500   -41.9463500  -58.3242100   -42.3306600  -22.6948800 
 		     -19.3990500  -28.4850500    -1.0082090   58.4137400   -40.9659900  -55.0033400   -42.1810500  -50.4884300
 		     -46.0802000  -64.4433400   -54.9154100  -78.6306500    -2.3101630  -28.7103100   -13.5994500 -145.4198000
 		     -49.9491900  -51.4211800   -39.8010700 -107.8329000   -13.5976100 -145.3916000    -2.3576200  -29.8642700
   54462220000    -1.0250820   58.8511800   -18.5519400  -34.6484900   -42.5482900  -63.8881000   -42.4270100  -68.5854500 
 		     -19.2372100  -33.4446600    -1.1276250   57.8489600   -45.7345800  -38.6589300   -42.0265400  -44.9567400
 		     -39.6862100  -49.6766100   -45.1830500   54.3315200    -2.2758650  -29.7664900   -13.5733200 -145.3081000
 		     -40.5365700  -65.8573800   -45.5071100  -48.6820300   -13.5257600 -145.3249000    -2.2129060  -29.1095600
   54532210000    -0.9322066   58.1321100   -20.0585700  -28.0594200   -44.0041700  -90.1883800   -44.0051800  -60.1413800 
 		     -19.1614600  -28.5320000    -0.8829085   58.2374200   -46.6383100  -43.1611500   -42.9587400  -48.5932200
 		     -49.2571500  -83.0672500   -38.9840000  -58.3564500    -2.3504660  -30.0730000   -13.4340200 -145.4927000
 		     -45.1009200 -103.7653000   -57.3944700   39.0756000   -13.4851500 -145.7098000    -2.2022950  -31.0884700
   54602200000    -0.8710336   57.9607800   -19.7335300  -34.5839300   -42.9488800  -57.3194600   -42.9511300  -69.1478600 
 		     -19.0542400  -34.4301900    -1.0316980   57.2428000   -47.2444500  -36.3759100   -44.3600000  -83.0597800
 		     -40.6980400  -59.2418300   -45.6252600   12.0142800    -2.3146670  -29.5738700   -13.4587900 -145.7278000
 		     -43.8015800  -50.3585800   -48.0065600  164.7921000   -13.3479700 -144.7399000    -2.3635300  -30.2440900
   54672190000    -0.9691875   57.9245000   -18.4580200  -33.7341700   -42.3453500  -66.6699400   -42.0443200  -58.2603200 
 		     -18.4920600  -33.4624800    -0.9553670   57.3954800   -45.0995100  -44.6220700   -39.3082300  -43.2735800
 		     -44.0094700  -56.7947600   -49.2133300  -40.1322100    -2.3161130  -30.7122500   -13.3633800 -146.1785000
 		     -38.9408500  -67.0987500   -38.9257300  -66.1603800   -13.4533400 -146.4112000    -2.1868740  -29.9494200
   54742180000    -0.8950742   57.5967600   -19.2921400  -34.5048800   -41.3014200  -75.8837400   -41.7919800  -64.9286700 
 		     -19.0062500  -32.3201100    -1.2384790   57.1940100   -45.3012200  -31.8365500   -47.3267700  -63.7481000
 		     -38.4902600  -75.8541300   -40.5835400  -52.9918700    -2.3438920  -30.5965000   -13.3303500 -146.4553000
 		     -40.7428700  -58.7461400   -43.5209700  -34.9454500   -13.2669500 -147.0958000    -2.2491480  -31.9017400
   54812170000    -1.0049400   56.9343600   -19.1142600  -35.5933900   -45.6415900  -72.3657800   -41.3214100  -49.0792000 
 		     -18.8409100  -34.7242300    -0.9056231   56.9330400   -42.0037300  -33.9067000   -41.2209900  -46.5252300
 		     -43.4021600  -96.7770200   -40.8877400  -85.9350100    -2.3685850  -30.6083100   -13.2840200 -146.4054000
 		     -40.7355100  -33.0177800   -38.6615400  -53.0099800   -13.2310000 -145.4855000    -2.3736500  -31.2269900
   54882160000    -1.1011300   57.9480800   -19.1957200  -29.7031000   -44.7884600  -50.1704400   -41.8698300  -54.2943800 
 		     -18.7792200  -32.8122600    -1.1004670   56.7246100   -41.6716300  -51.3982100   -42.1465000  -43.3984600
 		     -40.7728800  -85.6948300   -43.4888500  -43.0785000    -2.3686180  -30.9209700   -13.2128100 -146.2564000
 		     -37.8761500  -49.1162700   -34.8925100  -86.9537600   -13.1499800 -146.4282000    -2.2077660  -31.1944000
   54952150000    -0.9504869   57.2408400   -19.3682600  -28.5043000   -42.9232800  -79.7198600   -44.5966000  -90.9407800 
 		     -19.0419100  -33.0285100    -1.0922180   56.9749700   -47.8608500  -40.2633600   -40.4665000  -84.2746400
 		     -41.9416500  -51.8384600   -39.4212300  -85.6495500    -2.3311970  -31.3641500   -13.1867800 -146.8196000
 		     -47.4884900  -44.6148500   -35.2592500  -12.5964500   -13.0807500 -146.8829000    -2.3100210  -32.3586100
   55022140000    -1.0642200   56.6332100   -19.5310300  -35.7502200   -43.4622900  -61.3320400   -41.4471200  -73.4194700 
 		     -18.7320100  -33.7915600    -1.1937580   57.0725500   -45.6922000  -49.9424700   -43.8408100  -44.7217000
 		     -45.0713500  -45.6998400   -43.2863300 -106.1806000    -2.4173120  -31.3804300   -13.0515500 -145.8909000
 		     -38.0344900  -70.0644600   -40.0453400  -78.8862000   -13.0678000 -146.3583000    -2.3241910  -31.7786700
   55092130000    -0.9367443   57.9317500   -18.9736100  -34.6898000   -43.9760100  -73.5898400   -41.1420100  -56.9143800 
 		     -18.9783600  -33.2434300    -0.9709992   55.3982400   -41.4316400  -63.2970000   -44.1168600  -85.4469400
 		     -46.2409900  -68.3739900   -36.4508500  -49.8673100    -2.3440120  -31.9865200   -13.0473300 -146.6879000
 		     -37.0612100  -96.7946900   -45.8034500  -51.8180400   -13.0328800 -147.3092000    -2.3048480  -32.1531700
   55162120000    -1.0600240   57.6704100   -18.9671900  -30.8072600   -42.7028200  -50.7675100   -41.6827000  -68.6564900 
 		     -18.8936900  -32.9593800    -0.9905005   58.0600600   -42.6796700  -52.4440800   -40.5128100  -60.3897600
 		     -42.4624400  -75.6884500   -41.7734400  -98.7524800    -2.3959690  -32.5284300   -12.9278700 -146.9874000
 		     -43.8155700  -25.0450300   -39.3733200  -69.0881300   -12.9540200 -147.6693000    -2.3391700  -32.8547400
   55232110000    -1.0591440   56.8177200   -19.0773000  -31.7699300   -43.7414700  -78.6694500   -43.5591400  -57.9764700 
 		     -19.3042600  -36.5419700    -0.8888009   57.7507900   -44.6627500  -60.7016100   -46.0002400  -21.8260800
 		     -38.3662000  -53.0042800   -40.4807900  -62.0566800    -2.3901870  -32.1090900   -12.9145400 -147.0252000
 		     -41.9395200  -81.7292300   -44.6695700 -100.4188000   -12.9113600 -146.9384000    -2.3462390  -32.8045100
   55302100000    -0.9898236   56.4975400   -18.8726100  -36.9961600   -41.4249500  -62.4780200   -40.5556900  -62.8838100 
 		     -18.8915600  -30.7112200    -0.8565890   57.8346500   -42.9697500  -31.6352900   -39.4586300  -49.8050000
 		     -40.7427900  -83.5231200   -48.9890700    0.3013518    -2.4027650  -32.5514100   -12.8613400 -147.7004000
 		     -41.2250700  -63.0692500   -51.1503600  -57.9089400   -12.8539300 -147.7795000    -2.3066480  -33.2264900
   55372090000    -1.0170200   56.8321700   -19.0064400  -34.1437600   -42.9524800  -66.2061600   -41.7130200  -57.4397200 
 		     -19.1476900  -32.5560200    -1.1300180   54.9089000   -46.0124700  -35.2410400   -38.8552500  -49.5871400
 		     -46.2604800  -86.0922300   -44.7633900  -67.1270600    -2.3897550  -33.1705700   -12.7356800 -147.7650000
 		     -41.7853700  -60.2667800   -35.8315400  -40.8450400   -12.7987300 -148.1436000    -2.3463360  -33.4964200
   55442080000    -0.9665627   56.1313000   -19.5888500  -31.5450200   -41.5597200  -75.1505100   -40.6565300  -67.9803800 
 		     -18.8817200  -33.3725300    -0.7267727   56.1658700   -45.5104300  -60.7723500   -42.4436000  -52.0829700
 		     -44.7694400  -75.2488900   -36.8033500  -81.6796600    -2.4646950  -33.1767400   -12.8096800 -147.7381000
 		     -43.3164700  -43.9152800   -36.1509700  -47.9315200   -12.7676400 -147.1732000    -2.3264020  -33.6609700
   55512070000    -1.0140300   56.3872200   -19.0866200  -35.2812400   -41.9441400  -75.3158500   -42.7948000  -57.4339400 
 		     -19.3420600  -34.7856500    -0.9207109   56.1554800   -41.9744500  -52.6774100   -38.5674400  -63.3271100
 		     -44.2387600  -36.6238200   -41.4930600  -93.2538800    -2.4356770  -33.3602300   -12.6407400 -148.1908000
 		     -38.3777700  -69.9859600   -36.3163800  -51.8174200   -12.5864100 -147.3817000    -2.3652300  -34.0488800
   55582060000    -1.0655400   55.8702600   -19.4156800  -39.2938500   -43.3944500  -70.6867800   -43.2716400  -79.7737700 
 		     -19.0671900  -34.6916200    -0.9021292   55.6276700   -42.4942000  -64.0403500   -40.9591700  -65.3205300
 		     -43.5417100  -89.1689100   -37.4835600  -55.6665000    -2.4319230  -34.2204600   -12.6677000 -148.9866000
 		     -48.3204300  -94.0257300   -38.2660800  -54.2597900   -12.5499300 -149.0852000    -2.3793640  -34.1450300
   55652050000    -0.9245422   55.9618300   -19.3173400  -32.3802900   -43.1654500  -88.5777600   -42.1005700  -67.6753300 
 		     -19.4860400  -34.5384600    -1.1404960   52.6155400   -41.7507800  -61.6074600   -42.1102700  -66.2961000
 		     -38.9911300  -61.7423400   -37.5675200 -101.3912000    -2.4513550  -33.7258300   -12.4424500 -148.6329000
 		     -44.1598900  -75.3175100   -41.6305200  -77.5637700   -12.4823400 -148.8946000    -2.3825090  -34.8753600
   55722040000    -0.9828884   55.6897100   -19.6983100  -36.9643700   -43.2245100  -68.2755900   -44.3530000  -53.0345000 
 		     -19.4489500  -37.6716400    -0.8642718   54.9546800   -43.9143400  -62.7284800   -44.1256800  -35.7587700
 		     -42.2987900  -29.8166200   -45.2547800  -74.0408600    -2.4108360  -34.1978300   -12.5563500 -148.9873000
 		     -38.8070200  -96.4376600   -42.7121400  -74.3083300   -12.5804300 -149.3195000    -2.4087820  -34.5900800
   55792030000    -1.0623710   56.8007900   -18.6383600  -32.3978400   -41.7943600  -72.0945900   -44.7653500  -73.2822600 
 		     -19.5409200  -37.2928900    -0.9562273   53.5702800   -44.3315600  -55.8957400   -45.0125100  -70.7974900
 		     -38.0286200  -93.2864800   -38.6657500  -27.8111700    -2.4733490  -35.1212900   -12.4259100 -149.2896000
 		     -42.4495700  -59.2282200   -42.8887300  -19.9837200   -12.3857300 -149.0247000    -2.3251590  -35.2772400
   55862020000    -0.9484125   55.6322300   -20.0605500  -38.6536400   -42.6380000  -66.2365500   -43.3323300  -81.4607600 
 		     -19.2307900  -38.6870100    -0.8925355   56.7582300   -41.8917000  -58.1130100   -40.6594400  -76.9069600
 		     -45.8391000  -81.4921900   -67.5226200  -20.5710400    -2.5319200  -34.9507100   -12.3439000 -149.3779000
 		     -41.1400100  -50.5531200   -41.4097400  -26.8947700   -12.2756900 -149.1330000    -2.4045250  -35.8016000
   55932010000    -0.9360022   54.8154700   -20.1517700  -36.6391900   -41.6191600  -87.3562300   -41.5390600  -68.5791900 
 		     -19.4400000  -38.9323000    -0.8347569   55.1952600   -47.0386300  -61.2420100   -41.2691300  -78.3389400
 		     -46.0972200  -74.1433700   -38.3025100  -13.8985600    -2.4468790  -34.9713900   -12.2821500 -150.2594000
 		     -41.0223700  -56.4643700   -39.9740100  -87.8294600   -12.2233600 -149.2081000    -2.4072540  -35.5445400
   56002000000    -1.0217980   55.5212400   -20.2481800  -38.6571100   -44.2699100  -56.5064000   -44.0822900  -79.0106600 
 		     -19.3004600  -39.6570700    -1.1423250   55.2434800   -44.2675400  -58.5538000   -40.8761000  -64.7072700
 		     -41.3819400  -56.3809400   -33.6578600  -70.1840100    -2.4561720  -35.7514000   -12.2785600 -149.7504000
 		     -41.1717000  -53.3249900   -46.6346200 -102.0205000   -12.4087200 -151.2794000    -2.3789040  -35.8697900
   56071990000    -0.9611672   54.7976500   -19.1010100  -43.6930200   -41.3655100  -58.3309700   -41.1337900  -79.9461100 
 		     -19.7198900  -33.5423300    -1.0448830   55.9122800   -43.5150300  -56.9674300   -40.1033200  -70.5349000
 		     -38.9888900  -75.3781200   -41.1766200  -28.1607700    -2.5091410  -35.5074100   -12.2256600 -150.6327000
 		     -41.0515100  -89.4955100   -39.7834800  -26.2889400   -12.2096300 -150.9331000    -2.4539290  -36.6049600
   56141980000    -1.0619230   54.9873700   -18.7494800  -39.7666100   -41.4352900  -80.7945100   -41.8019400  -61.1464000 
 		     -18.9906600  -41.0824800    -0.9172023   53.5399500   -39.6407200  -50.9517500   -41.9534800  -55.1879600
 		     -42.5256300 -110.6647000   -39.7364300  -68.4755400    -2.4536800  -36.0344200   -12.1361800 -149.7510000
 		     -40.9409300  -49.7972100   -44.1622300  -64.9657200   -12.2966900 -150.5460000    -2.4180460  -36.4211800
   56211970000    -1.0927570   55.4560900   -19.8358700  -36.3504600   -42.7107200  -72.1235800   -44.3434300  -73.3074800 
 		     -19.4895600  -39.3225600    -0.9153057   54.6020400   -42.2528700  -63.0417300   -40.8340200  -60.5711600
 		     -47.4940500  -68.5670400   -37.4414500 -104.5690000    -2.5348210  -36.8176500   -12.0341600 -150.3045000
 		     -42.1860700  -79.9118700   -34.9006300  -38.8548900   -12.0809900 -150.8086000    -2.4023220  -36.7460100
   56281960000    -0.9655454   54.7071800   -20.1551000  -33.4691700   -42.8756400  -66.3812200   -44.2909900  -94.9260400 
 		     -19.9112700  -41.5571500    -1.1393340   55.4241200   -44.5984500  -53.6921700   -40.2766400  -52.5053000
 		     -45.8252600  -93.1018700   -51.4352000   44.8340500    -2.5189900  -36.4653300   -12.0410100 -150.7879000
 		     -39.9045300  -51.0549200   -37.2783600  -80.7132900   -12.0198800 -151.8834000    -2.4713750  -37.2879800
   56351950000    -1.0752160   54.5095200   -19.9965300  -39.2648200   -42.1762800  -74.3679400   -41.7461200  -66.5789200 
 		     -19.2065000  -36.2723500    -1.0165340   55.1082400   -42.3758100  -67.1410600   -41.4620400  -70.4333300
 		     -43.1819300  -60.0001900   -37.4038000 -110.2977000    -2.4845940  -36.7966600   -11.8944300 -150.1890000
 		     -36.6255600  -80.2325700   -36.2799000  -59.5940700   -11.9189800 -152.2515000    -2.4433710  -37.5361600
   56421940000    -0.9624637   54.7087500   -18.9802700  -33.7890700   -45.1814700  -73.9841600   -43.3497500  -59.3537100 
 		     -19.2715800  -37.1228200    -0.8330032   51.9168800   -42.2617800  -51.1214900   -39.4040400  -82.6518700
 		     -41.8110500  -76.3990600   -52.5219700 -114.7509000    -2.5312320  -37.4809600   -11.9797400 -151.5752000
 		     -39.6430500  -81.6744200   -37.4120600   46.4832600   -11.9093600 -151.3133000    -2.4247320  -37.6806800
   56491930000    -1.0640940   54.2827900   -18.9787100  -35.8318800   -41.1634100  -78.0484000   -41.5864200  -70.7818400 
 		     -19.6026700  -37.7877200    -0.9108728   54.4504700   -44.0891600  -80.5428400   -43.2887500  -62.4892800
 		     -40.0399200  -67.3996300   -38.4120500  -28.0180000    -2.5248300  -37.5653100   -11.8327000 -151.5294000
 		     -41.8967100  -61.2923700   -45.6025600  -93.1111900   -11.9344000 -151.6527000    -2.4751980  -38.1942700
   56561920000    -0.9784193   53.4770300   -18.5286200  -39.9970900   -42.1489100  -76.9638800   -40.9140100  -76.9088800 
 		     -19.3276700  -39.8420000    -0.8792183   53.8023100   -43.5832300  -72.6711500   -41.0111600  -79.2450600
 		     -58.7578100   23.2858300   -42.8848700  -59.4010100    -2.5005350  -38.0971600   -11.8482200 -151.6701000
 		     -44.2281000  -99.1300700   -38.5443300 -107.5931000   -11.7393900 -151.4531000    -2.4819160  -38.5145700
   56631910000    -1.0428470   53.5818600   -19.9801100  -31.5184200   -45.1920100  -73.1262700   -42.1799700  -75.0387000 
 		     -20.0222700  -37.0473300    -1.0431150   53.7164000   -43.0535100  -77.0706800   -41.5422700  -54.8303500
 		     -39.6193300  -83.9300500   -48.6516300 -112.4606000    -2.5329180  -38.6525300   -11.7425300 -151.3445000
 		     -39.3868700  -45.1790500   -41.4857400 -145.8228000   -11.7629100 -151.3943000    -2.4858080  -38.6661600
   56701900000    -0.9098318   53.4728900   -19.5918800  -38.0206100   -44.1671000  -78.7407200   -43.0350900  -66.6522000 
 		     -19.4753200  -43.6444100    -0.6772269   52.5639500   -43.1445200  -91.9922200   -41.3058700  -62.2374400
 		     -40.0104600  -67.5616800   -38.3290000  -18.8663000    -2.5545080  -38.4172100   -11.7016300 -153.1284000
 		     -47.8275100   -0.4167822   -42.5074800   11.9019100   -11.5921600 -151.6167000    -2.4511740  -39.1193500
   56771890000    -0.9631752   52.8835300   -20.4409000  -42.5029700   -42.6719300  -81.4444700   -42.4789000  -79.1006400 
 		     -19.8489000  -43.7923000    -0.7290185   53.1822900   -41.3502500  -69.8128600   -42.0932600  -67.1021500
 		     -38.2371400  -62.6593900   -40.3012300    9.0693200    -2.5519030  -38.7444800   -11.5578400 -153.1348000
 		     -37.9122200  -61.4664700   -35.8579500 -103.6917000   -11.4986900 -152.3636000    -2.5017530  -39.8408000
   56841880000    -1.0402440   54.4080000   -19.4569500  -40.2548900   -44.8310400  -66.0175500   -43.8906100  -81.7316300 
 		     -19.8513000  -39.5845500    -1.0096040   54.3033800   -42.6785700  -49.1115700   -42.6891300  -39.8057100
 		     -39.7627800  -62.9549600   -41.9932400 -129.9418000    -2.5561050  -39.4719400   -11.5509200 -152.0918000
 		     -40.9050600  -80.3645800   -38.1919900 -115.2341000   -11.5351100 -152.7766000    -2.5092930  -39.5029800
   56911870000    -0.9365115   53.7365600   -19.2291000  -40.3156600   -40.9115100  -68.3162400   -39.7942000  -82.1568600 
 		     -20.0094300  -43.2419800    -0.9544265   51.1167100   -42.8226400  -78.7384800   -41.3455900  -59.8312500
 		     -48.9229200  -79.8665800   -44.6386000 -139.6323000    -2.5098190  -39.4818200   -11.4282900 -152.7137000
 		     -36.7779800  -73.0192400   -35.7208300  -26.5685100   -11.6429100 -154.2467000    -2.4435700  -40.5265000
   56981860000    -0.9388042   52.7221300   -19.2678400  -43.9323200   -43.4605000  -76.4705600   -42.4522700  -67.1628900 
 		     -19.5621600  -37.0014300    -0.7946082   52.8033400   -41.4880800  -65.7603400   -41.7237900  -76.8877700
 		     -41.5527900 -103.8014000   -38.1802700 -129.4346000    -2.6037610  -39.8509800   -11.4831600 -153.2236000
 		     -47.1693200  -99.7454800   -39.7588800  -52.7243200   -11.5189200 -152.7619000    -2.6229430  -40.4411900
   57051850000    -1.0598830   52.8463400   -20.0888400  -40.4652600   -40.6279100  -67.9226600   -41.4709900  -67.3080500 
 		     -20.2371800  -40.3241300    -0.9525504   52.4721300   -42.8728300  -68.3940700   -40.3238700  -64.8191800
 		     -44.8022800  -90.1671900   -39.3092500  -38.0330900    -2.5676390  -40.1496300   -11.1725900 -153.1001000
 		     -42.4848000  -56.6481900   -42.9028700  -93.2956800   -11.3577500 -152.9315000    -2.5338130  -40.4193500
   57121840000    -1.0923750   53.6444600   -19.8242800  -39.6721700   -42.1486400  -82.7400400   -40.9310300  -74.4309300 
 		     -19.4044700  -42.4237100    -0.9593184   53.3754900   -41.7955500  -84.7777600   -41.1489800  -83.3196000
 		     -39.8417800  -98.4464900   -41.6127400  -72.1685300    -2.5588250  -40.8207800   -11.2331400 -153.1537000
 		     -41.5550600  -92.3916700   -43.9583200 -118.7016000   -11.2583100 -154.0385000    -2.5518480  -41.6753200
   57191830000    -1.0325280   52.8481800   -19.9758900  -48.2708300   -43.2084800  -85.1687800   -41.5571300  -70.8655300 
 		     -19.6533700  -37.4292400    -1.1592640   51.6593100   -41.6989400  -70.9774900   -40.4747300  -76.4622500
 		     -38.1091200  -88.4252700   -45.6740800  -81.3691800    -2.6529800  -40.5657200   -11.2217200 -154.1515000
 		     -38.3216600  -66.4860100   -33.0847200 -109.2673000   -11.2724300 -153.7571000    -2.6472180  -41.4948200
   57261820000    -0.9502637   51.5329700   -22.3832300  -44.8807300   -40.1386900  -70.4152800   -41.6637900  -91.1928000 
 		     -19.9083100  -36.7916200    -0.8868062   53.3630900   -43.2864400  -89.0405300   -40.0316800  -69.7655400
 		     -47.2573800 -103.8992000   -40.5910800  -51.7557300    -2.5414690  -41.0743600   -11.1195700 -153.8131000
 		     -40.3488700  -79.3324300   -41.8702100  -94.9426400   -11.2488900 -154.3164000    -2.4642300  -41.5547600
   57331810000    -0.9935205   52.5267500   -20.2388200  -44.3605800   -41.9857500  -77.8689600   -41.5873800  -84.3435600 
 		     -20.7080400  -41.5169500    -1.3852670   52.8842200   -42.6017200  -63.6861800   -40.5529600  -75.7203500
 		     -39.5954400  -37.1468200   -45.9239600   62.9063800    -2.5897190  -41.9848700   -11.1421300 -154.0336000
 		     -46.5912800 -120.4509000   -38.4052400  -46.4937600   -11.1381800 -155.1498000    -2.5720700  -42.7594800
   57401800000    -1.1277660   51.3118700   -19.1562600  -37.4648200   -42.6074600  -94.5244800   -42.1176000  -61.4911200 
 		     -20.2136800  -38.5626900    -0.8955530   51.5508700   -42.0561400  -94.1649600   -40.8150900  -98.9524200
 		     -39.0671200  -70.6501900   -37.0847100  -42.0335000    -2.6447550  -41.4678800   -10.9554900 -154.1451000
 		     -38.3217800  -75.7270300   -43.0072200  -31.4753200   -10.8815300 -154.6991000    -2.6447550  -42.4744300
   57471790000    -1.1467240   51.5503600   -21.2369600  -42.8088700   -40.4974300  -79.2812400   -40.5418800  -83.4431800 
 		     -20.1704700  -38.3461200    -1.3133250   53.1830000   -42.6199000  -74.2933600   -41.4972300  -88.8814800
 		     -39.7252600  -84.0757100   -33.8258100 -123.9463000    -2.5543330  -42.3735600   -10.8372400 -154.6704000
 		     -48.3729900  -92.4931000   -38.1133500   -9.1036160   -10.9492400 -155.1341000    -2.5116830  -42.8460000
   57541780000    -1.0015380   51.7613100   -19.9883000  -33.9810300   -44.2257300  -76.6083100   -39.2866900 -102.9477000 
 		     -19.8780700  -42.6541500    -1.0758590   52.4580800   -42.3633200  -69.3476100   -40.1325400  -78.7618400
 		     -41.7418200  -91.1906100   -40.4063000  -40.2502600    -2.6221400  -43.1671200   -10.8464900 -155.5179000
 		     -42.4294400  -91.1311500   -45.3526900  172.8051000   -10.9401200 -155.3657000    -2.6398340  -43.5237500
   57611770000    -0.9460542   51.5217600   -20.5874600  -45.9062200   -42.8024300  -63.8444700   -41.2727300  -82.6781600 
 		     -19.8186700  -36.1452900    -0.7308894   51.4314900   -41.7155600  -72.7148800   -38.3957700  -70.9921900
 		     -40.7023200  -79.6416900   -34.7867400  -92.8820200    -2.6644510  -42.1483900   -10.6792300 -155.0397000
 		     -45.5813600  -64.8733000   -49.6806700  -46.5905300   -10.7389700 -156.4661000    -2.6930260  -43.0522800
   57681760000    -1.1768300   51.5684000   -19.8188600  -43.5080300   -42.2351100  -77.4812600   -40.8698600  -68.0640800 
 		     -20.3338700  -38.3388200    -1.1225230   52.3264800   -41.8729700  -66.7013000   -39.2263900  -90.0472800
 		     -40.2818300  -97.0115700   -44.4153600  -23.4511900    -2.5951990  -43.2090000   -10.8356600 -155.2272000
 		     -39.9816200  -82.4590100   -32.1242700  -41.4083400   -10.7980200 -155.7891000    -2.5687890  -43.6531600
   57751750000    -1.0952880   51.3799400   -20.3164800  -37.9050600   -40.8313000  -80.2264900   -42.4199200  -63.7020100 
 		     -20.1879600  -40.2130900    -0.9692146   50.6758500   -42.5707200  -76.7726400   -38.3482400  -84.6924900
 		     -38.5154800  -60.6363900   -35.8475600  -33.3929600    -2.6692740  -43.7424100   -10.7989800 -155.6202000
 		     -40.9027100  -69.5411700   -46.2830000  168.0910000   -10.7629800 -155.2347000    -2.6934650  -43.8693300
   57821740000    -0.9107776   50.6560400   -19.6377500  -40.2033900   -41.6276200  -86.1494500   -41.6248300  -74.8479500 
 		     -21.0577900  -40.4527300    -1.1853640   49.7747800   -38.8760500  -65.7104700   -38.9859400  -67.8424800
 		     -38.1806800  -68.7990400   -31.5896500  -33.8273200    -2.6460920  -43.3252300   -10.5991500 -156.4252000
 		     -38.6835800  -94.8446000   -33.6367600 -116.8208000   -10.6876100 -155.2785000    -2.6653920  -44.0758200
   57891730000    -1.1376450   50.9737200   -19.7486900  -47.3119400   -41.4947000  -80.2113000   -41.1232800  -82.9080700 
 		     -19.2008500  -47.9164500    -0.7563291   51.0665200   -45.1063900  -85.2043100   -39.1956300  -77.8355000
 		     -51.1577800 -116.8346000   -42.2442800 -145.8137000    -2.6843090  -44.5273100   -10.6584700 -155.8778000
 		     -37.3352900  -56.8453400   -34.2866500  -78.3468100   -10.6675100 -155.6132000    -2.5903800  -44.2803400
   57961720000    -1.0036880   51.3040100   -20.4045000  -56.9803300   -41.2169300  -79.4633600   -38.9899700  -93.9198500 
 		     -20.1854700  -40.1003100    -1.1137410   50.7106500   -41.6639200  -61.4279900   -36.7936200  -63.4004100
 		     -40.3245000  -66.4389100   -39.4019500  -97.1769800    -2.7110290  -44.4275500   -10.5742200 -156.8485000
 		     -46.2348400  -91.8291400   -36.2335300  -55.6136100   -10.5507500 -156.8188000    -2.6873370  -44.7509300
   58031710000    -0.9816950   50.7364000   -19.3019000  -47.4856800   -40.3450500  -82.4634000   -41.0531900  -82.8003000 
 		     -20.1000300  -43.0000800    -1.0405570   52.0449300   -40.8836400  -68.3037600   -38.4704200  -80.4333300
 		     -43.5171100 -109.1447000   -50.2580200   84.3108900    -2.6732560  -44.6434100   -10.5484200 -157.4389000
 		     -36.6744300  -77.3991700   -38.0513200  -48.5144500   -10.4403000 -155.9825000    -2.7296830  -44.8511400
   58101700000    -1.2415040   51.4789800   -20.0520700  -49.5330700   -39.7476200  -97.0426600   -42.0269800  -81.8065900 
 		     -19.9832300  -40.5836600    -0.9170856   50.7208400   -38.9723600  -71.1215100   -40.2120000  -65.2958400
 		     -42.7456900  -77.8580500   -57.4781900 -155.8305000    -2.6810520  -45.1219900   -10.3782500 -157.5663000
 		     -40.9622000  -74.6598400   -47.2113500  -85.5514700   -10.5931600 -157.6822000    -2.6650140  -45.5865000
   58171690000    -0.9720598   50.9716700   -20.5907000  -47.2026700   -41.0759000  -91.7632500   -42.4314000  -88.6360800 
 		     -19.7676000  -42.9255400    -0.9881141   50.4832100   -38.3841400  -73.2342300   -40.7025100  -97.9221900
 		     -40.5834200  -61.2011000   -34.2861800  -58.6136300    -2.7182580  -45.0612100   -10.4402800 -156.9649000
 		     -46.4944500  -80.8685100   -35.9487000  -77.4768400   -10.4265300 -158.2221000    -2.7178950  -46.0476900
   58241680000    -0.9437898   50.1324400   -20.6007900  -38.4604900   -41.2269500  -98.8247800   -38.9754700  -99.4116500 
 		     -19.9677500  -52.2571000    -1.0142810   51.0356200   -41.1406400  -80.7465000   -42.3752000  -73.8165400
 		     -35.9137800 -116.7807000   -33.4891100  -79.0990600    -2.7651440  -45.7616200   -10.3662200 -157.1184000
 		     -37.7187900  -86.6245300   -33.6913000  -76.1383100   -10.5047900 -157.2251000    -2.7237770  -45.8351900
   58311670000    -1.0880240   50.7278000   -20.5446300  -44.1522700   -44.4068100  -82.1637300   -43.1469300  -65.2458300 
 		     -19.7863900  -42.3429100    -0.9459795   50.6560400   -39.0661400  -61.3036600   -37.9816500  -81.2886000
 		     -41.9288700  -96.4377700   -29.9553400  -74.4925500    -2.7648710  -45.8679800   -10.1218900 -157.6785000
 		     -39.4713300 -114.4052000   -42.5930700  160.7355000   -10.3053100 -157.6854000    -2.7492420  -46.4209300
   58381660000    -0.9974560   50.9498300   -19.9770400  -45.1252100   -45.1712000  -73.2478300   -40.0630300  -74.0395200 
 		     -19.5448100  -43.2253300    -0.9512251   50.1917300   -40.6200700  -64.5697400   -40.5697600  -90.6195400
 		     -42.2151900  -96.2672500   -37.7076800  -70.9197200    -2.6832340  -45.8381900   -10.2502900 -158.2621000
 		     -42.6845600  -83.0382100   -32.9604800 -128.0209000   -10.2460100 -158.4015000    -2.7545080  -46.3648100
   58451650000    -1.0290310   50.8861000   -21.2932900  -41.7111100   -41.7215700  -89.1616100   -37.8515500  -96.8796200 
 		     -20.3066200  -38.8203700    -0.9555843   49.9462800   -39.6374300  -68.3469900   -38.8784900  -93.9751400
 		     -43.5899900 -111.9210000   -38.9658100  178.8577000    -2.7408540  -46.2343300   -10.1632900 -157.6432000
 		     -42.1027600 -118.6220000   -34.7016900 -172.5265000   -10.1050000 -158.3791000    -2.8146000  -47.0519700
   58521640000    -1.0159070   49.9640400   -19.0053300  -43.4302400   -42.4323500  -89.4376100   -40.4929500  -91.2519400 
 		     -19.8085500  -49.8742800    -0.8208713   49.5835800   -41.4753200  -62.5595700   -39.2670000  -94.5258700
 		     -38.0576000  -80.2171900   -42.5904800  -87.4684300    -2.7543020  -46.6689900   -10.1425400 -158.0559000
 		     -36.3665400  -81.3640400   -34.7478000  -30.7871600   -10.3292200 -158.9313000    -2.7736380  -47.1951100
   58591630000    -0.9565516   50.8574400   -21.5186500  -44.1269600   -39.6172700  -93.6610200   -41.9871500  -81.2917800 
 		     -20.1958500  -47.1263200    -1.0202260   50.7125200   -38.5708700  -77.2124600   -39.4216800  -86.3834600
 		     -46.4536900  -67.1379800   -31.2567100  -99.4131800    -2.7342980  -46.8365000   -10.1154500 -159.2940000
 		     -40.8896600  -55.6524900   -30.9783800  -57.6579700   -10.0900900 -158.9251000    -2.7335570  -47.3408900
   58661620000    -0.9918568   49.3824600   -20.2016300  -43.4656200   -39.8228100  -72.0635700   -39.2738800  -96.5410900 
 		     -19.5293300  -45.6434400    -0.8046924   49.5865100   -42.4463900  -89.6693600   -39.1583700  -84.6870400
 		     -40.8248900 -124.5299000   -43.2344500 -152.6553000    -2.8344870  -47.4026100   -10.0804200 -158.9953000
 		     -41.5966800 -140.6449000   -40.9257200 -149.4705000    -9.8881620 -158.2847000    -2.7237060  -47.6185200
   58731610000    -0.9925483   49.9263000   -21.0348800  -40.8132700   -42.2742500  -79.4473800   -42.7804100  -80.8953000 
 		     -20.3111100  -47.9966200    -1.2818180   49.8703000   -41.6613800  -77.5451300   -39.6697200  -90.5254700
 		     -43.9254200  -83.5322900   -37.6216900 -127.7299000    -2.8127610  -48.0216700    -9.9271890 -159.5897000
 		     -43.0115500  -98.3482100   -39.1008500  -40.3227000    -9.9781400 -159.0505000    -2.8284420  -47.9357100
   58801600000    -0.9934232   49.7951100   -20.8279700  -52.7517000   -43.9374600  -73.3090500   -40.6008900  -84.9594300 
 		     -19.9122600  -46.9713900    -1.1167950   47.4653100   -41.7184700  -78.0870900   -39.9866300  -74.3041600
 		     -40.8325300  -18.7569800   -43.6663500   36.2739100    -2.7869650  -48.0112100    -9.8609830 -159.0101000
 		     -39.3862400 -139.7780000   -35.9615600  -72.4228100    -9.8117650 -159.9313000    -2.7780930  -48.3737800
   58871590000    -1.1009310   49.4459800   -19.5350200  -53.9433200   -39.4128600  -88.4031800   -40.7798200  -84.0706000 
 		     -20.3364000  -48.1933000    -1.1107790   50.0286400   -40.3129600  -84.9003300   -40.1538400  -66.8294800
 		     -41.5496600  -79.0500600   -42.9598500 -130.6533000    -2.7591180  -48.3899200    -9.9718100 -159.3558000
 		     -38.7639700  -87.8562800   -37.8065500 -114.7902000    -9.9422850 -159.6534000    -2.7880460  -48.9134500
   58941580000    -1.1545660   49.4068100   -21.5322000  -36.4681100   -41.8008400  -91.1477100   -38.6545800  -86.9403300 
 		     -20.5674100  -42.7756400    -1.1620630   49.5212500   -41.9766500  -73.6474200   -40.1508500  -59.5595100
 		     -45.2616500 -112.7363000   -35.6014800  -85.7468000    -2.9490480  -48.2280200    -9.9415280 -159.8301000
 		     -39.3456800 -133.2275000   -33.3237500  -88.9514200    -9.6678180 -159.3786000    -2.8505100  -48.6618500
   59011570000    -0.9723920   49.0915600   -20.7905300  -48.2636000   -40.6339600  -80.0226400   -38.9216500  -84.4912200 
 		     -19.7524600  -47.7734800    -0.7926342   47.6195100   -40.4145400  -74.3052400   -39.7568300  -86.6553300
 		     -39.2103900  -83.6756500   -45.3797100 -169.2472000    -2.8087640  -49.0435300    -9.7573830 -160.4996000
 		     -46.0937700  -64.5345300   -35.6535000  -87.0400200    -9.7629830 -158.6494000    -2.7379990  -48.8799200
   59081560000    -1.0621800   49.0465000   -20.1631600  -41.2228900   -37.7983500  -93.2566800   -39.2954100  -81.5684600 
 		     -20.4049400  -45.6818200    -1.1880530   50.4326000   -42.0317000  -79.9435000   -38.9768800  -99.7568800
 		     -49.5282700 -126.4696000   -39.3019000 -134.4655000    -2.8341140  -49.8864400    -9.8141930 -160.7988000
 		     -37.7461500  -81.8924700   -31.5608600  -88.5564700    -9.8038090 -159.6432000    -2.8866450  -49.6554100
   59151550000    -1.0448260   49.0053500   -20.1618400  -50.8083600   -43.0253600  -84.5490800   -39.5878200  -97.8956500 
 		     -19.6721300  -44.0665600    -1.0997450   47.6709100   -39.6135300  -95.1854500   -39.4683000  -95.9550200
 		     -38.1541100 -111.8193000   -38.8634500 -157.1382000    -2.9279970  -50.1781300    -9.5396390 -161.0006000
 		     -38.6176000 -111.5193000   -40.0587500  -49.3183000    -9.7251110 -160.1885000    -2.9365900  -49.3178200
   59221540000    -1.0075850   49.0976100   -19.8886200  -47.4876400   -42.6982300  -86.5944700   -39.9257200  -85.2686200 
 		     -20.6981500  -39.3025800    -1.0768360   48.1926800   -40.3600100  -95.8905300   -41.7691000  -74.6790900
 		     -39.2824700  -27.1269300   -32.9529400  -74.4271000    -2.7519410  -49.9178200    -9.5489860 -160.3336000
 		     -44.4180300  -62.2892400   -31.1988500 -106.0293000    -9.6126640 -161.2704000    -2.8046840  -50.0628700
   59291530000    -1.0872680   48.6385800   -19.2634300  -52.4015600   -42.2763300  -89.2636600   -39.5507900  -92.2586700 
 		     -20.0969300  -48.5308600    -1.1153820   47.5820600   -40.6094200  -82.8797500   -40.6229600  -75.3779400
 		     -38.7827800  -38.5701300   -36.3736000  -86.7558800    -2.7825940  -50.6024800    -9.6761920 -161.4890000
 		     -40.3513400  -91.2578200   -37.6233200  107.4079000    -9.4804340 -161.2333000    -2.8746450  -49.9122200
   59361520000    -0.9754413   48.0712900   -20.8718300  -34.1296500   -40.5406200  -95.6688000   -37.8554900  -86.0731800 
 		     -19.6141100  -47.8315400    -1.0046870   47.1505700   -39.9016500  -75.0168700   -40.1195900  -94.9365800
 		     -37.0608200  -74.8260700   -35.1347800  -35.0758900    -3.0083730  -50.8487200    -9.5771820 -160.1294000
 		     -39.0139600 -100.9069000   -34.1838600  -57.8220100    -9.4017590 -160.5609000    -2.8751920  -50.7917200
   59431510000    -1.1848470   48.0007700   -19.7959200  -42.5850000   -40.9441100  -84.8373000   -39.4567500  -96.9716500 
 		     -20.1834700  -47.4719200    -0.9438478   47.3453000   -41.3485500  -84.1614500   -38.5779400  -77.7451400
 		     -38.6088300  -78.6499400   -45.0986400  -62.7156800    -2.8553080  -50.8709700    -9.4510430 -161.9393000
 		     -43.8977600 -113.3343000   -39.0067600  -89.3873100    -9.4843640 -161.8871000    -2.8819420  -51.0195100
   59501500000    -1.1455730   48.0145100   -19.2423200  -52.7135600   -39.7591600  -81.9557200   -41.0780400 -110.2463000 
 		     -19.6716300  -48.5193900    -0.8718640   47.5194500   -39.6607300 -102.2943000   -38.3579100 -104.8669000
 		     -39.4583200  -54.2903200   -41.6132200  -16.8866900    -2.8338810  -52.1074200    -9.3356220 -161.2047000
 		     -34.9076500 -118.0049000   -33.0376700  -72.3329400    -9.2878250 -162.7788000    -2.8426050  -51.9181500
   59571490000    -0.9559712   46.5862100   -18.7051400  -51.8532800   -41.0988200  -99.1208600   -39.3397900  -78.1594300 
 		     -20.8901400  -48.3893300    -0.9503261   46.4654300   -42.0043900 -100.8904000   -39.8221900 -103.3717000
 		     -40.0039100 -116.3263000   -33.7589900  -33.6843500    -3.0359740  -51.8162000    -9.3114630 -161.4778000
 		     -42.3225900 -154.2338000   -31.4683900  -87.2871200    -9.2974630 -161.5569000    -2.9318760  -52.0909300
   59641480000    -1.0842500   47.1105100   -19.6969800  -50.4805300   -42.9884700 -106.5627000   -42.6124000 -101.6250000 
 		     -19.4970700  -46.0994800    -0.9413315   46.6648800   -41.8182800  -80.6999900   -45.9726300  -70.5621600
 		     -39.2340100  -76.4901700   -34.5623200  -85.3256400    -2.8437740  -51.6561800    -9.2388780 -162.5404000
 		     -42.8363700  -77.2808900   -38.1058700  -18.0729900    -9.3884300 -162.3240000    -2.9180860  -52.0535900
   59711470000    -1.0254670   47.9937400   -19.5420500  -42.4536300   -40.3569100 -103.4993000   -40.0914000  -72.9037200 
 		     -19.5824200  -49.8520400    -1.0258780   46.3415300   -42.3574800  -76.8923500   -36.6754200  -80.6904400
 		     -35.3468000  -98.0202900   -43.9257400 -128.6548000    -2.8406280  -53.1883900    -9.3041520 -163.0012000
 		     -37.8351700  -54.2623100   -37.4810900 -155.0167000    -9.2000450 -162.8613000    -2.8155480  -53.1887800
   59781460000    -1.1082340   47.9644700   -19.3208000  -52.7999600   -38.6841700  -80.1248000   -40.7853300  -95.3344500 
 		     -20.6428600  -49.0080300    -1.0603740   48.1452300   -39.1130400  -83.7897900   -38.7723000  -88.7031600
 		     -42.2947500 -126.8952000   -32.3383300  -75.6861500    -3.0138230  -52.9365200    -9.1509490 -163.4003000
 		     -39.4394600  -81.7333900   -35.9284100  -38.5200300    -9.1919240 -162.3110000    -3.0666990  -53.0778300
   59851450000    -1.1636700   46.9687700   -20.0829800  -52.2264900   -41.6097400 -108.1636000   -40.1202200  -95.8574100 
 		     -19.8473700  -53.2540300    -1.0985170   47.3230600   -40.0122700  -94.6526000   -37.3027200  -89.0975400
 		     -39.7160400  -58.6865000   -36.8660100  -29.5705600    -2.8865070  -52.8135100    -9.2079790 -163.8635000
 		     -36.4542300  -95.2048600   -40.0569000  -46.3481300    -9.2029290 -164.4859000    -2.9685540  -53.3523400
   59921440000    -1.1010720   47.5946200   -20.1258500  -50.8901600   -45.3574100  -76.2388400   -38.4093700 -105.2391000 
 		     -20.8178700  -48.7020300    -0.9172320   45.0586100   -39.4182300 -100.6686000   -37.7740800  -84.9551500
 		     -39.5668600  -87.5900600   -32.5766800  -77.3563600    -2.8662380  -54.7474300    -8.9868770 -163.6572000
 		     -37.9073900 -101.6557000   -34.9603800 -146.9101000    -9.1241990 -163.3969000    -2.8684560  -53.9929600
   59991430000    -0.9997802   45.6536400   -21.2944700  -49.1547400   -39.4871200  -90.7436400   -38.9818200  -91.7405800 
 		     -21.4735700  -48.0599500    -0.7408345   48.3293200   -40.8874400  -88.8128300   -40.4812300  -98.7776300
 		     -40.6152200  -85.3981900   -47.3577300  103.9565000    -3.0057840  -53.6545800    -8.9765190 -163.8831000
 		     -34.9875400  -85.9863400   -39.5299000 -108.3324000    -8.9885650 -164.1966000    -3.0766580  -53.9485600
   60061420000    -1.1304400   46.0949200   -20.6723200  -59.1370500   -42.0348200  -86.4492000   -38.1075500 -102.5492000 
 		     -19.9279200  -46.8350600    -1.2571660   42.4350700   -41.0585300  -98.0639300   -38.4457200  -84.7228500
 		     -37.6639600 -104.5776000   -47.7856300 -125.6955000    -2.9157780  -53.9004900    -8.9353100 -164.2730000
 		     -39.3411800  -80.3062700   -48.4459300   -6.1545200    -8.9335560 -164.5026000    -2.9982800  -53.7924300
   60131410000    -1.1026740   47.8497000   -18.7920300  -48.7002200   -45.3290600 -113.7979000   -39.3826300  -92.2352100 
 		     -20.4585400  -55.9331600    -1.3943380   47.9991900   -39.3865400  -95.8915600   -38.9525500  -84.1629500
 		     -38.6122200  -84.1207400   -41.6334200  -12.2803800    -2.9178570  -55.0706900    -8.8876390 -163.9592000
 		     -40.3967000  -82.8336000   -34.8001900 -135.7089000    -8.7499740 -164.2458000    -3.0132370  -55.8767600
   60201400000    -1.1816510   45.3542300   -21.9252400  -45.5555300   -38.5332300  -98.9968000   -40.9201600 -101.8477000 
 		     -19.9652000  -51.6749500    -1.0684790   48.8491700   -41.1063200  -78.9307200   -36.9139000  -70.5004100
 		     -38.8909100 -136.8355000   -37.4736900  -85.2012900    -3.1243590  -54.7229100    -9.0216350 -163.7231000
 		     -39.8255800  -88.8145600   -39.0488500  175.4116000    -8.8680430 -164.3997000    -3.0833700  -55.2436100
   60271390000    -1.2992880   46.6350700   -20.6615400  -44.3813100   -41.3765200  -98.3301500   -42.0582600 -110.5705000 
 		     -21.1513700  -51.8541300    -1.2536590   44.9746200   -41.0259700  -74.6014200   -38.2276100  -95.5627700
 		     -41.1145300  -86.9438800   -39.8047900  -81.4792000    -2.9361080  -55.0226900    -8.7203240 -165.2984000
 		     -47.6634900 -134.2833000   -49.2980300   49.4035700    -8.7453120 -164.5412000    -2.9881580  -55.0431100
   60341380000    -1.0623740   46.7966400   -21.5771000  -69.9367500   -38.7601400  -78.6249500   -39.2030500 -103.3861000 
 		     -20.5891400  -51.3695400    -1.3783480   45.7091500   -39.3717400  -99.1070300   -39.6460700  -89.9440000
 		     -46.0964600  -90.7581500   -43.6144900   24.3985000    -2.9782540  -56.0473200    -8.9770170 -165.8746000
 		     -39.5371000 -119.4533000   -38.5101900  -82.8542900    -8.8552270 -164.9500000    -3.0954720  -56.7646500
   60411370000    -1.1291160   45.5570800   -20.4490700  -55.0553500   -41.1955000  -90.1352300   -40.7891400  -96.2461300 
 		     -20.0449000  -59.2531400    -1.0876510   46.3466200   -41.0439900  -77.8290600   -36.5746000  -94.2296200
 		     -45.3055600  -63.2524500   -34.1701000  -69.2697100    -3.0528140  -55.2485100    -8.7308490 -166.4485000
 		     -40.1763800  -97.4996100   -36.3666800  -53.9651700    -8.6926880 -166.3814000    -3.1628960  -56.0226700
   60481360000    -1.1544910   45.9266500   -20.4623700  -52.1719700   -41.5919100  -85.0025800   -38.9147000 -103.3229000 
 		     -21.3734000  -51.1882700    -0.9874164   46.5763800   -41.2587400  -91.2327200   -39.3058700  -91.5633500
 		     -36.9550700 -120.6802000   -38.4975100 -169.5565000    -2.9798620  -55.9514800    -8.5697850 -166.5868000
 		     -44.2814600 -131.1797000   -39.5682100  -47.3053000    -8.4858930 -166.4733000    -3.0508650  -56.1986500
   60551350000    -1.2017690   45.6195200   -21.1130500  -56.2511900   -39.4127400  -96.9777800   -39.5608600  -92.9971500 
 		     -22.9902000  -47.2834000    -1.2376890   45.1284800   -38.0256600 -103.1432000   -37.5917300  -90.7541400
 		     -44.9346000 -115.9752000   -37.6215700 -140.6537000    -3.0832340  -57.2967700    -8.5479270 -166.1749000
 		     -38.6652700  -98.8319600   -42.3516100 -146.0060000    -8.5533860 -165.8801000    -3.1050160  -57.2389000
   60621340000    -1.1303900   44.6286700   -19.9737700  -62.4364900   -38.5415100  -96.8835800   -40.6154700  -82.4915900 
 		     -21.0205000  -53.4358700    -0.9290123   44.7886500   -38.9646300  -89.8039400   -39.5059200  -95.3087300
 		     -44.8233200  -84.5341800   -36.5349200  -67.2926100    -3.1613140  -56.4559200    -8.4647300 -167.0433000
 		     -49.6928800 -136.2581000   -35.5695900  -40.3185300    -8.5892310 -167.7243000    -3.1761620  -56.8120000
   60691330000    -1.4872270   46.1827900   -19.0718300  -60.9006400   -39.8322500  -94.4475300   -41.0142700  -96.1654400 
 		     -20.8184400  -56.5384800    -1.0127820   43.6138200   -37.2518300  -93.5904600   -40.5282800  -86.8306700
 		     -54.6049900  159.8034000   -33.2171300 -100.4190000    -3.0215180  -57.1553500    -8.4916200 -166.4152000
 		     -42.5686200  -93.2556100   -43.9081800  125.7484000    -8.3703320 -166.1550000    -3.1269200  -56.9255700
   60761320000    -1.0384030   45.4097400   -21.2597800  -62.3273200   -40.9887200 -108.9004000   -40.1276900 -117.6083000 
 		     -20.5933000  -56.5994000    -1.3817830   44.6708300   -42.3091500  -74.6406000   -39.5377800  -81.8816500
 		     -37.5477300  -78.1694700   -38.5717800   -6.9944390    -3.1918620  -57.6054400    -8.5058010 -167.3578000
 		     -34.0095800  -88.6530900   -35.3643600  -29.5697900    -8.5172380 -167.1698000    -3.1491210  -57.9215900
   60831310000    -1.1427660   45.6021200   -22.0387900  -41.6512000   -37.8788500  -96.7909700   -42.3550200  -99.5364900 
 		     -21.6031900  -53.4506900    -1.0705730   45.0668000   -42.5047800  -91.8954800   -38.4645900  -81.0932300
 		     -35.7903600  -81.9571800   -36.7506300   29.1883000    -3.1006030  -57.6932400    -8.2997420 -167.2876000
 		     -51.5550300 -113.6655000   -37.0476900 -104.1119000    -8.5067580 -167.3321000    -3.2166410  -57.5099000
   60901300000    -1.2962970   45.4030000   -22.1115500  -52.3775700   -38.6189900  -98.9428100   -41.0567900 -102.3813000 
 		     -20.7564000  -52.6365400    -0.8666407   45.3498000   -38.7435700  -99.9707900   -38.5312600  -84.4238700
 		     -48.6307800  177.1326000   -34.9144500  -85.2998400    -3.0717520  -58.1955700    -8.2985360 -168.0328000
 		     -36.8893000  -97.9831000   -33.0767700 -108.8971000    -8.4551060 -168.8697000    -3.1228350  -58.1897000
   60971290000    -1.2940940   45.6129700   -20.8147800  -64.6555400   -39.5636100  -89.7342100   -36.4838300 -115.0970000 
 		     -19.6201200  -59.5724000    -1.3025500   45.5229200   -41.8891500  -95.4006200   -37.9195000  -90.6300300
 		     -39.1722800 -104.5607000   -43.4895400 -109.9361000    -3.2398510  -58.2493000    -8.3498880 -167.7314000
 		     -40.4698900 -111.3476000   -36.3171100  -97.2542000    -8.1247670 -167.6155000    -3.3316170  -58.7121600
   61041280000    -1.1341760   44.0339500   -18.6079000  -62.0715300   -41.4237700  -93.9639900   -40.3055900 -101.7108000 
 		     -20.4944400  -50.6524400    -1.1847910   43.0839500   -39.0197900 -110.1622000   -39.5185700  -88.4971700
 		     -44.3027300  -85.6711200   -54.1658000  -36.3662600    -3.2887270  -58.3663500    -8.2591210 -168.4903000
 		     -39.7582500 -106.3353000   -32.9496300  -87.7862000    -8.1673160 -168.4611000    -3.2836630  -58.8718400
   61111270000    -1.1402030   44.6167100   -21.0225300  -57.2114500   -38.2881700 -100.5424000   -39.8356000  -93.9612600 
 		     -19.6392900  -56.3220100    -0.9346964   44.5025700   -41.7806100  -77.3788700   -39.7735900 -112.9597000
 		     -42.7738000  -75.6697400   -36.4643800 -117.4893000    -3.1303200  -59.4727100    -8.2991290 -168.3568000
 		     -37.4341900 -137.6833000   -32.9011600 -100.8475000    -8.3409610 -168.3084000    -3.1950680  -59.3353900
   61181260000    -1.0448390   44.9001800   -20.1353700  -47.1186000   -39.9874200 -105.0171000   -40.9933800 -101.2756000 
 		     -20.0992900  -52.2043000    -1.1935530   45.2442900   -40.3490900 -108.3675000   -39.0229100 -101.4952000
 		     -39.9894800 -123.8322000   -35.0761900  -66.7729600    -3.2341490  -59.0932600    -8.2290070 -168.3235000
 		     -40.3189300  -93.3232100   -31.8715600 -133.8344000    -8.0946800 -169.0591000    -3.3404770  -59.7272500
   61251250000    -1.1144450   43.6361300   -22.4815800  -48.3626700   -40.8527900 -104.2476000   -37.4657100 -103.2071000 
 		     -20.4221400  -52.3935700    -1.1204910   44.6944500   -41.8570600  -88.9282800   -36.2803900  -95.9377300
 		     -38.9553200 -128.2159000   -52.2895600 -124.3478000    -3.2462850  -59.1624100    -8.1457720 -169.4469000
 		     -40.8566400  -91.8077200   -31.0143800  -96.2176500    -8.1394840 -167.8531000    -3.2957960  -59.9074500
   61321240000    -1.1264080   43.4490100   -18.9783900  -52.2521100   -39.6186500  -99.5463800   -39.4504500 -109.7662000 
 		     -20.1105700  -55.9405200    -0.7286414   42.3780300   -39.9288600  -95.1668600   -34.7355400  -93.0120200
 		     -44.6144900 -102.2622000   -34.5758000  -87.9133800    -3.3025190  -59.2815300    -8.0656250 -169.2684000
 		     -37.0200800 -135.0407000   -35.0976000  -41.7817200    -8.0155030 -169.3355000    -3.2966280  -60.1345300
   61391230000    -1.2767140   44.7577000   -20.6929600  -51.6683700   -40.8899400  -94.0638000   -39.4481900 -115.4087000 
 		     -21.0190500  -53.0877500    -0.7238889   42.7412800   -42.8553000 -109.3161000   -38.1889400  -97.4745300
 		     -41.5985300 -117.1879000   -39.5895000  -48.3202800    -3.2408440  -60.3470000    -8.0152360 -168.9665000
 		     -38.1902600  -97.5552800   -36.4313300    5.6381960    -8.2368690 -168.2984000    -3.2525660  -60.2669800
   61461220000    -1.2594240   43.9524000   -20.2378700  -61.1540000   -41.7642500 -113.6575000   -39.1100600 -118.0399000 
 		     -19.6626200  -60.7423400    -0.8268881   43.6343000   -40.0427200 -119.9809000   -36.4699300  -84.6580400
 		     -41.2797500  -96.9495200   -38.5635300  -92.9791900    -3.2860080  -60.0600400    -8.0583900 -169.7410000
 		     -38.4016000  -75.5335200   -32.8788800  -94.5673800    -7.8774600 -170.7599000    -3.2761760  -60.7938000
   61531210000    -1.3050190   44.0424500   -19.3574700  -52.7373100   -39.3561900 -102.3708000   -41.2544800 -110.6020000 
 		     -20.1275300  -60.1411900    -1.0210920   44.5618800   -41.3248900 -116.5770000   -36.8975500 -106.6599000
 		     -37.1632400 -137.5027000   -32.3063800 -141.5501000    -3.3295320  -60.6534300    -8.1767300 -170.1223000
 		     -44.0587700 -130.2498000   -35.6861500 -108.4550000    -7.9197230 -170.5333000    -3.3519670  -61.2925900
   61601200000    -1.2537910   43.7052300   -19.5600400  -52.5445800   -41.0315000  -90.0312600   -37.8707800 -112.6721000 
 		     -19.7550000  -56.9372200    -0.8574035   42.4892600   -39.1417500  -82.9169300   -38.9550000 -106.5597000
 		     -40.1166300  -99.7550700   -38.5752100 -101.3004000    -3.2545180  -61.0667200    -7.9339610 -169.7285000
 		     -39.1400300  -65.8656800   -36.5196300 -103.9586000    -8.0676370 -169.9135000    -3.3145220  -61.1847400
   61671190000    -1.1406740   43.9564500   -21.5716600  -60.1147700   -43.9848000 -110.4834000   -39.2998400 -109.1439000 
 		     -21.3121300  -62.8273600    -1.3436100   43.4830200   -38.9210100 -112.6114000   -37.4326700  -96.2469200
 		     -38.4469300  -93.8123100   -34.0421000  -90.1709100    -3.3100830  -61.0476300    -7.8628630 -169.9667000
 		     -37.0751000 -112.3964000   -38.9054000 -165.2069000    -7.8106460 -170.6817000    -3.4217730  -61.7993200
   61741180000    -1.1348720   43.0152300   -20.5130400  -53.5350400   -39.3881300  -96.0433000   -38.9012000 -111.1970000 
 		     -21.2751000  -60.5208500    -1.2343610   44.2055800   -38.3748200  -79.7640900   -38.0887800  -97.7154200
 		     -43.7504000 -160.2246000   -35.9197800  -85.0452200    -3.3601810  -61.5073200    -7.8756340 -171.0089000
 		     -37.2878900  -84.0080100   -46.8395700  169.4828000    -7.8670130 -171.1534000    -3.4758330  -61.6140100
   61811170000    -1.0907040   43.0968200   -20.8854500  -54.0386800   -38.9055900 -106.5958000   -39.7048500  -91.3580500 
 		     -19.1024800  -55.8881300    -0.8841436   45.1332500   -39.6343900 -103.4441000   -38.7361100  -95.1758500
 		     -46.3550600 -106.2940000   -31.3462600  -49.8798100    -3.2561110  -62.3946900    -7.8784630 -170.3784000
 		     -45.5108800 -124.2231000   -36.5190900 -149.9516000    -7.8935280 -170.6689000    -3.3528840  -62.0169400
   61881160000    -1.2065340   43.0796000   -21.0450600  -67.8943500   -38.0074700  -96.6963500   -38.4197100 -116.4020000 
 		     -20.1451100  -56.9080800    -0.9257424   40.9346400   -42.4328400 -121.7719000   -36.8911300 -101.4502000
 		     -50.2224500 -103.1494000   -44.6873500  152.1303000    -3.3778980  -62.4329700    -7.7450580 -171.5263000
 		     -39.0382800 -113.2260000   -31.6191500 -128.2467000    -7.6636080 -171.0854000    -3.4552430  -62.4804200
   61951150000    -1.2076510   43.3419100   -20.9101700  -61.2174400   -37.6231500 -111.1223000   -40.0452600 -109.6499000 
 		     -21.3935200  -60.0070300    -0.9268920   42.6761000   -37.2125200  -85.1030600   -38.9980600 -100.4113000
 		     -38.3653500  -74.5471300   -36.2480100  -64.2634600    -3.3867260  -62.4772400    -7.6807370 -171.6242000
 		     -33.8793900 -145.4049000   -40.1378300  -99.2913700    -7.6468260 -172.3341000    -3.4171890  -62.0468800
   62021140000    -1.2209440   42.5304900   -20.6176700  -55.1633200   -43.0613300  -88.5277300   -39.5493500 -104.8033000 
 		     -19.6740600  -60.2257000    -0.7602789   42.8765400   -37.9291200 -111.5459000   -38.2586000 -106.2496000
 		     -38.6893700 -106.5538000   -36.7182700  -82.5148200    -3.3440250  -63.2739200    -7.5221720 -171.9784000
 		     -36.0028500  -81.2655600   -31.8075200  -45.8434000    -7.5925350 -171.5320000    -3.3993660  -62.9299900
   62091130000    -1.1772930   42.3314800   -21.1435800  -73.9990500   -41.0878600 -143.9769000   -38.8108700 -103.7731000 
 		     -22.0050600  -55.7735200    -1.3577610   41.4322300   -41.8053600 -115.8398000   -36.4955700 -101.5008000
 		     -41.6872800 -118.0676000   -36.2997000   44.0424600    -3.3620170  -63.6502900    -7.8058120 -172.6058000
 		     -33.6144200  -73.8332400   -45.0117400 -159.5700000    -8.0122870 -170.8966000    -3.4364430  -63.3118600
   62161120000    -1.4377270   42.7501800   -21.5440300  -55.6560200   -39.3825800 -107.1329000   -42.0512400 -114.9158000 
 		     -18.8419300  -56.4605700    -0.8247789   40.6845400   -41.6514200  -90.0494300   -38.9599800 -113.0465000
 		     -51.9364600    0.6428688   -43.2373700 -105.2122000    -3.3179380  -63.5125900    -7.6804440 -172.6039000
 		     -40.4388300 -106.6534000   -33.1124800  -73.7341200    -7.7815590 -174.7163000    -3.5222430  -63.0166600
   62231110000    -1.2557740   42.5040800   -20.6004500  -49.3579800   -41.2638000 -110.0512000   -39.2164900  -96.3112000 
 		     -19.8370300  -55.5785200    -1.0941430   41.2982600   -39.3792800 -108.9203000   -35.7897100 -101.2346000
 		     -38.7638000  -94.0171400   -32.8372600 -122.0921000    -3.4229990  -64.3250000    -7.3424670 -171.3929000
 		     -37.2385300  -94.2569600   -29.8703900  -92.9234300    -7.5853890 -171.1985000    -3.5029830  -64.7378400
   62301100000    -1.2540660   41.8436400   -21.0261800  -60.1701100   -40.9569100  -98.3489800   -39.9850100 -124.6380000 
 		     -20.7716300  -52.7477000    -0.7295749   40.9135700   -39.3092300 -105.2507000   -37.6111500  -99.1588100
 		     -43.5458600  145.9733000   -38.2953200 -162.6685000    -3.4634740  -64.7086700    -7.5467320 -172.3444000
 		     -36.0662500 -112.2413000   -32.0748700  -45.7355300    -7.5332730 -171.7756000    -3.4438410  -64.4886300
   62371090000    -1.1734500   41.5475400   -24.0090600  -63.8359300   -40.4605900 -133.3287000   -41.6880600 -125.8963000 
 		     -20.9466100  -64.7366000    -0.4378951   40.3448700   -42.5456200 -121.3595000   -35.9182500 -111.4961000
 		     -40.3004100 -147.4248000   -32.4081700  -24.1848400    -3.5116070  -64.4680900    -7.3853160 -172.8594000
 		     -37.6373400 -135.9846000   -42.4313500 -136.5881000    -7.3271820 -173.6072000    -3.5352900  -64.4279200
   62441080000    -1.3390780   41.3661200   -19.7962400  -54.0634500   -38.9006500 -105.2039000   -38.7908000 -137.4573000 
 		     -23.9344100  -51.3595600    -0.9675404   41.1773800   -37.4173600 -103.9141000   -38.0669500 -105.8477000
 		     -34.3927500 -112.1342000   -30.2339000  -85.2935300    -3.5076580  -65.1029300    -7.5447010 -172.5362000
 		     -48.8989900 -167.6015000   -40.5863000   26.1852900    -7.3484090 -172.1199000    -3.4624920  -65.7098300
   62511070000    -1.2912200   41.4876100   -21.4045800  -67.8828900   -39.2555500 -115.9810000   -42.7762100 -117.2032000 
 		     -20.4324800  -61.8999800    -0.8163043   39.4532300   -38.9247200  -91.7050600   -36.5127600 -109.2717000
 		     -45.3547400 -140.9846000   -48.8540100  -93.7938900    -3.4917850  -65.8287000    -7.4558080 -174.3111000
 		     -44.8769700 -110.5374000   -35.7147300  -53.7783200    -7.4765900 -172.7776000    -3.5450900  -64.8618900
   62581060000    -1.1039400   42.1827500   -22.5626600  -60.9363800   -39.5188900 -111.4903000   -38.5581200 -123.4600000 
 		     -20.2845600  -63.6929100    -0.8380389   38.6897400   -38.9980900  -95.7097500   -36.2119100 -106.4577000
 		     -36.0560700 -109.6481000   -40.4566100 -166.0478000    -3.5172630  -65.6155500    -7.2055510 -175.4079000
 		     -36.9052000 -104.1413000   -46.1359500 -134.0628000    -7.2111230 -174.4770000    -3.5738530  -66.0885200
   62651050000    -1.2607380   40.9069200   -20.4220200  -66.5291100   -38.8784400 -122.7650000   -40.3972800 -114.2050000 
 		     -19.9817800  -62.1704700    -1.0173700   40.6668500   -38.3999000  -99.3964000   -38.4142900 -110.4041000
 		     -43.5793800 -114.9650000   -30.3060700  -69.6814900    -3.5873880  -65.4351700    -7.2726390 -174.2971000
 		     -36.0205000 -119.7059000   -38.3439900  -60.4476200    -7.2622250 -174.0777000    -3.5669540  -66.2266600
   62721040000    -1.2980750   42.6065300   -19.3895600  -71.4260100   -39.5056300 -109.3045000   -38.3135400 -119.1713000 
 		     -20.1942800  -67.2135500    -0.7875267   40.6202500   -41.8599700 -122.8758000   -39.4127600  -97.3760100
 		     -48.9089600 -171.3969000   -29.5625400 -128.2305000    -3.4594940  -66.5363800    -7.3542120 -174.4692000
 		     -38.6516300 -114.0785000   -32.2453700 -102.6464000    -7.3374130 -173.9229000    -3.5309910  -66.3627400
   62791030000    -1.3499000   40.9985800   -19.7382800  -71.5857000   -40.7011900 -112.3176000   -38.8967700 -114.1091000 
 		     -20.8134600  -63.5505100    -1.1338740   37.4171800   -42.4285900 -104.7113000   -43.3691900 -113.9255000
 		     -41.7089500  -68.9719100   -34.2818900  -41.4115900    -3.4464340  -66.9626200    -7.1655190 -174.6238000
 		     -33.3259200 -153.7844000   -37.9284700  -81.3143200    -7.3493760 -174.6150000    -3.7206410  -66.7539500
   62861020000    -1.3517430   40.5477400   -21.7046400  -74.6202500   -40.4388200 -117.6572000   -38.2203500 -109.0945000 
 		     -19.5265500  -54.4972000    -0.7562404   38.5452900   -40.3765400 -108.1796000   -37.8173400 -109.7675000
 		     -40.5890900  -68.9833800   -43.3647500   21.6256400    -3.6559460  -66.9457100    -7.1431450 -174.2208000
 		     -43.3543400 -147.7674000   -37.5910600   -2.5472750    -7.1456600 -174.6546000    -3.6305620  -66.9348600
   62931010000    -1.2203250   41.0193500   -21.9334700  -69.3966100   -39.9252000 -128.1828000   -38.8166000 -129.2938000 
 		     -20.3080400  -65.1275300    -1.2178060   38.9645000   -39.3090300 -118.4395000   -37.3431900 -116.4876000
 		     -39.0701600 -125.4513000   -35.7188700 -109.5397000    -3.5400320  -66.0792800    -7.0814850 -175.2105000
 		     -34.6214900 -114.7223000   -44.3897200  -85.8152900    -7.0519790 -174.9672000    -3.6445770  -67.1480300
   63001000000    -1.2138910   40.8721300   -21.3084600  -65.1445200   -40.7675100  -83.9494000   -36.9597100 -132.4472000 
 		     -19.9503100  -71.2115900    -1.0824700   39.7198800   -40.2005800 -111.1278000   -36.2866200 -105.8760000
 		     -39.1436500 -118.9150000   -47.6987500   42.7402400    -3.5845350  -67.5326400    -7.1577470 -176.1480000
 		     -40.3461000 -126.6905000   -34.0620700  -92.3389200    -7.0906470 -176.5011000    -3.7296000  -68.0901400
   63070990000    -1.3017440   40.4409100   -19.7996900  -52.1919800   -45.0995100 -122.0889000   -37.2142200 -115.9885000 
 		     -23.3220400  -61.8101700    -0.9495336   38.3581700   -42.0059200 -133.6344000   -36.8951200 -113.1185000
 		     -38.4843900 -116.2284000   -42.6874700 -155.9836000    -3.6524290  -67.3301800    -6.9457420 -175.3839000
 		     -49.6522200 -147.8824000   -34.2273600 -103.9768000    -6.9293830 -176.7640000    -3.6669470  -67.2303600
   63140980000    -1.0518640   40.7832800   -21.2882400  -64.3769900   -39.9738200 -113.1041000   -39.5726900 -116.2233000 
 		     -19.6976200  -60.9250900    -1.2945640   38.8882500   -38.2650200 -110.3551000   -37.7243100 -104.5689000
 		     -32.4823500 -118.4837000   -36.2207800  -31.7178800    -3.5428830  -67.9147000    -6.9534730 -176.7096000
 		     -34.3648900 -143.3819000   -32.8518200 -144.5708000    -7.0339070 -175.7016000    -3.6594030  -68.4220200
   63210970000    -1.1084540   39.8249600   -18.2399900  -48.6871800   -36.8781800 -123.6669000   -39.3598500 -130.8759000 
 		     -21.4671700  -49.6876200    -1.7426460   43.0845000   -39.0789100  -97.0899700   -36.5674900 -103.8802000
 		     -40.5771600 -131.1391000   -34.2411300  -38.2663200    -3.5353760  -68.6763200    -6.9857740 -175.8771000
 		     -41.3933900  -87.8073700   -38.3920300  179.4423000    -7.1852990 -176.2983000    -3.7271670  -68.3969300
   63280960000    -1.2549190   40.8542700   -19.3563900  -66.5533100   -37.8580600 -124.9761000   -37.0437200 -126.3601000 
 		     -21.3578400  -66.3383000    -1.2396230   34.9122500   -39.2812300 -109.2814000   -39.3300400 -103.6830000
 		     -36.6719200  -80.2217300   -30.5125500 -117.1987000    -3.8415990  -68.0131400    -6.9196440 -176.6763000
 		     -45.2189300 -125.2912000   -35.0962500 -101.9530000    -6.6218850 -177.5371000    -3.6792800  -67.8551300
   63350950000    -1.2246170   40.7959500   -19.2908500  -56.3238500   -39.2510500 -112.4056000   -39.5865300 -129.2613000 
 		     -20.8878000  -64.5948600    -1.0695040   41.0239100   -38.7414700  -81.8780800   -39.0155800 -142.1354000
 		     -39.8594400 -122.4407000   -26.4654800  -85.8600800    -3.4769440  -68.2463400    -6.8195010 -176.5115000
 		     -37.6360200 -117.0719000   -39.0788200 -178.3297000    -7.0113570 -176.3977000    -3.7340700  -70.1442400
   63420940000    -1.2113390   39.3599700   -19.3719100  -57.4686200   -39.4203100 -130.1661000   -40.6176900 -115.6105000 
 		     -19.9971700  -62.8218400    -0.7038105   39.6039500   -39.7113000 -113.8928000   -34.3084400 -119.1885000
 		     -39.5102100 -129.9523000   -46.1937000    0.2479972    -3.7950920  -69.2989000    -6.8254880 -176.8626000
 		     -35.3026900 -113.9183000   -32.2828600 -112.5482000    -6.7041800 -175.5616000    -3.6922290  -68.3107800
   63490930000    -1.3445990   39.9160100   -18.1952100  -63.8424000   -38.3653300 -107.1547000   -39.1663100 -126.8975000 
 		     -21.0381700  -71.3859900    -0.8363094   40.7365800   -38.9098200  -91.2476600   -38.8618100 -119.5289000
 		     -38.8256000  -90.2070900   -35.8540600  -83.5681800    -3.8767720  -68.8880700    -6.7686570 -177.2998000
 		     -48.6118700  -55.3372600   -35.2921400  117.6524000    -6.5372430 -178.1885000    -3.7370350  -69.0108500
   63560920000    -1.1718440   40.7328500   -19.6157800  -81.7113400   -39.1590100 -114.7768000   -40.6664400 -114.1360000 
 		     -20.6122600  -65.1406800    -1.2710290   41.5808000   -39.9077300 -114.0305000   -37.4548800 -117.9799000
 		     -33.1661300  -92.5958300   -32.6725600  -54.7696500    -3.6146920  -70.0335500    -6.8288400 -175.7798000
 		     -41.3386900 -102.9147000   -36.7836100   42.7352100    -6.8171520 -175.0453000    -3.7739040  -70.6544800
   63630910000    -1.1716080   38.4892800   -18.6534700  -48.8188200   -42.0924000 -106.9314000   -40.0447000 -117.7655000 
 		     -19.9579500  -73.1606100    -0.6166595   37.8555300   -40.1434500  -96.4247700   -38.7510900 -115.5992000
 		     -36.0996800 -125.0496000   -35.1453900 -112.3438000    -3.8100340  -70.5980200    -6.6272810 -177.1886000
 		     -42.2023300 -138.0715000   -29.3379800  -52.7077300    -6.8009180 -176.2886000    -3.8513790  -69.1503100
   63700900000    -1.3531850   39.9537000   -21.5296100  -61.0606800   -39.1571400 -105.0503000   -38.2457600 -126.5592000 
 		     -20.4871100  -66.2927900    -1.7393280   38.1313100   -42.5575500  -85.2089800   -37.2577900 -122.9730000
 		     -36.5043100 -137.5575000   -32.0409400 -162.1694000    -3.7874560  -70.8402900    -6.6115510 -178.6279000
 		     -42.4645800 -154.8448000   -37.1426500  -57.1220700    -6.7246860 -178.3529000    -3.7246010  -70.4374300
   63770890000    -1.0350910   39.7960100   -18.5463400  -75.0523500   -42.2704400 -134.9174000   -39.4090200 -125.0029000 
 		     -19.5181500  -59.8329300    -0.9707227   36.3863300   -41.4616100 -110.1308000   -38.3146000 -115.4457000
 		     -37.9008300 -105.9511000   -51.9920100 -125.4926000    -3.6399190  -70.7066700    -6.5953000 -178.0673000
 		     -36.2907100 -100.0207000   -38.8440100 -105.4995000    -6.6360540 -177.6210000    -3.8426490  -71.0547800
   63840880000    -1.3776000   39.7624500   -21.0916600  -60.3792600   -39.5077800 -128.0940000   -39.9703100 -124.3725000 
 		     -20.5013400  -72.7939200    -1.2275070   34.9977300   -37.0563000 -109.7350000   -40.1306000 -115.8717000
 		     -34.8467400  -45.1429900   -42.8639800   12.0073800    -3.7936310  -71.6607600    -6.6776770 -178.4415000
 		     -35.6013500 -129.4483000   -37.7140300  -66.6295900    -6.7000750 -177.6135000    -3.7058000  -70.2644300
   63910870000    -1.4119670   38.9144900   -18.7918900  -65.8873400   -39.0250800 -128.2964000   -38.5003600 -134.6067000 
 		     -19.9989100  -68.3534600    -1.2123030   38.5089700   -38.9876100 -129.2777000   -38.0860400 -131.2988000
 		     -38.6785300 -105.0360000   -32.0527100 -137.2324000    -3.8869590  -72.0749500    -6.6342070 -179.5036000
 		     -36.1308600  -83.7821600   -33.7402800  179.8723000    -6.5957200 -179.6651000    -3.6890620  -71.3888100
   63980860000    -1.1471300   38.5601700   -18.8645300  -66.6064000   -42.7664200 -114.4021000   -40.1833500 -117.6863000 
 		     -21.3186200  -56.5883100    -1.1256990   37.7572500   -36.9428700 -129.7254000   -37.4616500 -115.8162000
 		     -49.2673500  -86.4573700   -32.5270400 -117.1222000    -3.7548790  -71.0510300    -6.5199620 -177.6341000
 		     -33.1082900 -116.4843000   -29.6044700 -105.2383000    -6.5272570 -178.9516000    -3.9398090  -72.2839700
   64050850000    -1.2585310   38.2312300   -19.5676300  -64.5834700   -38.6898800 -132.4266000   -37.6585000 -124.3366000 
 		     -20.3868800  -68.7612100    -1.2435280   35.2212500   -39.8295900 -107.8895000   -37.5574200 -112.2362000
 		     -51.5992800 -139.9925000   -29.0989500 -110.6114000    -3.8429420  -72.7515500    -6.3995260 -177.9768000
 		     -38.2744000  -93.8491600   -31.3874000 -128.6402000    -6.5114090 -178.5705000    -3.8434530  -71.1619900
   64120840000    -1.2668020   38.2720500   -21.7113500  -80.6876600   -38.7740900 -124.2565000   -39.5464400 -127.7222000 
 		     -21.3537500  -64.6700400    -1.6479140   37.9323800   -39.2920600 -128.1658000   -37.5305100 -135.1783000
 		     -37.1854300 -127.2234000   -36.7311400  151.8300000    -3.9634890  -72.5790900    -6.5165310 -178.3625000
 		     -37.0979800 -147.1175000   -40.0598500  -26.6565700    -6.5947560 -178.1536000    -3.8195350  -73.2033100
   64190830000    -1.3647450   37.8100900   -20.2140600  -76.3849900   -39.1980100 -137.0166000   -38.7471700 -124.6622000 
 		     -20.0316800  -67.3634000    -1.0977680   37.0625800   -41.9869800  -82.4275100   -38.9237200 -114.5202000
 		     -36.4587300 -169.5095000   -39.1858900  -87.7925600    -3.8482520  -72.5593300    -6.5172330  179.7787000
 		     -35.0711900 -115.7999000   -42.2996700 -111.9507000    -6.4959190 -179.9405000    -3.9144640  -71.9429200
   64260820000    -1.4993320   38.2173700   -21.4178400  -65.2879900   -39.4481300 -126.4217000   -39.0855900 -124.7027000 
 		     -20.6792800  -71.6228600    -0.5613936   35.9079700   -38.5349500  -97.3663900   -35.6765700 -128.8528000
 		     -36.0802300 -120.6410000   -43.0563500  137.6681000    -3.7350250  -73.5541600    -6.5399380 -178.6808000
 		     -36.3853000  -60.7915100   -35.9947100 -171.9577000    -6.6000480 -178.9001000    -3.9328210  -73.0328200
   64330810000    -1.3086180   39.4917800   -21.1651900  -74.2446700   -39.1268200 -118.0978000   -38.4983100 -127.5761000 
 		     -20.3023600  -72.9363300    -1.2569460   36.2229200   -41.6119600 -111.5786000   -37.0192000 -127.3011000
 		     -35.3753100 -128.1489000   -34.3653400  121.7177000    -3.8513420  -73.7976900    -6.2513540  179.6734000
 		     -41.0479500 -128.6541000   -34.9623700 -138.2147000    -6.3188180  179.8517000    -3.9952900  -73.7572900
   64400800000    -1.2264280   37.1899500   -21.6674300  -74.3492000   -37.8650900 -118.2726000   -39.3573900 -124.4499000 
 		     -19.6354000  -71.5289600    -1.2297080   35.6132700   -39.3338600 -113.9789000   -41.5405200 -117.0110000
 		     -43.4062900  -83.6680700   -36.5732400 -112.6013000    -3.8965920  -72.8817300    -6.4296670 -179.8122000
 		     -36.6862900  -95.8512300   -37.0700800  -93.7749200    -6.1427960  177.8103000    -3.9766910  -73.3698000
   64470790000    -1.2669810   35.4946100   -20.5111100  -74.2860900   -39.3986100 -121.6329000   -39.2602500 -137.8224000 
 		     -19.6270000  -72.2769300    -1.0261030   33.8703500   -42.3668700 -117.1338000   -34.5997200 -125.8681000
 		     -47.3598900 -131.6568000   -32.8848000   34.2262800    -3.7306750  -73.8764200    -6.1654310  178.8511000
 		     -35.0063900 -165.3225000   -29.2340000  -97.8871600    -6.2165140  179.6617000    -3.8889220  -73.9541100
   64540780000    -1.0743920   38.4548100   -19.9161600  -64.9969400   -38.8576400 -128.6346000   -38.0072600 -119.1729000 
 		     -21.2246400  -70.5272000    -1.0771750   34.4106100   -39.8901000 -120.2877000   -37.7150200  -88.9859300
 		     -32.9896100 -122.6090000   -42.2487100   18.3021600    -3.9480060  -74.6970700    -6.1962280  179.1789000
 		     -37.7378800 -119.0501000   -40.0535500  -33.5472200    -6.2242120  179.8877000    -4.0354850  -75.4870100
   64610770000    -1.4209950   36.4267400   -20.3104800  -67.9469000   -43.0805700 -124.1171000   -37.9836300 -128.1839000 
 		     -20.6466100  -74.2618500    -1.2212860   36.1156900   -37.2207100 -102.4481000   -36.1522200 -102.5921000
 		     -35.9714300 -111.1645000   -38.1572700  143.3840000    -3.8955980  -74.1717400    -5.9738780  179.3217000
 		     -32.8277100 -141.2979000   -34.1884100 -127.6117000    -6.0984350  178.3888000    -4.1255390  -74.0925800
   64680760000    -1.5290950   37.5833300   -19.8885400  -76.6630000   -39.8281600 -130.0630000   -41.4818000 -104.3726000 
 		     -20.3756000  -64.7041800    -0.8751294   37.4649000   -38.9844900 -108.2436000   -36.8832700 -113.4186000
 		     -43.3544800 -132.7198000   -32.0741800  -49.2996500    -3.7601440  -76.3656200    -6.0532390  178.4478000
 		     -34.6922600 -174.1926000   -31.8357600 -146.8231000    -6.0860590  178.8041000    -3.9013560  -75.5137900
   64750750000    -1.0802150   36.9508400   -20.4247400  -73.3766500   -39.0402100 -130.3606000   -38.1398400 -118.3165000 
 		     -19.2472200  -69.4935700    -1.2735630   35.8902200   -37.9322700 -109.5615000   -38.9047700 -115.8157000
 		     -39.0140500 -141.9901000   -29.4527900  -92.0691900    -3.9487040  -76.8647300    -6.1151170  178.1499000
 		     -42.8707800 -147.8174000   -43.1621800  153.7327000    -6.0879080  177.7521000    -4.1255960  -76.2833900
   64820740000    -1.5250530   36.8323100   -19.8536100  -73.8545200   -42.1181100 -120.1404000   -36.2371000 -128.8669000 
 		     -21.0482700  -75.0753300    -1.0036430   34.2214200   -37.2389800 -114.8261000   -37.8900600 -127.7850000
 		     -40.4562600 -112.5030000   -37.1030100 -162.8066000    -3.7877000  -76.7826100    -5.8210600  178.1900000
 		     -36.1282400 -145.2783000   -39.4651200  177.7383000    -6.1634820  177.7132000    -4.0909600  -75.1107800
   64890730000    -1.3573480   37.4966400   -19.8455100  -85.8194900   -39.5089100 -129.9443000   -38.4034400 -129.1056000 
 		     -20.4764600  -72.6185600    -1.8446690   37.4347500   -40.7641500 -105.6842000   -36.0069000 -136.4355000
 		     -35.1347400  -97.0691800   -32.4046900 -132.0150000    -3.8302270  -77.2714800    -6.0150240  177.1740000
 		     -35.6905600 -155.4312000   -45.1973200  -50.5756000    -5.8553360  177.1565000    -3.9717160  -76.9187900
   64960720000    -1.3807210   34.3754800   -20.1261900  -68.7672200   -42.1870000 -146.3605000   -39.4412600 -124.6714000 
 		     -20.4176100  -73.0340300    -1.1095860   35.9824500   -39.7106700 -130.7985000   -38.0283600 -111.1694000
 		     -37.8322400 -139.0651000   -51.1840800  170.3527000    -4.0740360  -77.7716300    -6.0513220  177.1685000
 		     -39.6736900 -142.4159000   -41.3135600 -102.4043000    -6.0269350  176.7521000    -4.2293130  -76.4823900
   65030710000    -1.3634910   35.8669700   -19.6831300  -58.1318800   -41.9137900 -146.6699000   -41.8732900 -103.8801000 
 		     -21.4235500  -70.7533000    -1.2728670   36.3450500   -38.8268800 -116.0875000   -36.9642900 -115.8277000
 		     -38.2490200 -126.0651000   -34.9683500  -93.1484200    -4.0240650  -76.9984400    -5.9211030  176.1090000
 		     -51.6280200 -124.5035000   -37.0939600 -118.4242000    -5.9551820  175.8714000    -4.0762370  -76.7961000
   65100700000    -1.2909810   36.6559900   -20.8211200  -66.9505400   -41.1601900 -119.1749000   -37.3920800 -127.2192000 
 		     -21.0226700  -74.6076000    -1.7235400   34.4889900   -39.9596700 -132.5871000   -37.7289300 -115.6655000
 		     -44.0779900 -143.2332000   -40.7785400 -113.8153000    -3.9446680  -77.9781900    -5.6631000  176.1085000
 		     -41.1307300 -122.8127000   -35.9690400 -113.0593000    -5.7438980  175.0818000    -4.1053680  -77.4934900
   65170690000    -1.3648240   34.8822700   -21.5875700  -84.8057800   -42.5020100 -118.8349000   -38.4746500 -121.0408000 
 		     -19.7736500  -74.4983400    -1.1415770   32.5372700   -42.8458700 -101.7091000   -33.5162400 -131.2806000
 		     -37.3846100 -158.4145000   -29.1060100 -169.0359000    -4.1542530  -78.2492100    -5.7131330  177.0203000
 		     -41.5726800  -80.9123900   -33.2664600  -93.8384400    -5.7971230  176.6852000    -4.3294000  -77.7725100
   65240680000    -1.5134560   35.8902600   -20.0803300  -75.3973100   -40.4026700 -164.4171000   -36.0004700 -124.0600000 
 		     -20.3357600  -64.1873600    -1.6936920   35.4076000   -39.6433900 -116.8085000   -36.9177300 -118.6354000
 		     -38.5298500 -115.1486000   -29.6012000 -118.7112000    -4.1913090  -77.5602900    -5.6703880  175.9718000
 		     -39.5124200 -156.1623000   -53.3860000   88.0489300    -5.5177180  175.8422000    -4.1960500  -77.5890800
   65310670000    -1.1378970   35.9666300   -17.6459800  -74.9299200   -39.4441200 -134.6028000   -38.6736600 -134.2125000 
 		     -19.9970100  -78.2460000    -1.6954570   32.9618500   -37.9091300 -133.3267000   -37.2276500 -124.8915000
 		     -40.3847200 -102.6808000   -36.3275200 -133.9849000    -4.0589780  -78.1621200    -5.7297350  175.4603000
 		     -39.5265000 -139.5285000   -32.8909100  -97.6273900    -5.5494350  174.2684000    -4.1069550  -77.7771500
   65380660000    -1.6249700   34.0408300   -19.2166400  -75.2756000   -39.6177600 -123.2231000   -38.1930500 -127.4781000 
 		     -19.7111700  -75.4458400    -1.5732120   34.8677500   -40.9830800 -110.9889000   -34.1251900 -113.2683000
 		     -40.5773900  -35.2978100   -36.0405300  161.9537000    -4.0650330  -80.2366300    -5.6934130  175.6076000
 		     -43.4491000 -168.4485000   -35.1474600 -133.7458000    -5.9539270  176.4578000    -4.3274460  -78.9337000
   65450650000    -1.3986350   35.4758000   -20.3285300  -80.5122300   -40.2952100 -128.3840000   -37.3807700 -136.0418000 
 		     -19.1650200  -80.7034100    -1.2469840   34.0398000   -38.6986500 -116.0415000   -37.9789500 -122.6266000
 		     -40.0041200  -91.4521800   -35.1427400 -118.5380000    -4.0800480  -77.9972200    -5.5831630  174.3658000
 		     -32.9065500 -147.0158000   -34.0185800  -86.6124000    -5.5812260  173.8347000    -4.1923660  -79.0218900
   65520640000    -1.4544200   35.4879000   -19.4888300  -73.2799500   -39.2002800 -114.6192000   -37.6414100 -130.7807000 
 		     -20.1204900  -77.5188800    -1.3406330   34.4716500   -39.6783100 -136.4341000   -37.7302300 -135.2079000
 		     -32.7920300 -127.1069000   -38.8980600   60.6400300    -4.1559660  -79.5051500    -5.6184760  175.2288000
 		     -51.7447600 -165.9776000   -32.9978300  178.2317000    -5.5560660  175.0028000    -4.2205350  -79.6832200
   65590630000    -1.4459130   34.2285100   -21.8872900  -73.3271900   -42.8203800 -116.6751000   -38.4461400 -136.2818000 
 		     -19.7368100  -68.3905800    -0.9990969   32.4927800   -38.7934600 -127.4288000   -38.6126000 -118.4656000
 		     -39.0937200 -121.3831000   -45.1043900  122.7869000    -4.4888030  -79.5747800    -5.6575500  174.0581000
 		     -39.2944300 -122.6474000   -34.1143800 -144.7287000    -5.5945900  174.6466000    -4.3791360  -79.8812800
   65660620000    -1.2929240   34.3951500   -20.0944600  -75.7609400   -40.4541900 -138.6463000   -38.7878000 -121.4204000 
 		     -20.0292400  -71.0573100    -1.5957620   30.5264700   -41.1691700 -124.1389000   -38.5115500 -137.8389000
 		     -40.9998200 -145.4602000   -30.6850000  -67.6940900    -4.1632380  -79.9647200    -5.5836030  174.7041000
 		     -34.1683300 -150.6372000   -38.9657700  168.3033000    -5.6047820  173.1042000    -4.3336620  -79.7865400
   65730610000    -1.1127170   36.6736000   -19.2865900  -88.0529200   -40.5150000 -131.0233000   -38.2998900 -119.4670000 
 		     -20.8662900  -75.7383400    -1.4446700   34.2055700   -40.7672000 -101.5236000   -37.4829900 -109.9735000
 		     -34.7148600 -169.3400000   -35.7996500 -133.9007000    -4.1247410  -81.7786100    -5.5419250  173.9039000
 		     -39.3971900  -77.4685400   -38.7261600 -114.1464000    -5.7155090  172.7913000    -4.1865050  -79.8905500
   65800600000    -1.4609620   35.3861700   -18.8202800  -76.5520900   -40.8781700 -128.8831000   -36.9370100 -120.9981000 
 		     -20.6920500  -75.3451200    -1.8024910   28.7381100   -46.5061400 -119.4843000   -35.8975800 -120.1521000
 		     -58.2654200  -90.8206900   -42.8714300  127.4797000    -4.2843570  -80.7132800    -5.5490900  172.4854000
 		     -41.0027400  -92.6729100   -33.7200200  -97.8821000    -5.5417180  171.6982000    -4.4260750  -80.5753900
   65870590000    -1.5273240   35.6880900   -20.6938200  -72.4671400   -38.3887000 -130.9528000   -39.8135700 -140.3167000 
 		     -19.5504500  -86.7215600    -1.1741000   34.4550800   -38.5606900 -108.5344000   -38.6496700 -129.2954000
 		     -35.4179000 -130.9145000   -38.0207300 -120.6390000    -4.3837560  -81.9545100    -5.5617800  172.2941000
 		     -39.0828300 -130.8580000   -31.8037200 -100.1360000    -5.4569760  173.8057000    -4.3042230  -80.2990800
   65940580000    -1.2713060   36.3021500   -21.6582200  -70.3201800   -37.6436600 -139.6894000   -39.3578700 -133.1663000 
 		     -19.2174200  -81.0231000    -1.5268050   32.6956400   -37.0534900 -127.4291000   -39.9881000 -104.7741000
 		     -58.3690200  -81.8286200   -42.6014300 -123.3825000    -4.3162830  -82.2400600    -5.6568240  172.2896000
 		     -36.7935600 -110.9359000   -39.9963200 -147.0179000    -5.7563820  174.2916000    -4.2098990  -80.7751500
   66010570000    -1.4734680   34.6397500   -20.4378600  -90.4617500   -39.9276000 -121.5568000   -37.9106300 -103.9263000 
 		     -21.3575100  -84.6130100    -1.0846450   32.3434900   -38.1953100 -118.0202000   -35.1151100 -122.6890000
 		     -36.7681400 -104.6603000   -46.1480900 -161.8822000    -4.4065800  -82.2843100    -5.4132040  172.5719000
 		     -43.3674600 -151.8690000   -36.5229500 -131.4709000    -5.3746840  172.7639000    -4.3307330  -80.7310000
   66080560000    -1.4349540   35.3699600   -19.2199500  -82.2650500   -40.3599900 -131.1218000   -36.6253500 -124.9167000 
 		     -20.9672400  -72.8652800    -1.3762830   31.7714400   -38.5449000 -126.2062000   -37.8404400 -135.0700000
 		     -39.4068100 -117.5951000   -35.4533900  172.0587000    -4.4275210  -82.3538500    -5.5304170  172.3364000
 		     -34.7769000 -140.3331000   -36.1720200  176.4865000    -5.2216650  172.7481000    -4.3465000  -80.2577400
   66150550000    -1.3169490   34.2607800   -20.0633600  -79.2170600   -41.3115900 -139.7822000   -39.7084400 -125.3403000 
 		     -19.7557400  -71.2630300    -1.5255970   32.2562700   -38.1099500 -110.9001000   -37.6267300 -136.8236000
 		     -34.8683000 -153.2937000   -43.1585000 -164.5784000    -4.5533270  -81.2845100    -5.4546560  172.7265000
 		     -35.8821200 -141.6027000   -29.9509900  174.9012000    -5.1767590  171.7308000    -4.4335600  -82.5349100
   66220540000    -1.3569100   35.1804800   -18.7900500  -89.2180900   -39.6646800 -125.8215000   -42.0364700 -133.1016000 
 		     -19.2006600  -85.6210500    -1.2056920   33.8246700   -38.6470000 -125.3042000   -38.2169800 -123.4890000
 		     -40.2101900  163.2009000   -37.4457500 -167.4690000    -4.2784920  -82.1594700    -5.2992220  172.0032000
 		     -35.8578300 -166.9664000   -33.8458100  -89.8004900    -5.4274050  171.0639000    -4.5515690  -81.6437200
   66290530000    -1.5687430   35.0308000   -18.2814300  -79.8321500   -41.4738000 -137.1314000   -39.6387300 -132.4937000 
 		     -18.9706000  -77.8982800    -1.6097070   28.2306000   -39.6462800 -139.8943000   -36.5768700 -123.1990000
 		     -35.7770700 -119.1432000   -29.8374900  149.5824000    -4.3794830  -85.2600300    -5.3333810  171.7322000
 		     -36.9392400 -146.8622000   -32.5468100  175.7662000    -5.5577110  172.7097000    -4.4114930  -81.5191100
   66360520000    -1.1105010   33.5354200   -18.6610900  -90.0054900   -40.4321200 -135.1585000   -37.2258100 -141.1909000 
 		     -20.8587500  -78.3895300    -1.9043040   32.0253800   -39.2571900 -130.3689000   -34.7480300 -128.7113000
 		     -38.5231900  -90.2736900   -30.5359000 -146.8330000    -4.5758110  -82.5960500    -5.2776170  172.1131000
 		     -39.8126300  -88.8123000   -31.8587400 -129.3277000    -5.3487060  172.0646000    -4.3559750  -82.0588800
   66430510000    -1.4233130   34.9254900   -20.0741300  -71.2478300   -36.6311600 -129.3386000   -37.5400200 -114.2579000 
 		     -19.9963700  -88.1986500    -1.4159770   31.8560600   -36.4461600 -120.7432000   -37.5791700 -134.3055000
 		     -36.5849600 -156.0331000   -26.1080800 -147.0844000    -4.4542920  -84.9843100    -5.1935260  172.6679000
 		     -32.1670500 -128.4955000   -31.8867400 -168.0209000    -5.4155800  172.3880000    -4.6114660  -82.0324600
   66500500000    -1.5795490   33.8208500   -19.5388000  -84.0808300   -39.8653400 -121.6959000   -37.9250300 -135.0679000 
 		     -18.3642500  -76.5963700    -1.6365300   28.6630300   -44.7474400 -128.9638000   -35.5183600 -119.8858000
 		     -35.9630000 -106.5266000   -32.3778400   54.8943500    -4.5419360  -85.6134200    -5.3154230  171.6961000
 		     -35.4978600 -157.5150000   -30.7932800  -77.0900900    -5.2980440  171.8392000    -4.4783870  -82.2918500
   66570490000    -1.3746340   33.6217700   -18.2564700  -65.9986100   -40.9776500 -156.3494000   -36.5792600 -133.3501000 
 		     -19.1862600  -82.0479400    -1.3593250   33.7577700   -39.6079700 -125.8926000   -37.5322300 -113.0112000
 		     -36.7281300 -102.9833000   -43.7696900  123.0620000    -4.3454080  -83.2834200    -5.2797140  170.9230000
 		     -36.9877400 -128.3926000   -37.9582700 -159.4674000    -5.3010790  170.4089000    -4.5496440  -83.6729000
   66640480000    -1.5568870   32.6383100   -19.9194300  -82.2152500   -41.1896200 -143.4422000   -38.7711700 -136.8704000 
 		     -20.7681900  -92.4246700    -0.9078813   34.2538100   -37.4210800  -95.9925900   -35.4304500 -127.7235000
 		     -36.9172300  -59.6797700   -36.4968600 -102.2576000    -4.4333340  -85.2993800    -5.0032270  170.6286000
 		     -45.6645100  179.7399000   -30.3467800 -146.5131000    -5.3084660  170.6743000    -4.6839290  -83.5401400
   66710470000    -1.4337670   33.8270300   -18.7055200  -66.5654500   -39.1303700 -140.6086000   -41.3818600 -137.0051000 
 		     -21.8673300  -78.6138300    -1.2222150   32.6478500   -36.8997200 -148.6584000   -40.4775700 -112.0351000
 		     -33.6403600  -73.7445800   -32.3415800  -73.4400900    -4.7331500  -84.3192600    -5.2537420  169.7288000
 		     -42.0094300 -147.3824000   -32.6748000 -122.5941000    -5.1555350  169.8315000    -4.5585000  -83.4122600
   66780460000    -1.3222470   32.1656400   -19.1441600  -79.9546600   -39.8127000 -138.9149000   -39.0607600 -147.6580000 
 		     -18.9170200  -79.1104300    -1.6888580   32.9032200   -38.5309800 -131.7372000   -33.4203800 -145.7798000
 		     -36.5384200 -131.6506000   -32.1640200  178.3380000    -4.7050550  -82.8923300    -4.8479120  170.4125000
 		     -38.4363700  -72.5751500   -31.0195300 -116.4975000    -4.7637170  169.4077000    -4.5372240  -84.5090600
   66850450000    -1.7576750   31.9301700   -21.7251800  -81.5801500   -42.1308500 -128.0734000   -36.8979300 -148.2821000 
 		     -20.6581000  -73.7663400    -1.5262980   33.1005500   -36.2148300 -136.9337000   -35.5150200 -138.2487000
 		     -43.3991800 -108.8527000   -32.4941400  -11.5254200    -4.6047590  -84.6932400    -5.0208490  169.8651000
 		     -34.3894200  179.2609000   -33.5042900 -111.0230000    -5.1934310  168.4857000    -4.6166190  -84.5822000
   66920440000    -1.3764360   34.4075200   -19.9171800  -80.6319400   -40.0592700 -127.4872000   -37.3022200 -138.1111000 
 		     -19.8111400  -90.1712100    -1.4407800   34.4088300   -39.7771800 -112.1588000   -36.2442100 -116.2968000
 		     -35.3547400 -114.1511000   -34.2140500   54.4354800    -4.6682250  -85.8297300    -5.0741230  170.3857000
 		     -43.4018300 -111.7873000   -28.7325900 -102.5436000    -4.9033990  169.3594000    -4.7300110  -83.8295400
   66990430000    -1.3463220   31.4670900   -18.9022700  -80.7258100   -39.7940500 -144.0698000   -37.9604600 -152.6247000 
 		     -19.7123200  -78.1786900    -1.7916320   36.5447700   -36.1516000 -130.6222000   -35.1297800 -132.1205000
 		     -35.2417900 -138.1390000   -33.4540600 -178.1092000    -4.7414590  -83.4117400    -5.1867370  169.3278000
 		     -38.4907600  179.3931000   -40.2850300 -108.1043000    -4.9507220  169.6992000    -4.5645830  -87.0277600
   67060420000    -1.2887870   34.0106200   -22.6186000  -86.1923700   -44.3718700 -119.4454000   -37.5543700 -157.5651000 
 		     -20.1583900  -72.5099100    -1.5075470   29.8363700   -38.2471200 -115.6904000   -36.0825800 -134.8359000
 		     -40.1335300 -120.0082000   -30.0784500  -66.1220600    -4.7786250  -86.2739000    -5.0813940  169.2558000
 		     -38.8860100 -155.2635000   -36.1575600 -158.4623000    -4.9903090  170.1140000    -4.4998270  -85.0313600
   67130410000    -1.5487290   33.1209200   -21.0866600 -101.9278000   -42.5895000 -153.6976000   -40.3566900 -143.6738000 
 		     -22.3200400  -92.9523700    -1.0846070   31.7386400   -35.5878200 -125.2085000   -32.8463000 -146.9014000
 		     -45.3889500 -152.9745000   -28.8458700 -126.9231000    -4.6285860  -85.6646300    -4.9796250  168.5569000
 		     -34.7681100 -118.7179000   -30.4922600 -159.1367000    -4.9087200  167.9703000    -4.6920110  -86.2156100
   67200400000    -1.2914820   32.1831900   -21.3197800  -78.8958800   -40.7557200 -108.2241000   -36.6424400 -127.0065000 
 		     -19.2420300  -73.9762700    -1.6049320   28.1404300   -37.9858600 -106.1728000   -38.2312900 -127.5639000
 		     -42.0319600 -112.6358000   -37.8054700   85.0919300    -4.6507970  -86.0995000    -5.0568270  167.3282000
 		     -37.4406200  132.1209000   -34.4537500 -163.3428000    -5.0930740  167.6787000    -4.8041790  -86.9373900
   67270390000    -1.5806860   30.5910500   -17.5537900  -96.1489600   -38.9286000 -123.3778000   -36.3139600 -120.3460000 
 		     -18.5696600  -69.8145600    -1.9434080   30.0721500   -39.4694200 -144.5209000   -38.5826000 -123.5190000
 		     -34.2316600 -147.2992000   -44.4211000   10.9982500    -4.5305720  -86.0248300    -4.5066720  167.9969000
 		     -34.2080000 -139.5410000   -30.5497300 -112.2443000    -4.7914740  166.4476000    -4.6857030  -85.1123800
   67340380000    -1.3533970   30.5480200   -21.6179500  -68.1521800   -40.6578600 -115.9036000   -37.1157000 -119.5792000 
 		     -20.6553300  -83.9621700    -2.0060880   35.1326500   -36.1677500 -130.6264000   -38.1328700 -143.5327000
 		     -40.8862500 -134.4064000   -26.8857700   54.1312100    -4.6657810  -88.8832400    -5.0721180  167.4782000
 		     -33.4679900  -97.4693800   -28.3803600  -83.1801600    -5.0768730  167.7174000    -4.7196850  -86.7304000
   67410370000    -1.3119010   30.2122600   -17.4187300  -91.3482800   -38.7807700 -112.3290000   -40.4184600 -137.3458000 
 		     -18.3649100  -76.9970300    -0.8408225   33.7552500   -35.8447200 -129.6927000   -33.6883000 -109.8018000
 		     -34.4118000  141.7015000   -27.4109100 -126.6389000    -5.0197130  -88.6711600    -5.0214740  167.8010000
 		     -42.8319500   -1.2044430   -32.4690100  -23.2827400    -4.8618070  169.1989000    -4.7629180  -87.0548600
   67480360000    -1.3521290   32.5295400   -18.2216000  -85.9321400   -38.7735800 -119.4319000   -37.6627200 -111.3966000 
 		     -21.0063300 -102.7100000    -1.9262890   29.0373100   -42.2577700 -126.7830000   -35.4774400 -154.8039000
 		     -44.0762400  -88.2235000   -37.7867200 -159.2449000    -4.6153450  -87.8206200    -4.7263920  168.3992000
 		     -30.3918100 -132.3379000   -27.8377800 -128.0855000    -4.7396340  168.3439000    -4.6923180  -86.6561200
   67550350000    -0.9984518   33.5308600   -17.4784200  -83.0839800   -40.6594000 -120.2117000   -39.3159000 -143.6268000 
 		     -20.0567500  -76.6769000    -1.6777370   35.1393700   -38.1667300 -131.3547000   -39.0873900 -116.5125000
 		     -39.7629200  161.8960000   -32.2353700   -4.6219660    -4.7560650  -88.6944500    -4.6860140  167.5583000
 		     -38.1328800 -139.3723000   -29.1667500   96.5766900    -4.7305760  166.6320000    -4.9064590  -88.2252000
   67620340000    -1.6571520   29.8099000   -19.8572200  -88.1901700   -42.8099800 -123.5610000   -38.7309300 -129.5734000 
 		     -18.0111700  -78.6898100    -0.0211136   33.3956300   -38.1257300 -126.6935000   -39.3813500 -139.1608000
 		     -34.5833000   55.0676700   -30.8493600  176.5621000    -4.9048010  -88.7490100    -4.6272840  166.3311000
 		     -34.7318900 -111.2204000   -32.8053900 -166.7470000    -4.5275950  166.4615000    -4.8396720  -87.5702900
   67690330000    -1.3547460   31.6364900   -18.0506500  -76.9861800   -37.2661600 -120.8045000   -38.8540900 -154.4035000 
 		     -19.6820500  -75.4808200    -1.6544700   30.7922400   -39.6721600 -161.9922000   -36.4542000 -126.5539000
 		     -51.1984600    6.8193570   -23.9473100 -127.0878000    -4.7510740  -90.0944000    -4.7778270  165.1897000
 		     -32.8027100 -125.2616000   -39.7810800  178.7949000    -4.8649870  165.1962000    -4.7553280  -88.9676600
   67760320000    -1.5364300   32.6041500   -20.3510200 -101.5404000   -44.1882300  -95.4608400   -35.3935600 -134.9497000 
 		     -19.1752100  -88.0614500    -0.5266002   24.5041600   -40.0726200 -135.1981000   -37.0711400 -137.2146000
 		     -54.7215800  156.1295000   -34.0596200  146.8713000    -4.7433820  -91.8279800    -4.7904340  166.3334000
 		     -39.1019800 -111.7665000   -30.4308100   63.4034200    -4.8483730  166.5600000    -4.8028140  -89.1914400
   67830310000    -1.5244120   32.1229900   -14.8556100  -83.7194100   -44.4903800 -127.6331000   -38.2960900 -169.2159000 
 		     -16.6506700  -83.4226500    -1.5298780   27.8170500   -40.6068400 -140.9994000   -35.4666700 -114.9780000
 		     -37.1631700 -128.6934000   -33.2090400  164.7673000    -5.0591280  -91.0905300    -4.8100710  165.1286000
 		     -38.6630100 -169.0353000   -35.2118600   60.2556600    -4.6343860  164.9488000    -4.8825210  -88.7667500
   67900300000    -1.1350910   33.4642400   -20.1244500 -109.6077000   -40.1134000 -128.7133000   -36.1785400 -141.6350000 
 		     -18.7164000  -75.9965400    -1.0608240   24.5339900   -40.4245400 -164.5907000   -37.2931300 -115.9631000
 		     -30.0519000 -175.7321000   -42.2224700   53.1803400    -4.9543970  -87.2030900    -4.4209920  165.9946000
 		     -31.4220700  -97.4876600   -30.7053400 -149.2403000    -4.3201370  165.5951000    -4.8067160  -90.6053500
   67970290000    -1.3285560   28.8458100   -20.1212500  -91.5038400   -40.2998200 -129.9286000   -42.7787000 -119.2761000 
 		     -19.9621600  -86.5092200    -1.4720360   30.0525000   -38.1570900 -126.9079000   -36.4105500 -155.5165000
 		     -29.5167800 -101.6159000   -28.3596700  -49.0715900    -4.9854980  -90.6302000    -4.3704860  165.1628000
 		     -33.8187000  172.5542000   -29.2988900 -172.9204000    -4.6212620  164.8612000    -4.9473740  -88.2611200
   68040280000    -1.5653650   31.7384200   -17.9896500 -104.5350000   -42.9630700 -128.5659000   -43.2487500 -160.4643000 
 		     -19.5336800  -86.1857700    -1.7174660   31.0305600   -41.0851200 -134.4550000   -41.7045800 -117.4265000
 		     -36.8442600 -179.2630000   -32.1418300  106.7155000    -5.7745650  -89.2246200    -4.5035880  165.6955000
 		     -38.9896600   39.3196000   -28.0701300 -125.5340000    -3.9330170  163.5439000    -5.1100340  -89.1775900
   68110270000    -1.5408090   29.4777300   -19.8435000  -96.9894800   -41.8270500  -75.7320900   -37.0390400 -140.3719000 
 		     -19.2586400  -74.2352000    -1.7062910   35.1744800   -38.2769400 -118.9911000   -38.0716500 -140.0400000
 		     -35.3881300  140.1433000   -28.1429400 -112.5885000    -4.9208840  -87.4688000    -4.5968180  164.7188000
 		     -42.7211600 -148.0020000   -32.1243500  -86.9181200    -4.4272040  163.7230000    -5.1152620  -91.5184200
   68180260000    -1.1986480   27.0827200   -27.9560400  -91.8400000   -46.6028600 -135.5940000   -37.3264600 -122.7942000 
 		     -19.4839000  -80.4396100    -2.3590200   30.5550000   -38.4417400 -101.4391000   -39.1600100 -164.6892000
 		     -28.8947800 -154.8935000   -21.3195400   54.3752300    -5.1050500  -91.0599500    -4.1163350  165.9989000
 		     -41.0584600 -178.7722000   -26.8555500 -162.4752000    -4.2459730  164.7333000    -5.1673670  -90.5295900
   68250250000    -1.3516320   30.4616800   -18.8439300 -116.4488000   -40.7804000 -137.2305000   -38.6453100 -149.1382000 
 		     -20.5247200 -111.8332000    -2.3160870   31.8175800   -38.6447400 -159.1470000   -35.4908700 -142.8800000
 		     -28.2498600 -110.7395000   -21.9104400   30.4922700    -4.9861270  -97.2068900    -4.5863380  162.8813000
 		     -45.0044200  156.0419000   -27.0011600  -81.9034400    -4.7413010  167.0882000    -5.3055530  -91.0533900
   68320240000    -1.4229820   26.7342300   -17.7510600  -74.9569800   -43.1333800 -162.6533000   -38.2052500 -142.0084000 
 		     -19.6340900  -95.9397500    -1.7709250   24.9105900   -46.7673100 -150.7673000   -41.2059600 -143.2537000
 		     -39.7499200 -110.7611000   -28.3771900   50.3986900    -4.7127740  -92.0376400    -4.3769810  163.7119000
 		     -32.3098300  178.5819000   -43.2195700   -4.9359250    -4.7025250  163.0838000    -5.2397610  -91.7375300
   68390230000    -1.2898410   29.0098500   -20.5504400  -47.3921000   -40.8707100 -132.5355000   -38.7362500 -153.3842000 
 		     -17.4010600  -86.7463800    -1.9656020   32.5283900   -42.0892000 -130.3032000   -37.9103800 -156.2818000
 		     -31.3982200  -32.5394200   -25.3575400  -57.9311100    -4.9994130  -92.0297300    -4.5707840  165.6887000
 		     -29.9788100 -115.6677000   -26.9014500 -155.0410000    -4.6448690  164.1930000    -4.9481600  -92.8299000
   68460220000    -1.4730070   28.9004000   -16.1458000 -117.8253000   -39.3127200 -138.5783000   -43.0820000 -138.7177000 
 		     -19.7083500  -84.5504900    -1.0103810   35.0643800   -39.8590900  -70.6316800   -34.9353800 -138.4898000
 		     -35.9778700   48.1943100   -22.2457900 -173.7893000    -4.9473440  -92.4024900    -4.3920290  163.4452000
 		     -37.6028400  -45.3280600   -24.3318900  -96.6838300    -4.2226820  162.8380000    -5.1797890  -91.8938400
   68530210000    -1.8521160   27.5395200   -23.0809300  -75.9536200   -39.7045400 -122.9170000   -41.7606100 -170.9468000 
 		     -17.5781100  -65.4493000    -2.0953070   32.0538000   -42.2893800 -135.3817000   -42.9823500 -155.3720000
 		     -29.8165900 -164.5336000   -28.7086900  162.8080000    -5.2609430  -88.8934500    -4.3217230  161.7680000
 		     -37.2028000 -174.3338000   -49.5029400 -143.5761000    -4.1647820  161.7744000    -5.1223300  -93.1083600
   68600200000    -2.0599320   27.8716500   -17.0417600  -70.4979300   -40.9311300 -109.2983000   -41.3289000 -139.6988000 
 		     -17.2575800  -80.4269300    -1.4896020   33.0818300   -41.5157100 -131.7216000   -41.1912700 -129.5572000
 		     -34.2297700  171.9940000   -23.8259700  178.1047000    -4.9440580  -93.5742100    -4.4361300  161.7749000
 		     -40.5099500 -139.6621000   -25.6081600  -79.4485000    -4.4404630  162.6065000    -5.2698570  -93.6079900
   68670190000    -1.1497840   29.1686200   -19.2245100 -123.6327000   -42.4384700 -104.2603000   -41.0410900 -169.6177000 
 		     -18.9982400 -103.7307000    -2.5897440   29.7219400   -38.2265600 -150.6607000   -35.2529800 -143.3759000
 		     -28.1185400 -120.7639000   -26.1941300  -55.4807500    -5.5308190  -94.0751300    -4.3328110  166.5708000
 		     -38.6567700  -34.3957900   -34.1121000  -55.1069800    -4.2763350  164.8733000    -5.4429150  -92.3487200
   68740180000    -1.6864310   28.4235600   -13.6300800  -99.9366800   -40.7280500 -130.5748000   -37.3930900 -161.5352000 
 		     -20.6883500  -92.1179800    -1.2300060   26.6728100   -40.1633800  -93.9444000   -35.9135200 -140.1488000
 		     -43.7726300  -59.9147300   -40.4027500   79.4424200    -4.9891000  -92.8098400    -4.6089880  164.8056000
 		     -36.4419200  -91.3527400   -39.9099900  147.3765000    -4.4883010  159.9836000    -5.4095030  -90.5324500
   68810170000    -1.6649880   29.1123800   -17.1176100  -57.1995600   -40.2815200 -137.4966000   -42.7271500 -132.8095000 
 		     -18.3873500  -97.6323500    -1.9542990   24.4904700   -39.4613800 -118.3578000   -36.8751900 -140.8124000
 		     -55.7083400  -69.2397400   -27.1272100  134.3192000    -5.4700780  -95.0011100    -4.3339010  160.1834000
 		     -34.1842800 -161.2509000   -22.9165900  -93.0398800    -4.5386830  162.7104000    -5.1213730  -92.5326500
   68880160000    -1.5360660   27.6258200   -18.0060000  -96.4759100   -41.9027000 -123.1167000   -42.1581200 -133.4951000 
 		     -20.9545200  -92.7727400    -0.8962330   23.0454400   -38.9447000 -144.2487000   -37.5285700 -129.2091000
 		     -33.0005000 -146.3391000   -28.8040400  -85.3323400    -5.7338600  -95.8163800    -4.3563800  161.2660000
 		     -38.3386300  -84.9387900   -25.6181200   75.8611800    -4.0713130  162.8860000    -5.4315390  -94.1850600
   68950150000    -1.7606420   27.7108000   -14.8683200  -67.9158200   -39.9818800 -136.2510000   -38.2435100 -125.0034000 
 		     -17.1861200  -60.4295900    -1.9280700   37.7344700   -38.7469600 -150.1795000   -37.1779700 -114.2503000
 		     -32.1710500  160.4184000   -37.4154200  -77.7211500    -5.4154230  -96.2677300    -4.4187150  161.4655000
 		     -29.8468000  174.7592000   -29.4866200 -145.9324000    -4.5901720  163.0783000    -5.2971930  -93.4691600
   69020140000    -1.3777140   29.5822900   -17.4024900  -91.6591100   -45.4289600  -94.5476700   -39.2622300 -124.6569000 
 		     -19.6168000  -85.5934600    -2.1774930   21.8111400   -40.2700200 -153.0579000   -37.6658700 -118.3320000
 		     -34.6805300 -142.2682000   -20.3141600 -113.6142000    -5.5161500  -92.1972700    -4.0690300  161.4142000
 		     -35.3457100  -47.0115000   -23.4606000  124.6943000    -3.9878320  160.6544000    -5.4806020  -93.4922600
   69090130000    -1.4433610   27.2642100   -17.1282200  -99.0414400   -40.1042100 -114.1467000   -38.8490800 -130.1353000 
 		     -18.6153100  -99.3305000    -1.8224440   25.3319700   -40.8593800 -129.4285000   -39.8429500 -123.8866000
 		     -48.9572100   37.8136100   -19.5037900 -150.2012000    -4.7964530  -94.4240200    -4.3540580  161.8476000
 		     -34.3018100 -111.3772000   -25.5469900 -106.0399000    -4.4969640  158.8698000    -5.1310070  -94.3139800
   69160120000    -2.0691360   26.3493400   -21.3239200 -129.5080000   -38.1790400 -150.2736000   -39.3621800 -143.8176000 
 		     -18.5146600  -80.5367700    -1.7574040   24.7638300   -38.2506300  -98.6932900   -36.7952500 -128.1181000
 		     -42.2905800  101.0785000   -27.6612300  -97.5985000    -5.0383950  -90.5897900    -4.0501310  160.7277000
 		     -25.4607100 -137.1704000   -31.1390300  -68.1247800    -4.0150610  154.6068000    -5.3250310  -92.6819700
   69230110000    -1.6491650   28.6843100   -14.0355600  -89.2478100   -42.7658700 -151.0238000   -36.4806600 -152.0100000 
 		     -17.7488100  -95.2461700    -1.8480310   36.1257900   -42.5662800 -119.9444000   -36.7914500 -134.4523000
 		     -32.8609300  -93.8094500   -24.5695200   35.7848100    -5.9671390  -94.6387200    -4.3835080  160.9140000
 		     -29.1659500 -141.9069000   -26.5169500   58.7266900    -3.8267640  160.2923000    -5.1608510  -94.9782600
   69300100000    -1.2932470   25.3329700   -11.2722700 -106.4651000   -47.8563500 -133.7057000   -42.1576700 -138.5289000 
 		     -17.1558100 -104.9917000    -2.2995950   29.2734100   -37.7382800 -125.1059000   -36.1052600 -126.8952000
 		     -23.8814400  -86.1218900   -33.8470800   64.6683400    -5.3509500  -98.3737000    -4.2818020  161.8293000
 		     -33.5657000 -158.5384000   -34.6243500  -70.2581700    -3.9287830  162.5812000    -5.7144650  -95.6499600
   69370090000    -2.0113460   27.4743000   -17.2423800  -59.7815100   -39.5580700 -117.8012000   -36.3909200 -156.8439000 
 		     -15.6863500  -92.7116900    -0.5365428   32.9567800   -37.9776300 -102.6844000   -40.2180800 -152.1038000
 		     -37.7030100   84.3541000   -33.4636500 -175.3605000    -5.8323380 -103.6278000    -4.1948810  159.4651000
 		     -37.5251300  175.7674000   -31.5497200 -148.7720000    -4.5228330  163.4371000    -5.5683800  -91.8479200
   69440080000    -1.1184680   26.2151600   -17.9569900  -74.7397000   -41.9449700 -102.9613000   -39.9748400 -172.8652000 
 		     -19.0703900  -71.9006500    -1.9886730   27.7756600   -42.7930900  -90.5862600   -37.9777900 -148.0329000
 		     -37.8709400 -138.6827000   -23.9508600  -16.0953600    -4.8608030  -93.9419900    -3.9877800  161.7148000
 		     -38.7222100 -163.9379000   -29.6903000 -120.1356000    -4.1690220  158.0672000    -5.2792440  -96.9978300
   69510070000    -1.7325250   25.6522100   -17.5657500  -88.8099200   -39.8842700 -127.2461000   -37.8415400 -145.5866000 
 		     -19.1926900  -86.0912100    -1.5141050   33.5115200   -41.1435600 -117.4077000   -35.8025200 -141.7360000
 		     -32.8805700 -139.0061000   -31.7953800 -163.5601000    -5.3298320  -96.1902300    -3.9738530  159.1867000
 		     -34.1061100 -157.1594000   -28.1237200  155.4964000    -4.0315180  156.0183000    -5.8297970  -94.5713500
   69580060000    -1.5130440   27.5915900   -15.7110000  -93.7588000   -42.5462800 -120.1187000   -36.2073800 -147.0729000 
 		     -16.2982500  -82.1430400    -2.1661770   30.8344200   -39.0079400 -145.2144000   -37.3814700  -69.6919800
 		     -31.6886000 -104.3521000   -32.5684900   99.2744800    -5.6675920  -96.9772300    -4.1032020  157.5769000
 		     -33.8733100  -52.8119800   -21.4466500   18.8373400    -4.0588900  158.5557000    -5.0772350  -93.8475100
   69650050000    -1.2383470   27.9234800   -14.2007700 -104.4569000   -48.3946000  -78.7320800   -36.2501200 -149.8350000 
 		     -18.4961100  -92.6130800    -1.6690540   34.2746400   -40.8290900 -119.3403000   -34.6562100 -127.5939000
 		     -40.2500400 -174.5799000   -27.0160000   -5.3689790    -5.6370580  -90.3817100    -3.7531590  158.6341000
 		     -31.7929700 -114.8782000   -23.3156800  -52.7986100    -3.0155890  157.3790000    -5.6290860  -97.7103600
   69720040000    -2.2424290   24.2514500   -11.6033400 -119.1975000   -38.4919100  -65.8111300   -44.0461500 -141.9137000 
 		     -14.9269800 -104.8321000    -0.4037061   20.9546600   -40.2902900 -131.8903000   -42.7469200 -140.5940000
 		     -34.6312600 -139.6002000   -23.7521600  -74.3253900    -5.9245090 -103.8588000    -3.8428440  160.4706000
 		     -33.0692500 -163.5622000   -25.7521800 -171.8609000    -3.9590780  162.9275000    -5.7196750  -91.8494000
   69790030000    -1.3247570   30.2529500   -25.8881100  -92.7154800   -41.2517700 -115.8970000   -39.1589400 -136.0288000 
 		     -20.9451900 -101.8397000    -3.6817680   29.3709600   -38.7348100  -95.6975200   -40.0117700 -143.1861000
 		     -30.3627100   53.4907100   -22.7284100  101.3127000    -3.5279450  -95.5055800    -3.8191880  156.6104000
 		     -26.2783400  -38.9525300   -32.7835900  -70.3643000    -5.7452230  151.5676000    -5.5013560  -98.7906700
   69860020000    -1.1437080   25.2004800   -15.2817900  -85.5868500   -38.2733600  -99.7851700   -43.8266000 -171.4243000 
 		     -19.0030500  -78.8772100    -4.5159830   31.5312600   -38.9245200 -102.1433000   -47.5855700 -117.9587000
 		     -23.3153100  118.8323000   -20.5816800    3.3441370    -5.4604740  -98.9984700    -3.7870170  157.5999000
 		     -39.9308200 -155.6549000   -18.9105200 -102.4580000    -2.6641540  160.9643000    -5.4556990  -89.3042500
   69930010000    -2.3889320   25.1146500    -6.4916330  -93.0909900   -39.8296100 -105.4051000   -38.7714600 -172.9008000 
 		     -12.8486100 -104.3994000    -0.9545735   28.2994000   -39.8676600  -24.7734100   -40.6631900 -136.1180000
 		     -27.4569200  -37.0712800   -19.4110400  166.1068000    -7.0706110 -101.6211000    -4.2812290  158.9114000
 		     -29.0547600 -147.3324000    -9.8841770  -26.4671200    -4.2826550  157.8589000    -5.2279790 -101.9994000
   70000000000    -1.1407160   28.5877700   -22.2794700 -138.5755000   -51.9935600  -84.1494500   -35.6988800 -154.5433000 
 		     -24.9335700 -159.3841000     0.3217894   -6.4475140   -49.1355700  -94.8465100   -36.4856400  178.2321000
 		     -35.1352800   -1.5359350   -20.0864400 -103.6663000    -4.6946230  -90.9040300    -3.7020490  158.9927000
 		     -31.7880300  -58.7421500   -22.3201000  166.0508000    -2.7623220  159.0727000    -5.2848540  -90.6708800
