! 4/13/2026 10:45:41 AM
! C:\ANRITSUVNA\DATA\SARA\2026-04-13 T5 MZDRV\DEEMB STRUCTURES\THRU_2.S4P
! CHANNEL.1
! TR.MEASUREMENT
! CORRECTED.DATA
! RF.CORRECTION: FULL.FOUR.PORT.CAL.PORT.1.2.3.4
! AVERAGING.OFF
! IF.BANDWIDTH: 1KHZ
! SWEEPTYPE:  FREQ.SWEEP(Linear)
! Reference Plane Port Info
! PORT:              PORT1              PORT2              PORT3              PORT4             
! DISTANCE:          0  m               0  m               0  m               0  m              
! TIME:              0  s               0  s               0  s               0  s              
! PHASE.OFFSET:      0 °                0 °                0 °                0 °               
! LOSS:              0  dB              0  dB              0  dB              0  dB             
! REF.LOSS:          0  dB              0  dB              0  dB              0  dB             
! REF.FREQ:          0  Hz              0  Hz              0  Hz              0  Hz             
! Power Info
! POWER:             -20  dBm           -20  dBm           -20  dBm           -20  dBm          
! EFF.POWER:         -20  dBm           -20  dBm           -20  dBm           -20  dBm          
! SOURCE.ATTEN:      0  dB              0  dB              0  dB              0  dB             
! TEST.ATTEN:        0  dB              0  dB              0  dB              0  dB             
# HZ S DB R 50.0
! FREQ.HZ         S11DB        S11A          S12DB        S12A          S13DB        S13A          S14DB        S14A 
!		      S21DB        S21A          S22DB        S22A          S23DB        S23A          S24DB        S24A 
!		      S31DB        S31A          S32DB        S32A          S33DB        S33A          S34DB        S34A 
!		      S41DB        S41A          S42DB        S42A          S43DB        S43A          S44DB        S44A 
!; PortSelection: Port_1234
      10000000   -37.3893800    0.7254574   -59.7645300   15.4715900    -0.0966364   -0.0419251   -59.5290000 -170.7365000 
 		     -59.5085500    9.3320990   -38.0573700   -0.2908275   -58.9360700 -169.6117000    -0.0918673    0.0720263
 		      -0.0964641   -0.0184603   -60.2192100 -172.9037000   -38.0257200   -1.3934440   -60.5411300   15.1897700
 		     -60.8164100 -178.5126000    -0.1183436   -0.0194012   -59.4189000   15.2165800   -35.5184700    0.8459929
      79990000   -37.2829200    4.3346620   -53.1055700   49.0473800    -0.1245194   -0.2878273   -53.9272100 -139.5346000 
 		     -53.1567300   48.4379300   -37.7398300    5.9754740   -54.0486600 -142.1659000    -0.1079282   -0.3167780
 		      -0.1265037   -0.2462527   -54.2675100 -138.5702000   -36.2766700    3.4962340   -53.2834900   48.0914600
 		     -54.8267300 -142.0347000    -0.1314081   -0.3846876   -53.1182900   47.9019500   -35.3938700    4.0680490
     149980000   -36.4209900    5.3101530   -49.6375000   50.4675400    -0.1279180   -0.5507546   -51.5102600 -139.9710000 
 		     -49.7764800   50.3740400   -36.9195100    7.0114930   -51.4775100 -139.0697000    -0.1250514   -0.5502810
 		      -0.1315898   -0.5267590   -52.2358600 -136.7263000   -35.4796800    3.6714120   -50.2632600   52.2982700
 		     -51.8377500 -138.2408000    -0.1383467   -0.5873468   -50.1286300   50.7169000   -34.7507400    6.2006210
     219970000   -36.3331700    9.0697260   -48.5671300   53.6605300    -0.1279823   -0.7771257   -50.1577300 -136.9309000 
 		     -47.7362100   56.2711600   -37.0322600   10.2779400   -50.1855000 -137.5396000    -0.1361944   -0.7487795
 		      -0.1307926   -0.7742925   -49.7261200 -136.5735000   -35.2859200    5.7562790   -48.1007200   53.1541800
 		     -50.2608400 -138.1874000    -0.1473315   -0.8454912   -48.4129500   52.3064200   -35.9476400   10.6474000
     289960000   -36.4888200    8.0031530   -46.7770800   53.6137600    -0.1575085   -1.0056320   -49.2249100 -138.5154000 
 		     -46.6267200   54.1068700   -36.7333500   12.8480400   -49.3874200 -136.6803000    -0.1348439   -1.0722870
 		      -0.1463684   -1.0225670   -49.0027200 -139.0652000   -36.9304400    7.9990000   -46.6391400   55.7432700
 		     -49.1168300 -139.0067000    -0.1534004   -1.1222670   -46.6959500   56.0273700   -36.1439700    5.7632290
     359950000   -35.5252100    7.9925840   -45.7170900   61.3018900    -0.1530451   -1.2766550   -48.3983800 -139.1250000 
 		     -45.2383800   58.7750000   -36.5911600    8.9818150   -48.2258000 -137.3300000    -0.1467432   -1.2604370
 		      -0.1565708   -1.2336670   -48.1031100 -140.4016000   -36.0418200   10.2778200   -45.4606100   55.7930100
 		     -48.5608400 -133.9469000    -0.1669341   -1.3364900   -45.5975600   56.1003200   -35.4883500   12.5468800
     429940000   -36.1206600   13.1565000   -44.3352200   57.4418800    -0.1579721   -1.4973180   -47.1846700 -135.9954000 
 		     -44.4347700   58.8380500   -36.0632700    9.2025460   -47.3236900 -136.9197000    -0.1027069   -1.5576640
 		      -0.1530945   -1.4646090   -47.6933300 -138.2917000   -36.0428200   13.9308100   -44.6854200   59.5362600
 		     -47.5702100 -135.9177000    -0.1617739   -1.6014230   -44.5267000   58.2674300   -35.6437500   11.3381700
     499930000   -35.9438100   11.7445400   -44.1530300   62.1564400    -0.1360795   -1.7616410   -47.1640400 -134.6505000 
 		     -43.6619500   60.6234000   -35.7396000    8.8269140   -47.0895800 -135.5820000    -0.0953410   -1.7884170
 		      -0.1314769   -1.7755400   -47.3201300 -138.3606000   -35.9250400    8.7626780   -43.7806400   59.3809600
 		     -47.1664000 -136.8584000    -0.1585445   -1.7671020   -43.8535700   59.9417100   -35.5818300   10.2274800
     569920000   -35.5636900   10.9592600   -42.1997100   61.4059400    -0.1359051   -2.0233200   -45.9119900 -133.9425000 
 		     -43.0581200   60.8820800   -35.7381200   12.1840200   -46.8672900 -137.5345000    -0.1324811   -1.9091580
 		      -0.1390590   -1.9964720   -45.9085200 -128.4986000   -36.0929300   13.9634100   -42.8020500   63.4758300
 		     -46.6287300 -135.8956000    -0.1535619   -2.0453070   -43.0058800   64.3079900   -35.1878400   10.1903300
     639910000   -36.8777500   10.5087600   -41.3218800   63.3612200    -0.1406451   -2.1910640   -45.7519600 -131.6427000 
 		     -42.1809300   65.5630700   -36.0061500   13.6704300   -45.8433100 -132.8295000    -0.1341120   -2.2162730
 		      -0.1277727   -2.2150030   -44.5668300 -123.3316000   -34.7012700    7.9034750   -42.2343200   65.0946900
 		     -45.7263500 -134.4205000    -0.1507485   -2.2841750   -42.4578500   61.9754900   -35.6969300    7.0839850
     709900000   -34.6692500    8.7426960   -41.6283500   64.1268200    -0.1440303   -2.3988440   -45.9238600 -130.1760000 
 		     -41.6632900   66.0845900   -34.5827200   11.0059700   -45.5264100 -132.2621000    -0.1347197   -2.4046480
 		      -0.1415756   -2.4201460   -45.1506700 -132.7861000   -35.6173700   10.6004400   -41.5169100   65.7481100
 		     -45.7834900 -132.9153000    -0.1447350   -2.4927630   -41.8447200   63.5271000   -35.1866500    9.8303470
     779890000   -35.1141400   10.1229400   -41.6272000   63.7455200    -0.1444724   -2.6946900   -45.3849800 -127.7788000 
 		     -40.7780100   67.0411500   -35.0579400   17.5160200   -45.4325300 -130.2174000    -0.1500279   -2.6936670
 		      -0.1443790   -2.6856040   -45.3350300 -127.0349000   -35.3521300   11.5823200   -40.9056200   65.4275600
 		     -45.5920300 -136.7407000    -0.1616885   -2.7829550   -41.1078100   64.5870200   -35.2361300    7.4326340
     849880000   -35.0471300   13.5707500   -40.7260400   67.2299300    -0.1516293   -2.9010020   -44.9918100 -129.1607000 
 		     -40.6778000   64.7031300   -34.8744900   14.2991700   -44.8558100 -132.3023000    -0.1509080   -2.8657310
 		      -0.1484350   -2.8805050   -45.0826000 -128.8990000   -35.2921900   11.5368800   -40.6322400   67.2220900
 		     -45.0953700 -132.9183000    -0.1675674   -2.9467240   -40.5489900   64.9729900   -34.8459400    9.1402920
     919870000   -34.8466100    9.7269120   -40.0526200   66.2534700    -0.1519156   -3.1568540   -44.1228400 -131.5650000 
 		     -39.9730800   67.3039700   -35.1447300    8.8330620   -44.5663500 -129.7119000    -0.1487594   -3.1771520
 		      -0.1456600   -3.2004900   -44.4255600 -129.2901000   -35.5726900   10.5103900   -40.0096300   65.5168800
 		     -44.5257900 -132.4013000    -0.1606864   -3.1784690   -39.9214400   66.7035100   -34.8493000   11.1285400
     989860000   -35.1409100   12.2643400   -39.4127400   67.4345100    -0.1573805   -3.3296700   -43.8042700 -129.5147000 
 		     -39.4381200   67.6272200   -34.8903500   11.2220500   -44.2374100 -132.1157000    -0.1496649   -3.3753110
 		      -0.1560808   -3.3426580   -44.5909900 -128.2629000   -35.1603000   10.8252500   -39.6326400   67.8075100
 		     -44.2991300 -127.4069000    -0.1532832   -3.4435060   -39.5815500   67.5399600   -34.8289800   10.5104000
    1059850000   -35.1960500    9.9604240   -38.8719000   69.7500200    -0.1591967   -3.5630320   -43.7233300 -127.9956000 
 		     -38.7947000   68.1940200   -34.7761500   15.3673400   -44.0326100 -128.3512000    -0.1581711   -3.5022160
 		      -0.1570839   -3.5550390   -43.7281300 -126.3044000   -35.1928600    9.6215620   -39.1285100   68.6788600
 		     -43.6190500 -126.9509000    -0.1711830   -3.6416890   -39.1018000   68.2540700   -34.5497600    8.2105730
    1129840000   -34.4850800   14.5680000   -38.1720800   68.2436500    -0.1632501   -3.7908350   -43.2051300 -128.2643000 
 		     -38.4062500   68.9401600   -34.8155700   12.6618300   -43.2305800 -127.0016000    -0.1639535   -3.8227440
 		      -0.1653605   -3.7931530   -43.3236100 -126.0964000   -34.6086400    9.9287200   -38.5810900   69.0799100
 		     -43.3680100 -128.6888000    -0.1711967   -3.8794960   -38.4537800   69.0251800   -34.3427100   12.0722500
    1199830000   -34.8171200    8.7506530   -38.1319200   70.1426100    -0.1614333   -3.9917450   -43.3848600 -127.6839000 
 		     -38.1209900   70.1755300   -34.6726600    9.9247260   -43.2225800 -126.6263000    -0.1661199   -3.9764220
 		      -0.1660234   -4.0041600   -43.0571000 -127.2753000   -34.8123800   12.1446400   -38.0910800   69.3649400
 		     -43.1963300 -126.2550000    -0.1665349   -4.0946150   -38.0934900   69.3414600   -34.6490300   11.3918400
    1269820000   -34.5043900   11.8418000   -37.5928600   70.2867400    -0.1626371   -4.2611100   -42.7293200 -126.5965000 
 		     -37.6730300   70.0162100   -34.8555100   12.4976700   -42.6686300 -126.2332000    -0.1626655   -4.1930420
 		      -0.1599145   -4.2651310   -42.5446200 -126.6827000   -34.7786800   11.0948700   -37.6902100   69.7187000
 		     -43.1197500 -128.3051000    -0.1758532   -4.3148560   -37.5880500   69.8757700   -34.5420200   10.6401300
    1339810000   -33.9204800   10.5267300   -37.3485000   68.4620900    -0.1698166   -4.4590420   -42.2011600 -127.0558000 
 		     -37.3008600   71.2345000   -34.0946700   13.4457600   -42.7618400 -126.3710000    -0.1672825   -4.4830730
 		      -0.1690676   -4.5230950   -42.8055200 -124.9060000   -34.9960400   13.8399400   -37.3588000   70.1379300
 		     -42.5444800 -126.2583000    -0.1827559   -4.5391010   -37.3133900   71.2801200   -34.1906400   11.0399800
    1409800000   -34.7418800    8.2442910   -37.2279800   69.3365900    -0.1718605   -4.6653460   -42.4263900 -127.4655000 
 		     -37.0177700   70.9615300   -34.3509700   10.6604100   -42.0955300 -123.3359000    -0.1693566   -4.6379740
 		      -0.1754308   -4.7071290   -41.8052900 -123.3037000   -34.8111200   12.1700900   -37.0033100   70.8416000
 		     -42.3005300 -125.2113000    -0.1818925   -4.7606670   -36.8899700   70.5561000   -34.5239300    9.5102700
    1479790000   -34.4170000    7.8222980   -36.4168500   72.4711500    -0.1711528   -4.9042940   -42.1312000 -124.7176000 
 		     -36.6245000   71.1739300   -34.5495400   10.6745800   -41.7308100 -122.3691000    -0.1779875   -4.8513950
 		      -0.1720630   -4.9893220   -42.2808100 -127.1773000   -34.2126200   10.7656100   -36.4518900   71.8618500
 		     -41.9730100 -124.6759000    -0.1800420   -5.0059230   -36.8196300   70.3119500   -34.5006900   11.5815900
    1549780000   -34.0464500    9.6787030   -36.2475200   72.1258400    -0.1741489   -5.0907510   -41.8155700 -122.9695000 
 		     -36.2047600   69.8962000   -33.8506500   11.1593800   -41.7156600 -122.6045000    -0.1706200   -5.1053310
 		      -0.1731717   -5.1823150   -41.5975900 -125.7343000   -34.4374800   12.2143700   -36.1788200   70.6778400
 		     -41.5341000 -122.4872000    -0.1845900   -5.1978490   -36.1561900   71.3187800   -34.0500300   10.8578900
    1619770000   -34.6695900    9.1850390   -35.9193500   71.9593900    -0.1718934   -5.3317480   -41.2663000 -122.8434000 
 		     -35.9343600   71.2192500   -34.3057400    8.1210990   -41.2799400 -124.1232000    -0.1711192   -5.2703950
 		      -0.1707702   -5.4118410   -41.2202000 -125.8823000   -34.5648800    9.1681250   -36.0054300   71.7150700
 		     -41.5506700 -125.4725000    -0.1911978   -5.3862370   -35.7545900   71.4857600   -33.9897000   10.1273500
    1689760000   -34.0846600    8.2695360   -35.7090300   72.9269200    -0.1824608   -5.5846720   -41.0992600 -122.1555000 
 		     -35.4332300   72.3766600   -34.1298900   10.4609000   -41.0548400 -123.2328000    -0.1792299   -5.5502450
 		      -0.1766264   -5.5686240   -41.3414400 -125.4917000   -34.5105900    7.3934380   -35.5601000   71.4699200
 		     -41.3278900 -120.4854000    -0.1800236   -5.6419940   -35.4735600   72.1905100   -33.9917400    8.0043010
    1759750000   -34.7214100    9.2458590   -35.0865700   72.7572900    -0.1790408   -5.7793540   -40.8372300 -121.6662000 
 		     -35.2751200   72.5472100   -33.6802200    9.0079470   -40.9004600 -122.5486000    -0.1830304   -5.7049980
 		      -0.1803458   -5.8091100   -40.7928100 -121.7630000   -34.7457200    8.1902960   -35.1174900   73.4356200
 		     -41.1833600 -123.1423000    -0.2014008   -5.8335260   -35.1875500   72.3486500   -34.0520700    7.4654570
    1829740000   -33.9890500    9.6710500   -34.9228200   71.6791500    -0.1831079   -5.9794120   -40.4911000 -121.9567000 
 		     -34.9930600   70.9754200   -33.5872900   11.6979800   -40.6403700 -120.8833000    -0.1819837   -5.9821830
 		      -0.1692471   -6.0513440   -40.1341700 -124.1968000   -34.5145500    8.7486250   -34.9200100   72.1881800
 		     -41.2338800 -123.5210000    -0.1938450   -6.1002230   -34.9510200   72.5027000   -34.0569500   11.2485900
    1899730000   -34.0058300   10.2977100   -34.6757900   71.3062300    -0.1907085   -6.2447760   -40.3999900 -122.1299000 
 		     -34.6214300   72.1243700   -34.1312900    9.7115910   -40.3354800 -121.0695000    -0.1786287   -6.1986270
 		      -0.1747805   -6.2671790   -40.4462300 -120.4477000   -34.2646800   10.0444700   -34.6311100   71.9278500
 		     -40.3922300 -123.6672000    -0.1851880   -6.3363760   -34.6595100   71.7280200   -33.8498100   10.5545300
    1969720000   -34.3784400    7.4293780   -34.2649000   73.3991700    -0.1861906   -6.4022720   -40.0596700 -121.4040000 
 		     -34.2093800   72.1373100   -33.9422400   11.2154800   -40.1524700 -121.3556000    -0.1826846   -6.4285350
 		      -0.1838562   -6.4190300   -39.8280800 -121.7666000   -34.2899000    7.0795120   -34.3512200   71.5764000
 		     -40.2728600 -122.0242000    -0.1948900   -6.4898940   -34.2688300   72.9450500   -34.2959700    9.7367590
    2039710000   -33.6616400   10.3940300   -34.0921500   71.4375300    -0.1875840   -6.6564450   -39.8909300 -123.5278000 
 		     -33.8611100   73.1498100   -33.5501100    8.2437170   -39.7892800 -120.2497000    -0.1876161   -6.6546270
 		      -0.1878905   -6.7114220   -39.7025300 -117.7794000   -34.3250300    8.9654660   -34.0394200   72.2355300
 		     -40.0792300 -121.2826000    -0.1903483   -6.7698490   -34.0296700   73.0567200   -33.6343200   13.1767100
    2109700000   -33.8386000    7.4778590   -33.4595800   72.5391100    -0.1925785   -6.9080820   -39.6737100 -120.1525000 
 		     -33.7138400   72.6229400   -33.1641300    7.8065580   -39.8026800 -120.5197000    -0.1858720   -6.8781030
 		      -0.1922283   -6.9301130   -40.2425400 -117.7482000   -34.2506100   11.6687400   -33.8065300   72.6067900
 		     -39.5139500 -120.1647000    -0.1870978   -7.0195870   -33.7764900   72.9058600   -33.9675800   10.6887700
    2179690000   -33.8065000    8.6052490   -33.5907100   72.3275200    -0.1837722   -7.0942010   -39.3608500 -121.5590000 
 		     -33.4899800   72.3419000   -33.8440200    6.9306390   -39.3416900 -120.3491000    -0.1873507   -7.1114850
 		      -0.1852288   -7.1583680   -39.6126100 -120.3491000   -33.9264300    8.5042440   -33.6113600   72.5133500
 		     -39.4666500 -119.7858000    -0.1991088   -7.1893890   -33.5132400   72.5190700   -33.5999900    6.9070980
    2249680000   -34.4757500    4.5162160   -33.2218800   72.2759500    -0.1887104   -7.3723930   -39.2179700 -120.2572000 
 		     -33.2302600   72.2685600   -33.6997000    8.1403650   -39.2808300 -120.4203000    -0.1882589   -7.2409300
 		      -0.1762344   -7.3910850   -39.0074700 -121.7504000   -34.5547100    8.0436970   -33.1687000   72.9711200
 		     -39.0135500 -119.9010000    -0.1986741   -7.3684850   -33.3151900   73.6402100   -33.8902700    7.3992420
    2319670000   -32.9646300   15.4006500   -33.0344500   74.5777800    -0.2155834   -7.5481120   -39.1241000 -119.8608000 
 		     -33.0654000   72.1045300   -33.3826500   15.7678500   -39.0891600 -119.8948000    -0.1911767   -7.4878060
 		      -0.2202451   -7.6273550   -39.5463900 -119.1637000   -35.3502600    8.8635990   -33.0374100   72.3251600
 		     -39.2228400 -120.7480000    -0.1996541   -7.4722400   -33.0781400   72.9442100   -33.4693600    9.3198970
    2389660000   -34.4751700   -0.2220767   -32.8553200   72.5907800    -0.2225694   -7.6287480   -38.5933700 -119.1078000 
 		     -32.6640900   72.3256200   -34.4945000    2.5705460   -38.5563700 -121.0183000    -0.2103486   -7.7756770
 		      -0.2191956   -7.7565030   -38.8318600 -119.3619000   -35.2327300   11.8272000   -32.7339300   72.7457600
 		     -38.7715600 -119.1575000    -0.2212887   -7.8570280   -32.7749400   73.4589400   -33.0039300    5.8089620
    2459650000   -33.0347300    2.9878210   -32.6059800   72.4211600    -0.2013446   -8.0220120   -38.6746600 -119.0296000 
 		     -32.5133100   71.6665000   -33.8658300    4.9558130   -38.3668500 -121.0179000    -0.2217870   -7.9321120
 		      -0.1936461   -8.0572290   -38.3997400 -121.8225000   -34.9233000    0.0844009   -32.2508700   72.3549900
 		     -38.7917500 -120.7012000    -0.2287969   -8.0017280   -32.3019600   71.9771000   -33.8194100   -0.1907618
    2529640000   -33.6371600    6.1200300   -32.2414700   72.6537000    -0.1811066   -8.3503260   -38.4706200 -120.0080000 
 		     -32.2483100   72.7391700   -33.8137500   10.1223600   -38.3299300 -120.1361000    -0.1875488   -8.3582720
 		      -0.1835043   -8.2062090   -38.3781000 -120.6490000   -34.2438100    9.5421590   -32.2825100   72.5404000
 		     -38.5652600 -117.2835000    -0.1996780   -8.2665310   -32.2734900   72.6166800   -33.7733700    9.5795130
    2599630000   -33.8427300    7.5011290   -32.0204600   73.5924100    -0.1942760   -8.4509960   -38.1004200 -121.2516000 
 		     -32.0609700   72.8589800   -33.5421700    8.5376490   -38.1966600 -118.9387000    -0.2009252   -8.5087100
 		      -0.1946369   -8.4066930   -38.1261300 -118.4019000   -34.2985900    6.8908040   -32.0616700   72.3482400
 		     -38.2518500 -120.6311000    -0.2050120   -8.4680150   -32.1186700   72.5771800   -33.6671600    8.3664340
    2669620000   -33.6945400    9.7014280   -31.8576100   72.6715200    -0.1972453   -8.5947690   -38.0027100 -118.9574000 
 		     -31.8994900   72.8801900   -33.5580800    7.6479490   -38.0449800 -120.2365000    -0.2029870   -8.6537990
 		      -0.1847623   -8.5928790   -38.2245900 -123.3665000   -33.6906800    6.4590440   -31.9271500   72.8642900
 		     -38.1506800 -119.4261000    -0.2008414   -8.7184790   -31.8622000   72.5998500   -33.8779900    5.4244490
    2739610000   -33.5406800    6.0981110   -31.5694100   72.1958700    -0.2113551   -8.7610250   -37.9393200 -120.0595000 
 		     -31.8739200   71.2210000   -33.3779800   11.5419500   -37.7595500 -121.4680000    -0.2026767   -8.8038480
 		      -0.1879399   -8.7738070   -37.8381300 -121.3596000   -33.9312400    9.5696510   -31.7346400   72.7766500
 		     -37.7251700 -118.2368000    -0.2058908   -8.8489290   -31.7582500   71.9019300   -33.6208900    6.9688130
    2809600000   -33.8215700    7.3396820   -31.3770300   71.8753100    -0.2100296   -9.0035670   -37.7761800 -118.7486000 
 		     -31.5335900   71.9133600   -33.5619600    7.2957940   -37.5514000 -121.7836000    -0.2178338   -9.0522540
 		      -0.2011223   -9.0106710   -37.8158100 -118.1329000   -33.7601400    6.9229080   -31.4772000   73.0023900
 		     -37.7180900 -120.2187000    -0.2208173   -9.0366600   -31.4890900   72.6385400   -33.6564200    9.2133450
    2879590000   -33.5059300    6.1035430   -31.3256000   72.1670200    -0.2024171   -9.1570430   -37.6959800 -119.0354000 
 		     -31.2860000   72.5224800   -33.6966100    9.0113790   -37.6641600 -119.9588000    -0.1984566   -9.2629460
 		      -0.2037503   -9.1789050   -37.6445800 -119.1112000   -33.5085100    6.7254050   -31.2994400   72.7901500
 		     -37.6327800 -120.1384000    -0.2094523   -9.2140780   -31.2908900   72.7093000   -33.9512600    5.2200060
    2949580000   -33.4829700    6.6232220   -31.0727500   73.0356000    -0.2039538   -9.5125750   -37.3811300 -120.9204000 
 		     -31.1172100   72.1584400   -33.3290900    9.9797160   -37.3806700 -120.5200000    -0.2102293   -9.5818820
 		      -0.2086032   -9.5021260   -37.6226700 -119.3971000   -33.6576300    8.9157080   -31.1271700   72.0906400
 		     -37.3206500 -120.3322000    -0.2157007   -9.5458630   -31.1293400   72.3587500   -33.3240900    7.3039470
    3019570000   -33.4133100    7.1230900   -30.9007200   72.4074500    -0.2191418   -9.6921800   -37.2038100 -121.2136000 
 		     -30.9172700   71.9214900   -33.5412200    9.1729110   -37.2917700 -120.6818000    -0.2166426   -9.7712710
 		      -0.2060393   -9.6670690   -37.0723900 -122.3425000   -34.1652000    7.6060600   -30.8858600   72.5601900
 		     -37.2386300 -119.6943000    -0.2193950   -9.7054790   -30.9271000   72.4703800   -33.7793700    5.8431940
    3089560000   -33.5748100    5.6152310   -30.7207600   72.3226600    -0.2140522   -9.9076290   -37.0712700 -118.5663000 
 		     -30.7795900   71.9124600   -33.3827200    6.3397390   -37.1249600 -119.8083000    -0.2134980   -9.9503200
 		      -0.2032368   -9.9215330   -37.1378700 -120.2298000   -33.7458000    5.7185920   -30.8233300   72.0129200
 		     -36.9032000 -119.1408000    -0.2211357   -9.9210930   -30.7478300   72.6364500   -33.5835400    6.9588830
    3159550000   -33.4741600    6.0796990   -30.6059600   72.4169800    -0.2247004  -10.1522800   -36.8688200 -120.2321000 
 		     -30.5618400   71.2810600   -33.2393000    7.5730480   -36.9004300 -119.9099000    -0.2274183  -10.1392200
 		      -0.2134126  -10.1115700   -36.8354000 -120.5753000   -33.7603500    5.7898340   -30.6335000   71.9722400
 		     -37.0186200 -119.2366000    -0.2244112  -10.1700700   -30.5484200   72.1114000   -33.3415400    6.9655190
    3229540000   -33.3709200    9.8859270   -30.4974600   72.1088700    -0.2146042  -10.2936200   -36.7326800 -119.3443000 
 		     -30.4788300   71.9129400   -33.2230200    5.5383410   -36.7165700 -119.8575000    -0.2264048  -10.3551000
 		      -0.2145776  -10.3323700   -36.9005100 -120.2750000   -33.6158900    4.8596160   -30.4047200   71.8177300
 		     -36.8766100 -119.5213000    -0.2312766  -10.4108000   -30.4437300   72.2504000   -33.4647100    8.1427160
    3299530000   -33.4522700    4.1995520   -30.2248000   71.7026100    -0.2127933  -10.5664100   -36.6783800 -120.0483000 
 		     -30.2568600   72.1077400   -33.2500100    7.1750180   -36.5670500 -119.9121000    -0.2033678  -10.5488000
 		      -0.2115475  -10.4892300   -36.5587500 -119.4786000   -33.7986400    6.6584500   -30.2042200   71.7223700
 		     -36.7380400 -120.0265000    -0.2328874  -10.4574700   -30.1813500   71.9856600   -33.7533700    7.3969170
    3369520000   -33.5569000    3.0307710   -30.0786300   71.7330100    -0.2212740  -10.7683700   -36.4569500 -119.9042000 
 		     -30.0742600   71.7332800   -33.0385000    4.9090320   -36.4196100 -119.5525000    -0.2329920  -10.7973900
 		      -0.2182458  -10.7110400   -36.5716900 -120.8299000   -33.7009200    6.2005040   -30.0477200   72.0890500
 		     -36.4548800 -120.3472000    -0.2381183  -10.7886000   -29.9842800   72.2189600   -33.5090400    5.4293100
    3439510000   -33.0423300    4.9568170   -29.9424600   72.0546100    -0.2237639  -11.0113100   -36.3859300 -118.8431000 
 		     -29.9403400   71.7940800   -33.6658600    5.6969640   -36.2013300 -119.4102000    -0.2298309  -10.9975900
 		      -0.2225980  -10.9359600   -36.4773600 -118.3635000   -33.5528100    5.6364170   -29.8664400   72.0696900
 		     -36.3027200 -119.3254000    -0.2218055  -11.0139100   -29.8559500   72.1068200   -33.3351000    7.5237140
    3509500000   -33.1822500    5.0589880   -29.7383600   72.0306500    -0.2234401  -11.2383200   -36.2019700 -119.8620000 
 		     -29.7603900   72.1277600   -33.4079900    3.7995480   -36.2332000 -119.4353000    -0.2208263  -11.2530300
 		      -0.2219131  -11.1758200   -36.1551500 -118.2936000   -33.3582300    7.7560940   -29.8220500   72.1105700
 		     -36.4064900 -119.4407000    -0.2378156  -11.2596600   -29.7329100   71.9086200   -33.2059800    6.4630560
    3579490000   -33.4733300    2.9024440   -29.5941000   71.7607600    -0.2304903  -11.4165800   -35.8505300 -119.3137000 
 		     -29.6430800   71.6341500   -32.8667100    6.3225160   -36.0498800 -120.0308000    -0.2417329  -11.4536500
 		      -0.2195333  -11.3286400   -36.1083400 -120.3667000   -33.7942200    5.4404520   -29.5972700   71.9447500
 		     -35.9977800 -119.0472000    -0.2344335  -11.4645200   -29.5591400   71.5512500   -33.2525800    7.7964880
    3649480000   -32.9951200    2.7096240   -29.4935200   71.7330700    -0.2374618  -11.7044700   -35.9085600 -119.3775000 
 		     -29.5297100   71.2707300   -33.2799000    7.1516100   -35.8835100 -120.2771000    -0.2349849  -11.6446500
 		      -0.2297037  -11.5797600   -36.0144500 -120.6169000   -33.3146200    8.1885470   -29.4263500   71.4791500
 		     -36.0016800 -119.2537000    -0.2370982  -11.6080600   -29.4613900   71.8634800   -33.1252900    6.2229870
    3719470000   -33.4800500    3.3171790   -29.2770200   71.6312600    -0.2503560  -11.8204700   -35.6224900 -120.5845000 
 		     -29.1779300   72.0286700   -32.8465300    3.4679780   -35.8270300 -119.7153000    -0.2461413  -11.7937800
 		      -0.2320971  -11.7806500   -35.5642700 -118.6067000   -34.0033300    7.2848450   -29.2404400   71.8259900
 		     -35.8326400 -118.5951000    -0.2329188  -11.8404300   -29.3056400   71.9513200   -33.0744300    7.9890010
    3789460000   -33.1692400    2.7589760   -29.0243700   71.7772200    -0.2436869  -11.9767900   -35.5575400 -118.1852000 
 		     -29.2858100   70.6490300   -33.0330600    6.0903180   -35.6393400 -120.1654000    -0.2454338  -11.9190800
 		      -0.2310568  -12.0717700   -35.8979600 -120.1377000   -33.1870500    4.3601480   -29.0948800   71.1393100
 		     -35.4752000 -120.0421000    -0.2389125  -12.0110200   -29.0549000   71.7878100   -33.4100300    5.6276790
    3859450000   -33.6191800    0.9577869   -28.9132200   70.5146900    -0.2147941  -12.0792800   -35.3638600 -118.5607000 
 		     -28.9984200   71.0426500   -32.8331900    6.5111440   -35.4910300 -119.7809000    -0.2233572  -12.0582500
 		      -0.2362579  -12.1968300   -35.7234600 -120.4388000   -33.3856600    9.7585330   -29.0265300   71.3131700
 		     -35.5377300 -119.6056000    -0.2299382  -12.2208900   -28.9391700   71.5063000   -33.2077900    7.7220190
    3929440000   -33.0992500    4.4914750   -28.8685900   71.5792500    -0.2239050  -12.3925000   -35.2078200 -119.3751000 
 		     -28.8624400   71.3382000   -32.9315900    2.7076970   -35.4659900 -120.0577000    -0.2172698  -12.3516500
 		      -0.2268104  -12.4499600   -35.2239400 -119.5347000   -33.7771100    4.0352930   -28.7701100   71.5526000
 		     -35.4631400 -121.0873000    -0.2278215  -12.4722800   -28.8802000   71.0672100   -33.2444900    7.5638790
    3999430000   -33.0246800    3.6798420   -28.6506400   71.7908000    -0.2241822  -12.6671700   -35.2876600 -119.8360000 
 		     -28.6800000   71.4491800   -32.8288100    4.8066850   -35.4127200 -119.4580000    -0.2346018  -12.7080000
 		      -0.2349693  -12.5951400   -35.2961800 -121.4651000   -32.9614400    2.3961040   -28.7150600   71.2700000
 		     -35.2640500 -119.3319000    -0.2406972  -12.6815000   -28.6545400   71.4128500   -33.0064800    6.0747730
    4069420000   -33.4787600    1.6853010   -28.5827100   70.4359700    -0.2387446  -12.8771100   -35.1088800 -120.6568000 
 		     -28.5376600   71.2185600   -33.4555400    1.8437610   -35.0982800 -120.0317000    -0.2444730  -12.9312700
 		      -0.2454025  -12.8826900   -35.2329000 -120.5285000   -32.8464900    5.7466780   -28.5871500   71.0844000
 		     -35.0540400 -119.9986000    -0.2384506  -12.9698100   -28.5831600   71.0490000   -33.0523900    3.7029670
    4139410000   -32.4917500    4.9046380   -28.5348500   70.5755200    -0.2485580  -13.1121800   -34.9811200 -118.9591000 
 		     -28.4643500   70.4612500   -32.8788100    5.6848460   -34.8219300 -119.4006000    -0.2428932  -13.0593800
 		      -0.2484234  -13.0457100   -35.1787700 -120.2013000   -33.1628800    6.0466610   -28.4173900   70.5641300
 		     -34.8638300 -118.8137000    -0.2544633  -13.0556900   -28.4079700   70.8555800   -33.1768500    5.5840460
    4209400000   -33.0880300    4.6214940   -28.3226300   70.2193400    -0.2389945  -13.3398800   -34.7943800 -121.0836000 
 		     -28.3507200   70.4655300   -32.8238000    5.7239110   -34.7265800 -120.7403000    -0.2456825  -13.3080700
 		      -0.2464835  -13.2898000   -34.8029000 -120.3611000   -33.2194800    3.5266880   -28.2891100   70.9891000
 		     -34.8321200 -119.6709000    -0.2443846  -13.2921300   -28.2884600   70.6619900   -33.0975400    4.5416790
    4279390000   -33.6750100    3.1569720   -28.0935600   70.5542000    -0.2420321  -13.5221200   -34.7741800 -119.7936000 
 		     -28.2606700   70.6198800   -32.9148600   -1.3093270   -34.7273900 -119.6589000    -0.2521456  -13.5702100
 		      -0.2394757  -13.5169300   -34.9200200 -121.7270000   -33.2319100    5.2646810   -28.1512800   70.5183000
 		     -34.8067600 -120.1403000    -0.2479652  -13.5959100   -28.1534500   70.5722100   -33.1381000    4.0857160
    4349380000   -32.9055000   -1.2024100   -28.0632100   70.1130200    -0.2484736  -13.7458400   -34.6773600 -120.1619000 
 		     -27.9985800   70.5925000   -32.7981700    4.2620120   -34.5261500 -119.4834000    -0.2501923  -13.7998200
 		      -0.2537025  -13.6682900   -34.5725400 -120.9292000   -33.0025700    3.9549880   -28.0231400   70.3190800
 		     -34.9522100 -119.3861000    -0.2524027  -13.7250600   -28.0185100   70.4521000   -32.9078600    6.7319650
    4419370000   -33.2102900    2.5310780   -27.9462500   70.3864700    -0.2586390  -13.9839000   -34.4630700 -119.2771000 
 		     -27.9225100   69.6058400   -32.9458500    2.2089120   -34.4318000 -119.8879000    -0.2543999  -13.9592500
 		      -0.2565463  -13.9279500   -34.2470100 -121.8259000   -33.3350000    6.0629980   -28.0093700   70.2104600
 		     -34.4391400 -120.9050000    -0.2542728  -13.9554100   -27.9506600   70.6136200   -33.5324900    4.9568660
    4489360000   -33.1182600    2.6860870   -27.7976900   70.0236100    -0.2594675  -14.2049900   -34.2702900 -120.1820000 
 		     -27.8445700   69.8477800   -33.1029500    3.9869500   -34.2117000 -120.6503000    -0.2548349  -14.1887100
 		      -0.2579613  -14.1589800   -34.3821000 -119.6724000   -33.2310900    5.2352370   -27.7726300   70.3210800
 		     -34.4581000 -120.2471000    -0.2535771  -14.1632100   -27.7646700   70.0699700   -32.8057700    3.4494780
    4559350000   -33.1541400    1.8349330   -27.6573900   69.8338400    -0.2639264  -14.3190500   -34.2126100 -120.5051000 
 		     -27.7104400   70.1607200   -32.7062200    0.3293891   -34.1484200 -120.0764000    -0.2585258  -14.3907500
 		      -0.2569821  -14.3687000   -34.2075300 -120.7511000   -33.2573000    1.7404160   -27.6967000   70.0811200
 		     -34.2460900 -120.9820000    -0.2489248  -14.3857700   -27.6812100   70.0268900   -33.1262100    5.6864410
    4629340000   -32.9478600   -0.6350272   -27.6780800   69.2359100    -0.2574957  -14.6016000   -34.2529800 -121.1815000 
 		     -27.5489700   69.7965000   -32.5955000    0.8553947   -34.1050100 -121.3189000    -0.2646252  -14.6639300
 		      -0.2603513  -14.5472900   -34.2268500 -121.4230000   -33.0431400    5.0434990   -27.5468400   70.3319900
 		     -34.0717700 -120.4403000    -0.2517745  -14.5442500   -27.4891700   70.2067500   -32.8486800    1.4429620
    4699330000   -33.0798200    2.3068100   -27.4948800   69.4505500    -0.2588017  -14.7522500   -34.1025700 -121.1225000 
 		     -27.4460800   69.7796900   -32.9176400   -0.7139501   -33.9730200 -120.3528000    -0.2608604  -14.8352700
 		      -0.2664961  -14.7408900   -34.2126400 -120.5523000   -33.0906800    3.8034930   -27.4107500   69.9894300
 		     -34.1249500 -120.3067000    -0.2524770  -14.7910400   -27.4365200   69.5290100   -32.9628700    4.2454690
    4769320000   -33.0228800    3.8457160   -27.3486300   69.5283700    -0.2687881  -14.9894600   -33.9576500 -119.5596000 
 		     -27.3960000   69.3419000   -33.2320500    2.1767200   -33.8427500 -121.1867000    -0.2620516  -15.1029100
 		      -0.2606809  -14.9541200   -33.9470000 -120.4538000   -33.0637800    2.5787560   -27.2742000   69.4782300
 		     -33.7860600 -120.4536000    -0.2622501  -15.0369300   -27.3900900   69.7203100   -32.6086000    4.4073100
    4839310000   -32.6915300    0.1947130   -27.2033200   69.5146000    -0.2612579  -15.2131700   -33.7952700 -120.7378000 
 		     -27.2732300   69.5273100   -32.8439300    2.2752400   -33.7297100 -121.9801000    -0.2629450  -15.3328000
 		      -0.2599822  -15.2054000   -33.7767100 -119.6420000   -33.2035700    4.6201000   -27.1866500   69.0713300
 		     -33.7865700 -121.0567000    -0.2601768  -15.2747300   -27.1872700   69.7600700   -32.7358900    5.0722340
    4909300000   -32.7926900   -1.4244880   -27.2090900   69.8765400    -0.2743250  -15.3912300   -33.6216300 -121.7855000 
 		     -27.1237800   69.1974800   -31.7811500    2.1607120   -33.6834600 -121.0398000    -0.2637660  -15.4020700
 		      -0.2655753  -15.4211300   -34.0475800 -121.3560000   -33.0271400    2.8589390   -27.0956600   69.1004300
 		     -33.7056300 -120.8762000    -0.2736928  -15.4214500   -27.1134300   69.1102800   -33.1744000    5.0517330
    4979290000   -33.3958400   -0.7824957   -27.0010700   69.1309400    -0.2646340  -15.6428400   -33.7078900 -120.7750000 
 		     -26.9747000   69.6613200   -32.6517000    0.9366161   -33.5671300 -121.9550000    -0.2797071  -15.6158000
 		      -0.2651578  -15.5981300   -33.6945500 -121.2630000   -32.7045100    3.2901900   -27.0509800   69.2326900
 		     -33.6669300 -120.6908000    -0.2659011  -15.6486900   -26.9168500   69.3508400   -32.8966500    4.1648030
    5049280000   -32.8429500    0.1021906   -26.8085400   68.9076400    -0.2793187  -15.8361100   -33.5148400 -120.9664000 
 		     -26.8755300   69.3116700   -32.2692900    0.1883689   -33.4520200 -121.0721000    -0.2651722  -15.9365700
 		      -0.2822301  -15.8061900   -33.6247900 -120.6298000   -32.9701000    3.5118170   -26.9530100   68.6557500
 		     -33.3847500 -119.6994000    -0.2688248  -15.8745500   -26.7874000   68.7308900   -32.4259900    4.7347820
    5119270000   -33.2176700   -2.1330330   -26.7763200   69.1452100    -0.2647344  -16.1015100   -33.3871200 -120.8434000 
 		     -26.8113300   68.9548000   -32.8136300    4.4083910   -33.3127500 -123.2019000    -0.2726629  -16.0706400
 		      -0.2754380  -16.0757200   -33.0721600 -119.9833000   -33.3270200    1.6599340   -26.7839700   68.9615600
 		     -33.4096600 -120.8845000    -0.2716669  -16.0597100   -26.8073600   68.0340600   -32.5136100    1.2846000
    5189260000   -32.9648400   -2.4076480   -26.7364300   68.4581300    -0.2690685  -16.3346700   -33.3179100 -121.7781000 
 		     -26.7460700   68.8721800   -32.6253500    3.0973340   -33.3718600 -121.2389000    -0.2774212  -16.2183300
 		      -0.2695606  -16.2745300   -33.2672900 -121.1565000   -32.7381500    0.0486790   -26.7002800   68.3558100
 		     -33.4265900 -120.1220000    -0.2739701  -16.2725900   -26.6558600   68.8893000   -32.9746800    4.3284680
    5259250000   -32.6547500   -2.2738700   -26.5521100   68.4531700    -0.2762777  -16.4562500   -33.1211500 -121.5350000 
 		     -26.6139700   68.6168500   -32.5963300   -0.4181972   -33.2298800 -121.7062000    -0.2727960  -16.4915800
 		      -0.2740198  -16.4499200   -33.1303600 -120.6206000   -33.0731000   -0.2524155   -26.5375100   68.3646700
 		     -33.2242000 -120.7089000    -0.2737895  -16.4910000   -26.5776600   68.6525600   -32.8111600    3.6439600
    5329240000   -32.9858400   -2.0869670   -26.4008500   69.1858600    -0.2791628  -16.6483600   -33.1562800 -121.1186000 
 		     -26.5367900   68.7882700   -33.1861000    1.6711080   -33.1639600 -122.0686000    -0.2882240  -16.6583300
 		      -0.2824249  -16.6343600   -33.3032500 -119.7648000   -32.8779200    0.3847137   -26.5005600   68.4462600
 		     -33.1424900 -121.2443000    -0.2762989  -16.7082100   -26.4786800   68.2208500   -32.9319300    0.9606751
    5399230000   -32.8221300   -1.0566170   -26.3787000   68.4472400    -0.2812551  -16.9043700   -32.9637300 -120.9756000 
 		     -26.4444100   68.3823100   -32.3524200    3.2846120   -32.9043400 -122.2214000    -0.2728272  -16.9907500
 		      -0.2771806  -16.8346100   -33.0694900 -121.1790000   -33.0900400    0.5956927   -26.3468200   68.3396100
 		     -33.1839400 -120.9781000    -0.2746686  -16.9673200   -26.3888700   68.4876000   -32.6954400    4.9559010
    5469220000   -32.5646200    2.1399110   -26.3510200   67.9837000    -0.2806843  -17.1847000   -32.6967200 -121.3853000 
 		     -26.3247200   67.9280900   -32.3078700    0.0987731   -33.0410200 -121.6918000    -0.2877494  -17.0907000
 		      -0.2773713  -17.1346900   -33.0224600 -122.7413000   -33.1865000    1.5634620   -26.2340900   67.9820700
 		     -33.0576900 -122.0559000    -0.2862784  -17.0687600   -26.3006800   68.0884300   -32.4987700    1.0360490
    5539210000   -32.8425800   -0.6319119   -26.2108400   67.9786500    -0.2797765  -17.2331400   -32.8192800 -122.0929000 
 		     -26.2980900   67.3008800   -32.5665300   -0.6868525   -32.8468500 -121.4651000    -0.2872490  -17.3886800
 		      -0.2814794  -17.2182100   -32.8125300 -122.3280000   -32.8245800    1.7704910   -26.1919100   68.1441500
 		     -32.8816900 -123.1202000    -0.2836279  -17.3118400   -26.1287800   68.1870300   -32.7344100    1.4156550
    5609200000   -32.5616300   -2.4679830   -26.1733200   67.9438000    -0.2859112  -17.5593200   -32.6065300 -121.0145000 
 		     -26.1808900   67.8333700   -32.4088500   -0.6015885   -32.8297100 -122.1484000    -0.2867355  -17.5807600
 		      -0.2897944  -17.5031200   -32.8577700 -121.0313000   -33.2987000   -1.7813580   -26.1067600   67.9008400
 		     -32.7326600 -121.7784000    -0.2901121  -17.5033400   -26.0735000   67.8157100   -32.5861500   -0.6372568
    5679190000   -32.7493400   -1.3322910   -26.0540400   67.7393700    -0.2793047  -17.7481100   -32.4334200 -122.1765000 
 		     -26.0946900   67.8761400   -32.3942800    0.5989287   -32.7212200 -122.9328000    -0.2836168  -17.6926500
 		      -0.2911456  -17.6919500   -32.5226800 -121.4837000   -32.8868900    0.3826328   -26.0054900   67.1634700
 		     -32.5809600 -122.8506000    -0.2911716  -17.7257300   -25.9831000   67.4686900   -32.9590500    0.9558159
    5749180000   -32.8034200    0.0340062   -25.9170900   67.3324400    -0.2855784  -18.0029900   -32.6371000 -122.8132000 
 		     -26.0087700   67.0252400   -32.6237900    2.7535740   -32.4503300 -123.0328000    -0.2816799  -17.9729500
 		      -0.2884448  -17.9620300   -32.6296600 -122.3182000   -32.7701000    1.9665530   -25.9116000   67.6305200
 		     -32.5522300 -122.2379000    -0.2802270  -17.9336900   -25.9255200   67.5767100   -32.7258500    0.8180959
    5819170000   -32.9132500   -1.0691000   -25.8102200   67.8094200    -0.3016915  -18.1205300   -32.3251600 -122.5157000 
 		     -25.8988700   67.0499000   -33.0345100   -4.5469980   -32.4655400 -122.3071000    -0.2858327  -18.2222200
 		      -0.2905815  -18.1467500   -32.3558000 -121.4725000   -33.2370500    1.3783940   -25.7612600   67.2830900
 		     -32.4452100 -122.1450000    -0.2911788  -18.1834700   -25.8640500   67.2679200   -32.4554500    1.2132350
    5889160000   -32.6801600   -3.8557280   -25.8252500   66.9630700    -0.2935101  -18.3338900   -32.2594400 -121.3041000 
 		     -25.8335000   67.1829200   -32.6442800    0.8362100   -32.2978100 -122.9844000    -0.2926323  -18.3809600
 		      -0.2877729  -18.3793300   -32.4672500 -121.9692000   -32.9095500   -0.4986334   -25.6314400   66.8383600
 		     -32.3606900 -122.9233000    -0.2979590  -18.4091000   -25.7704300   67.0139500   -32.8207100    1.1022750
    5959150000   -32.7288300   -3.9331630   -25.6430200   67.2033700    -0.2853205  -18.6164900   -32.1364300 -122.1000000 
 		     -25.6777400   66.6211400   -32.5170100    0.1941326   -32.3662500 -122.9722000    -0.2945071  -18.5622700
 		      -0.2967933  -18.5252200   -32.3458400 -121.9174000   -32.9581800    0.8701959   -25.6158800   66.1474200
 		     -32.1494300 -122.4556000    -0.2955565  -18.6236300   -25.6438200   66.3387500   -32.9353900   -1.5373640
    6029140000   -32.7192900   -1.7930180   -25.5356400   66.5666300    -0.3009193  -18.8027000   -32.0905000 -123.0569000 
 		     -25.5993700   66.7820700   -33.1164900   -2.6766840   -32.2300800 -123.1352000    -0.2923329  -18.7778500
 		      -0.3010361  -18.7688200   -32.0346500 -122.3238000   -32.9258000   -0.2751168   -25.5748500   66.5539500
 		     -32.1009700 -123.8258000    -0.2954718  -18.7796800   -25.5498200   66.7317600   -32.1925300   -0.3786941
    6099130000   -32.8371400   -5.8427740   -25.5151100   66.7337400    -0.2975745  -19.0220000   -32.1740800 -121.9829000 
 		     -25.4723500   66.5510900   -32.4982900   -2.4936350   -32.2493600 -122.5539000    -0.2869133  -18.9448100
 		      -0.3018033  -18.9626600   -32.1290700 -123.8415000   -32.9662500   -0.9835949   -25.4422800   66.7336600
 		     -32.0175800 -122.4685000    -0.2920830  -18.9696700   -25.4693300   66.3597200   -32.6004600    2.4259880
    6169120000   -32.6673800   -2.6606040   -25.3883300   66.7510100    -0.2826302  -19.1440800   -31.9522900 -122.5173000 
 		     -25.4349600   66.2817300   -32.7801500   -0.6103060   -31.9955100 -124.0175000    -0.3008638  -19.1918200
 		      -0.3007992  -19.1229900   -32.0041000 -123.5190000   -33.0523200   -0.3798611   -25.3532800   66.4921600
 		     -31.8487300 -122.3733000    -0.2936049  -19.2167800   -25.3960100   66.4483600   -32.5058400    1.6087960
    6239110000   -32.8003500   -3.3818900   -25.3507600   66.0241700    -0.3008991  -19.3206000   -31.8026100 -122.2625000 
 		     -25.3400900   66.2222400   -32.6688300   -3.5300210   -32.1003700 -123.1397000    -0.3077281  -19.4815800
 		      -0.2954878  -19.3627300   -31.7228400 -123.2667000   -32.9086300   -1.8567330   -25.2725500   66.0329700
 		     -31.8514000 -121.7856000    -0.2985091  -19.4438700   -25.2828300   66.0030900   -32.5905500   -1.6870830
    6309100000   -33.0432800   -4.3308040   -25.2950900   66.1105600    -0.3063898  -19.5959200   -31.8043300 -123.8972000 
 		     -25.2529100   65.7139700   -33.0511400   -1.3094930   -31.7043300 -123.5425000    -0.3020106  -19.6967800
 		      -0.3026872  -19.5911400   -31.9129800 -123.3436000   -32.8655200   -0.9909458   -25.2566600   65.7216700
 		     -31.8077700 -122.8497000    -0.2974999  -19.6328700   -25.1715800   65.8889500   -32.4474500   -0.4509484
    6379090000   -33.1264800   -5.1440070   -25.2276200   65.9905600    -0.2993815  -19.7525500   -31.6874700 -124.0936000 
 		     -25.2082900   66.2258800   -32.8465200   -2.9954860   -31.8046700 -123.4605000    -0.3031091  -19.8719700
 		      -0.3011621  -19.7760800   -31.4926200 -124.3615000   -32.8119100   -1.5439860   -25.1727900   65.1813400
 		     -31.7551200 -122.5746000    -0.2980000  -19.8912400   -25.1260900   65.7813600   -32.6929100   -0.6428376
    6449080000   -32.5331100   -4.9492280   -25.1993800   65.2759700    -0.3079076  -20.0270500   -31.6294000 -123.6220000 
 		     -25.1971100   65.6188800   -32.6253000   -4.2482380   -31.5806500 -124.4184000    -0.3057607  -20.0748500
 		      -0.3105983  -19.9768500   -31.5736100 -122.7228000   -33.0057600   -1.9132560   -25.0390000   65.3885300
 		     -31.8135400 -124.0084000    -0.2989833  -20.0026300   -25.0435900   65.6474400   -32.5071300   -1.4203570
    6519070000   -32.5115400   -2.7434620   -25.0334500   65.2774300    -0.2953958  -20.2109900   -31.5702800 -124.0848000 
 		     -25.1018700   65.4547500   -32.3312300   -0.0857605   -31.6814800 -123.9785000    -0.3158817  -20.1680800
 		      -0.3047629  -20.2116600   -31.6517500 -122.9132000   -32.9815200   -1.5871720   -24.9836000   65.6144200
 		     -31.6104500 -124.4148000    -0.3095588  -20.2204400   -24.9532300   65.6525300   -32.6219400   -2.2921170
    6589060000   -32.8661600   -6.1540490   -25.0370000   65.6053000    -0.3095830  -20.3513100   -31.4035900 -123.4053000 
 		     -25.0138600   65.3709600   -32.2942900   -4.7974280   -31.5365300 -124.1818000    -0.3177852  -20.4922600
 		      -0.3151630  -20.3919600   -31.6007600 -123.3838000   -32.6393500   -3.4195870   -24.8772200   65.2252700
 		     -31.6000400 -123.5346000    -0.3084973  -20.4217900   -24.9128200   65.1535800   -32.5112400   -0.7326093
    6659050000   -32.7919600   -4.7584760   -24.8590500   65.1430800    -0.3158107  -20.7143500   -31.3677800 -123.8080000 
 		     -24.9194400   64.9690100   -32.5340200   -3.2074760   -31.5385600 -124.5881000    -0.3128494  -20.7157400
 		      -0.3149205  -20.5672500   -31.4339100 -125.1280000   -32.8874700   -1.3609980   -24.8362500   64.8621000
 		     -31.3657600 -124.1894000    -0.3212702  -20.7149500   -24.8166000   64.9389100   -32.5903400   -1.9809850
    6729040000   -32.0919000   -5.7527080   -24.8710700   65.0632600    -0.3120444  -20.8017400   -31.3270200 -124.8574000 
 		     -24.8644900   64.9284400   -32.5098200   -4.2711340   -31.4053000 -123.3801000    -0.3169383  -20.9455700
 		      -0.3105352  -20.7749300   -31.3815500 -124.1737000   -32.9539800   -2.6678190   -24.7362800   64.8781700
 		     -31.3711200 -123.8953000    -0.3228049  -20.8594000   -24.7566400   65.1176600   -32.4141500   -0.8159879
    6799030000   -31.9565000   -6.9391040   -24.7531100   64.9822800    -0.3213918  -21.1397800   -31.2527300 -124.5970000 
 		     -24.8143200   65.0553700   -32.4695400   -6.1060160   -31.3008600 -124.2722000    -0.3109843  -21.0929400
 		      -0.3233417  -21.0350000   -31.1856400 -125.4263000   -32.8747500   -2.5945080   -24.6898300   64.4802700
 		     -31.2592400 -124.8819000    -0.3132879  -21.0834800   -24.6939700   64.4271100   -32.6144600   -2.2375810
    6869020000   -32.6624200   -5.3552480   -24.6685600   64.7469200    -0.3161542  -21.2287200   -31.1799900 -124.6648000 
 		     -24.6705800   64.4076300   -32.4505300   -6.9008870   -31.1959000 -124.5685000    -0.3157058  -21.3662800
 		      -0.3151251  -21.1823000   -31.1630100 -124.4421000   -32.9603500   -2.6981950   -24.6118900   64.4734000
 		     -31.2667000 -124.2616000    -0.3235425  -21.2709500   -24.6319000   64.5190700   -32.5054800   -0.0075167
    6939010000   -32.0911800   -7.4889890   -24.5567800   64.5437600    -0.3152801  -21.4441200   -31.2144500 -124.0388000 
 		     -24.5722600   64.7306700   -32.6273800   -2.2343820   -31.0905100 -125.0138000    -0.3225707  -21.4696800
 		      -0.3103222  -21.4197900   -31.0397200 -125.6605000   -32.7803800   -1.1728990   -24.5347000   64.1292300
 		     -31.1328000 -124.5140000    -0.3157759  -21.4538600   -24.5527800   64.3453200   -32.9929800   -3.8477180
    7009000000   -32.3242900   -5.6339110   -24.5626400   64.5625500    -0.3240615  -21.7218300   -30.9323900 -123.9669000 
 		     -24.5775000   64.2720900   -32.6702900   -3.7702040   -31.1046100 -124.5871000    -0.3253922  -21.7101800
 		      -0.3168726  -21.6778200   -31.0802400 -124.6539000   -32.9337800   -3.0165800   -24.4554800   64.1365400
 		     -30.9867600 -124.1617000    -0.3208945  -21.7068800   -24.4917600   64.3179600   -32.5064900   -2.6353810
    7078990000   -32.3706000   -5.3502650   -24.4937700   64.3618700    -0.3210576  -21.8356600   -30.9191500 -124.7114000 
 		     -24.5012300   64.3161500   -31.8581900   -4.8611420   -31.0102400 -125.5579000    -0.3282529  -21.8722600
 		      -0.3230347  -21.7566700   -31.1575500 -126.3876000   -32.5991400   -5.3727210   -24.3937400   63.5809300
 		     -30.9079600 -125.0696000    -0.3248693  -21.8701400   -24.4024700   63.8808800   -32.4051300   -1.4432310
    7148980000   -32.5799600   -8.3080070   -24.3868200   63.9605600    -0.3298227  -22.1646000   -30.8669700 -125.3284000 
 		     -24.4043500   64.0897700   -32.7035100   -4.6296600   -30.8785800 -124.9239000    -0.3223215  -22.1286800
 		      -0.3211046  -22.1499800   -30.9009400 -125.2929000   -32.3963900   -5.5690160   -24.3899800   63.6246600
 		     -30.9022100 -124.4528000    -0.3297487  -22.1090300   -24.3188800   63.7940700   -32.5086600   -3.5809490
    7218970000   -32.7340700   -5.5254240   -24.3368400   64.1635400    -0.3337825  -22.2086500   -30.8415300 -125.2421000 
 		     -24.3396600   64.0778300   -32.4534800   -7.4085030   -30.7600300 -124.9768000    -0.3246874  -22.2524400
 		      -0.3278477  -22.2274700   -30.9541800 -125.0751000   -32.6819600   -5.0959980   -24.3096600   63.8982500
 		     -30.8195900 -125.0315000    -0.3283681  -22.3326900   -24.2750900   63.4626500   -32.0355400   -3.5692450
    7288960000   -32.3887800   -5.4297390   -24.4134700   64.0671500    -0.3257599  -22.5044600   -30.7867800 -124.9394000 
 		     -24.3436800   63.8222700   -32.2825500   -5.6970380   -30.7743400 -125.6349000    -0.3297079  -22.5613700
 		      -0.3301137  -22.4623100   -31.0252700 -127.2226000   -32.5399100   -4.5553680   -24.2145200   63.1548800
 		     -30.7559900 -125.1296000    -0.3297668  -22.5401900   -24.2074700   63.2085300   -32.5780800   -6.5403350
    7358950000   -32.3664800   -8.8278550   -24.1770100   63.2092600    -0.3292890  -22.6462900   -30.5746400 -124.7405000 
 		     -24.2479700   63.4823000   -32.5867200   -4.6963420   -30.6464200 -125.7857000    -0.3276233  -22.8068600
 		      -0.3374427  -22.6722400   -30.7337600 -126.0211000   -32.6496200   -4.0911220   -24.2103300   63.1800600
 		     -30.7556200 -124.9278000    -0.3353426  -22.7138700   -24.1288800   63.1850300   -32.6062200   -2.1804110
    7428940000   -32.6716700   -7.8282390   -24.1377500   63.1656200    -0.3366490  -22.8817200   -30.5699400 -125.4373000 
 		     -24.1711200   62.7622000   -32.5593000   -4.1578510   -30.6013200 -125.2065000    -0.3293287  -22.9115800
 		      -0.3366717  -22.8781000   -30.6297300 -126.2196000   -32.8750200   -2.9638180   -24.0759400   62.7858400
 		     -30.7429100 -126.0899000    -0.3293772  -22.9423600   -24.1127000   63.1241300   -32.2460800   -5.0313140
    7498930000   -32.9262900   -8.4384370   -24.0572500   62.5927400    -0.3400075  -23.0655300   -30.4883200 -126.5810000 
 		     -24.1376900   63.0335700   -32.0275400   -4.6293030   -30.5035600 -126.0445000    -0.3407976  -23.1504600
 		      -0.3327467  -23.0262800   -30.6236300 -126.1424000   -32.4330900   -5.5942830   -24.0729900   62.6234600
 		     -30.5554500 -126.1517000    -0.3405591  -23.1200200   -24.0013800   62.9316200   -32.7025900   -1.4378170
    7568920000   -32.7040300   -8.0509770   -24.0244600   63.3790900    -0.3433592  -23.3362700   -30.4973300 -125.3873000 
 		     -24.0806800   62.7803000   -32.2832300   -7.1162110   -30.3600100 -126.3427000    -0.3292641  -23.4134900
 		      -0.3389604  -23.3038300   -30.5290200 -125.5028000   -32.8858000   -8.2045260   -24.0000500   62.5392400
 		     -30.5261500 -126.0735000    -0.3394390  -23.4090500   -23.9789000   62.6231400   -32.9910400   -7.1602540
    7638910000   -32.5286100  -11.0607200   -23.9819100   63.2117600    -0.3450993  -23.5468200   -30.4626100 -125.1773000 
 		     -24.0034100   62.7518700   -32.7168700   -6.9034050   -30.3892400 -125.6037000    -0.3385507  -23.5936100
 		      -0.3425297  -23.4661100   -30.4872400 -125.6219000   -32.9810600   -8.3369800   -23.9401900   62.6116700
 		     -30.4140500 -125.6051000    -0.3353141  -23.5376200   -23.9501700   62.5615800   -32.3848200   -6.1107190
    7708900000   -32.3410300  -10.6186700   -24.0183200   62.4291100    -0.3424398  -23.7268200   -30.3415100 -125.4207000 
 		     -23.9111500   62.9133500   -32.7362900   -7.8247720   -30.2888100 -126.2011000    -0.3413075  -23.7151800
 		      -0.3329901  -23.7058700   -30.5436400 -127.3062000   -32.9984700   -6.8981470   -23.8569200   62.3411100
 		     -30.4173300 -127.3124000    -0.3407962  -23.7181600   -23.8910800   62.2229000   -32.4660500   -4.6980710
    7778890000   -32.7401100  -10.7033000   -23.9664800   62.0174400    -0.3502949  -23.9361600   -30.1429300 -125.6511000 
 		     -23.8404200   62.4506300   -32.4528500   -9.3456230   -30.3022700 -126.6647000    -0.3442636  -24.0219600
 		      -0.3482094  -23.9391600   -30.3289800 -127.2171000   -32.7967700   -5.7065420   -23.8044100   62.1489700
 		     -30.2435300 -127.0960000    -0.3425787  -24.0800800   -23.8070800   61.8695500   -32.6724100   -6.8290760
    7848880000   -32.5185200   -9.2393160   -23.8356800   62.4705000    -0.3401554  -24.0691300   -30.1706500 -126.7139000 
 		     -23.7876800   61.7857000   -32.5294500   -5.7649370   -30.0977500 -126.4362000    -0.3473232  -24.1677800
 		      -0.3415598  -24.0722400   -30.2770100 -127.4635000   -33.0950900   -6.5036940   -23.7493400   61.7592600
 		     -30.1017000 -126.7820000    -0.3499546  -24.2173700   -23.7168100   61.8329700   -32.4785100   -7.1213410
    7918870000   -32.5047100  -10.3840600   -23.7489200   61.4840700    -0.3428796  -24.3004100   -30.1037000 -126.4479000 
 		     -23.7537000   62.1219000   -32.3398600   -9.0508170   -30.0855400 -126.9504000    -0.3445691  -24.4012900
 		      -0.3477043  -24.3167100   -30.0182000 -126.4660000   -33.0006600   -5.3356740   -23.7176600   61.7741900
 		     -30.0671000 -126.2630000    -0.3407355  -24.3607600   -23.7135500   61.6675000   -32.2460400   -6.0364750
    7988860000   -32.8087700  -10.4709800   -23.6773200   61.8944500    -0.3414117  -24.5329400   -30.1257700 -126.8237000 
 		     -23.7327600   61.8665400   -32.5036900   -7.4927130   -30.0477300 -127.5478000    -0.3461056  -24.5862500
 		      -0.3435715  -24.5397400   -30.1672800 -126.9655000   -32.5327200   -8.9606400   -23.6561700   61.2190200
 		     -29.9810500 -126.4147000    -0.3428434  -24.6227800   -23.6216600   61.5587800   -32.4420300   -6.0796930
    8058850000   -32.5467600  -13.1505300   -23.6188500   61.5933200    -0.3446820  -24.7268400   -29.9683300 -125.9224000 
 		     -23.5958700   61.8397200   -32.6129500   -7.3415770   -29.8946100 -126.4211000    -0.3545768  -24.8025600
 		      -0.3534700  -24.6758400   -29.9498200 -127.3011000   -33.0204000   -8.5182130   -23.5894600   61.2828100
 		     -30.1860400 -126.7487000    -0.3428863  -24.8595400   -23.5580800   61.5426500   -32.4838200   -7.9044570
    8128840000   -32.1899700  -12.3032600   -23.5608100   61.6887800    -0.3433858  -24.9626300   -29.8839400 -126.3466000 
 		     -23.5359300   61.5446300   -32.4147400   -4.9682280   -29.8733900 -127.4565000    -0.3535871  -24.9763900
 		      -0.3472933  -24.9148400   -29.9442600 -126.2892000   -32.6725800   -6.5761100   -23.5176200   61.0915800
 		     -30.0022500 -127.2884000    -0.3499386  -24.9263800   -23.5122400   61.2363200   -32.5369600   -8.0614180
    8198830000   -32.5220200   -8.1427850   -23.5775700   61.0672600    -0.3517265  -25.1580100   -29.8069900 -127.6504000 
 		     -23.6326700   61.6529200   -33.2240700   -9.1226480   -29.8801300 -127.2741000    -0.3517518  -25.2263700
 		      -0.3537118  -25.1015500   -29.7941900 -126.7224000   -32.7510000   -9.6000990   -23.4616000   61.0707700
 		     -29.9171300 -126.1475000    -0.3470156  -25.2509600   -23.4888600   61.2224000   -32.3492700   -6.8490310
    8268820000   -32.4137200  -11.0840200   -23.5603700   61.6486400    -0.3447473  -25.3009900   -29.7916600 -127.9025000 
 		     -23.5068900   61.2511100   -32.7019900  -14.3927500   -29.7241900 -127.2216000    -0.3534523  -25.4050400
 		      -0.3534554  -25.2814400   -29.8784100 -127.5570000   -33.0574400   -9.6100820   -23.4651600   60.7794600
 		     -29.9320600 -127.6320000    -0.3502523  -25.4357800   -23.4453200   60.8673200   -32.3050200   -7.4529060
    8338810000   -32.2617800  -12.3026600   -23.4735500   60.8572200    -0.3404765  -25.6053100   -29.7456600 -127.1639000 
 		     -23.4360100   61.2433900   -31.9080200  -13.3041500   -29.7312300 -127.7769000    -0.3598845  -25.6156400
 		      -0.3578168  -25.5412200   -29.8013300 -127.6097000   -32.9641100   -7.8879860   -23.3849900   60.5465700
 		     -29.7619600 -127.1895000    -0.3542724  -25.6151600   -23.3484600   60.5541200   -32.5819500   -6.2370220
    8408800000   -32.7058000  -11.7395400   -23.4367000   61.0433000    -0.3569105  -25.7846400   -29.6431200 -127.3536000 
 		     -23.3876300   60.6819500   -32.4425800  -11.6370400   -29.6763500 -127.2281000    -0.3485782  -25.8643600
 		      -0.3582596  -25.7493200   -29.8070200 -128.6734000   -32.8648200  -10.0927900   -23.3049100   60.4837500
 		     -29.8245300 -127.3945000    -0.3482274  -25.7824900   -23.3323100   60.2940400   -32.6487300   -5.9948330
    8478790000   -32.6440300  -12.6558100   -23.3661400   61.1676400    -0.3639433  -25.9675500   -29.5395400 -127.7412000 
 		     -23.3178600   60.5153800   -32.2342400   -9.8906060   -29.6537300 -127.7127000    -0.3568422  -26.0439200
 		      -0.3519901  -25.9909800   -29.5770600 -128.7640000   -32.5864800   -9.3344010   -23.2790900   60.2327100
 		     -29.7268100 -127.4654000    -0.3481076  -26.0086600   -23.2966500   60.3467000   -33.0119900   -8.0109410
    8548780000   -32.1718400  -15.6622600   -23.2540400   60.7822500    -0.3492375  -26.2153300   -29.4843800 -127.2799000 
 		     -23.2851400   60.3902100   -32.4904900  -12.3874100   -29.4390000 -128.0495000    -0.3590840  -26.3099100
 		      -0.3609161  -26.1459000   -29.6757800 -127.5572000   -33.2025000   -6.5292970   -23.2285800   60.2033700
 		     -29.5503000 -128.1270000    -0.3593038  -26.2182200   -23.2270000   59.9135700   -32.3507700   -7.9175180
    8618770000   -32.5219100  -14.1635200   -23.2041200   60.2121200    -0.3639974  -26.4001300   -29.5185900 -128.0565000 
 		     -23.2704000   59.8499100   -32.6721800  -13.9456000   -29.5004200 -128.2059000    -0.3569784  -26.4400000
 		      -0.3684095  -26.4177000   -29.4664100 -128.0385000   -33.0128500   -7.7466500   -23.2295000   59.7214200
 		     -29.5475300 -128.1175000    -0.3649545  -26.5099800   -23.1908700   59.9983700   -32.4828300   -7.7816770
    8688760000   -32.9463300  -14.6408600   -23.1946100   60.7459200    -0.3517908  -26.6144000   -29.4667900 -128.0148000 
 		     -23.2165500   60.1705400   -32.1736600  -13.9480900   -29.5202900 -128.3234000    -0.3560919  -26.6853200
 		      -0.3537407  -26.6041300   -29.5226700 -128.6947000   -32.5478400  -12.2300400   -23.1281500   59.4833800
 		     -29.4494000 -127.9350000    -0.3555763  -26.6669800   -23.1656400   60.0421000   -32.3109800  -10.5302700
    8758750000   -32.5496600  -14.6255800   -23.1207400   59.7747200    -0.3629200  -26.7982500   -29.3507500 -127.4738000 
 		     -23.1156100   59.9141400   -31.8780500  -11.2845000   -29.3301000 -128.9300000    -0.3593876  -26.8621400
 		      -0.3630835  -26.8318500   -29.4926700 -129.2603000   -32.3735200   -8.4249260   -23.0921400   59.7229100
 		     -29.5079200 -127.4219000    -0.3558263  -26.8593500   -23.0641400   59.4518600   -32.7123800   -9.0724780
    8828740000   -33.0215500  -13.0355200   -23.1172800   60.1413600    -0.3657638  -27.0420900   -29.2335600 -127.9030000 
 		     -23.0139100   59.9073000   -32.3071000  -11.7493200   -29.3427300 -129.1115000    -0.3685129  -27.0372000
 		      -0.3643599  -27.0343000   -29.4000500 -128.1697000   -32.9846700  -13.1529400   -23.0123900   59.2180700
 		     -29.2382500 -127.6655000    -0.3712955  -27.0310400   -23.0461100   59.0295000   -32.7435000   -8.1851080
    8898730000   -32.7161400  -12.4307800   -22.9267100   59.7152700    -0.3717205  -27.2218700   -29.2612900 -128.0923000 
 		     -22.9721800   59.9083300   -32.1451500  -11.8241500   -29.2305500 -128.4224000    -0.3657630  -27.2931800
 		      -0.3673915  -27.2438300   -29.4107200 -127.8238000   -32.5401500  -12.8049300   -22.9743000   59.1834400
 		     -29.0973200 -128.2663000    -0.3710088  -27.2299100   -23.0262600   59.1758700   -32.9512400  -11.4439300
    8968720000   -32.6265500  -16.3006500   -23.0577100   59.1765800    -0.3648217  -27.4421900   -29.2053900 -128.7899000 
 		     -22.9879900   59.6322200   -32.4717900  -13.7933500   -29.1454600 -129.3931000    -0.3713779  -27.4716300
 		      -0.3742953  -27.4105400   -29.1370900 -129.8180000   -32.5653500  -11.3440200   -22.9573100   59.1607500
 		     -29.1884400 -127.3919000    -0.3675642  -27.4351600   -22.9380400   58.8289300   -32.6590800   -9.1512700
    9038710000   -32.6306600  -15.3842100   -22.9527800   58.8424500    -0.3813287  -27.6163300   -29.1084000 -128.7684000 
 		     -22.9368700   59.3376600   -32.7248400  -12.3464200   -29.0265300 -129.3425000    -0.3718857  -27.7155200
 		      -0.3719649  -27.6207700   -29.1777500 -127.8221000   -33.1578700  -13.0961400   -22.9020900   59.0207300
 		     -29.1843500 -128.7509000    -0.3689029  -27.6675300   -22.8848300   58.6660400   -32.7048000  -12.9402100
    9108700000   -32.8775100  -15.8395000   -22.9256700   59.5929600    -0.3703203  -27.8758000   -29.0637900 -128.4367000 
 		     -22.9035000   58.8493400   -32.7029000  -15.7291800   -29.1597800 -128.6906000    -0.3632672  -27.9461200
 		      -0.3691771  -27.8085200   -29.0188400 -129.0012000   -32.6828600  -11.9595500   -22.8688600   58.7104300
 		     -29.2290700 -128.7995000    -0.3672388  -27.9245800   -22.8903800   58.3971100   -32.1897500   -8.5305600
    9178690000   -32.7039300  -16.3986700   -22.8372200   58.6855700    -0.3725770  -28.0260600   -29.1104500 -128.4178000 
 		     -22.8753800   58.9114400   -32.1595700  -16.4174100   -28.9986800 -129.6088000    -0.3847180  -28.1021200
 		      -0.3681260  -27.9685500   -29.1996200 -128.9220000   -33.0751900  -13.5920400   -22.8372500   58.4643600
 		     -28.9962300 -128.4745000    -0.3842992  -28.0919700   -22.8349700   58.4963400   -32.7909900   -9.0594830
    9248680000   -32.2864800  -19.2613900   -22.7935000   59.1023800    -0.3736658  -28.2355500   -28.9348100 -128.3055000 
 		     -22.8487900   59.0548900   -32.2649700  -12.6194800   -28.8710800 -129.4515000    -0.3673171  -28.3428300
 		      -0.3764563  -28.2560600   -28.9016300 -128.1212000   -33.1177500  -11.1815400   -22.7381900   58.1858900
 		     -29.1954400 -128.4768000    -0.3754164  -28.3422600   -22.7870900   58.1760200   -32.4806700  -10.4909300
    9318670000   -32.1955100  -17.3303700   -22.8098500   58.6703800    -0.3729865  -28.4011400   -28.9047700 -129.3166000 
 		     -22.7924500   58.9716300   -32.6309400  -13.1028600   -28.8522100 -129.5954000    -0.3776672  -28.5637700
 		      -0.3692498  -28.4323200   -29.0497900 -129.1627000   -32.9098800  -11.6698400   -22.7633300   58.2452700
 		     -28.9484900 -129.5413000    -0.3853327  -28.5715100   -22.7446400   58.1322500   -32.4744500  -12.2556000
    9388660000   -33.2750500  -15.4388500   -22.7266500   58.3392300    -0.3707187  -28.6708600   -28.7960400 -129.9709000 
 		     -22.7497300   58.2097500   -32.4271700  -17.0813300   -28.8607700 -130.6652000    -0.3776667  -28.7334100
 		      -0.3759891  -28.6563700   -28.9534700 -130.4430000   -32.7984900  -13.7633400   -22.7117300   57.5567200
 		     -28.8379000 -129.3457000    -0.3761565  -28.7505000   -22.7221000   57.7550700   -32.5660600  -10.2333200
    9458650000   -32.3443400  -16.5095200   -22.7103200   57.9165900    -0.3798491  -28.8959200   -28.7612200 -129.2838000 
 		     -22.7045300   58.0757600   -32.5210100  -13.7921200   -28.7818600 -130.1942000    -0.3738670  -28.9117600
 		      -0.3810523  -28.8665600   -28.9072200 -130.0833000   -33.0064100  -12.5767500   -22.6663500   57.8167300
 		     -28.7523200 -129.4768000    -0.3749940  -28.8409000   -22.6699200   57.6829500   -32.7588200  -10.3661900
    9528640000   -32.2840600  -16.8195400   -22.6235000   58.1207600    -0.3812473  -29.0515800   -28.7301800 -128.9331000 
 		     -22.6803800   58.3278100   -32.1683800  -15.0910400   -28.7480400 -130.3419000    -0.3813298  -29.1253100
 		      -0.3804730  -29.1041200   -29.0211300 -130.8981000   -32.9184600  -13.2233300   -22.6444800   57.7153700
 		     -28.7357200 -129.4861000    -0.3743511  -29.0892900   -22.6328100   57.7386900   -32.6995300  -12.5974800
    9598630000   -32.5740500  -14.2862700   -22.6478400   57.7112700    -0.3831285  -29.2329800   -28.6028200 -129.2845000 
 		     -22.5767300   57.3756800   -32.2979700  -18.4654700   -28.6466200 -129.9836000    -0.3808548  -29.3240400
 		      -0.3725025  -29.2314800   -28.8002100 -129.7887000   -32.9125600  -14.6724600   -22.5766500   57.2142600
 		     -28.6639200 -129.8236000    -0.3883141  -29.2471700   -22.5696300   57.5225900   -32.7708400  -10.3353100
    9668620000   -32.3506200  -21.0480300   -22.5856500   57.7692500    -0.3779795  -29.4229400   -28.5037500 -130.0197000 
 		     -22.5675200   57.4742400   -32.4427100  -14.1871600   -28.6024400 -131.2269000    -0.3877355  -29.5814900
 		      -0.3760616  -29.4204700   -28.5842300 -131.2257000   -32.8216400  -12.1652400   -22.4759000   57.2398100
 		     -28.5266400 -130.6404000    -0.3847288  -29.5007600   -22.5445300   57.1667700   -32.7628100  -12.8808300
    9738610000   -32.0067500  -18.8314600   -22.5088200   57.5374600    -0.3731868  -29.6722700   -28.5423100 -129.7123000 
 		     -22.5515300   57.5428500   -32.7517100  -16.8886500   -28.5727700 -130.9499000    -0.3900057  -29.7260300
 		      -0.3782346  -29.6836200   -28.3567400 -129.6474000   -33.2983900  -12.6314900   -22.4949800   57.2333700
 		     -28.5856900 -131.0095000    -0.3939469  -29.7145200   -22.4947500   56.7586200   -33.0056600  -10.6213200
    9808600000   -31.8305900  -16.2078000   -22.4447600   57.6202600    -0.3859525  -29.9322500   -28.5075700 -130.2834000 
 		     -22.5152100   56.9868700   -32.8115300  -16.7949800   -28.5215100 -130.6375000    -0.3940044  -29.9078100
 		      -0.3847262  -29.9053900   -28.4487900 -130.3653000   -33.5163500  -15.2691800   -22.4524400   56.9342300
 		     -28.5846400 -130.6389000    -0.3889499  -29.9173600   -22.4490400   56.7510100   -32.1998600  -12.5636300
    9878590000   -32.0942300  -16.5134600   -22.4685100   57.8481800    -0.3831969  -30.0745400   -28.4304800 -129.8593000 
 		     -22.4488900   57.2998500   -31.8611200  -15.6957700   -28.4858700 -131.1689000    -0.3962249  -30.1446400
 		      -0.3819994  -30.0773900   -28.5096400 -130.6577000   -33.2982800  -14.4795600   -22.4033500   56.8883600
 		     -28.3054800 -130.3784000    -0.3950360  -30.0937500   -22.4031500   56.7277000   -32.9876400  -10.9555100
    9948580000   -32.4783400  -20.8427500   -22.4458500   56.9544900    -0.3796915  -30.2938100   -28.3198200 -129.7220000 
 		     -22.4345700   57.2947300   -31.8572300  -13.4506100   -28.4020300 -131.4890000    -0.3863876  -30.3709100
 		      -0.3822515  -30.2447600   -28.4703900 -130.9537000   -33.1597700  -17.9062700   -22.3691300   56.6783400
 		     -28.4772100 -129.4896000    -0.3978096  -30.4350800   -22.3867900   56.4954500   -33.1467000  -14.7973200
   10018570000   -32.3932300  -17.7508300   -22.3446600   56.5045000    -0.3925342  -30.5256100   -28.4011400 -130.6708000 
 		     -22.4036400   57.2695300   -33.2548400  -20.4663000   -28.3629800 -131.2315000    -0.4030761  -30.5656400
 		      -0.3876588  -30.4637800   -28.7060300 -130.3040000   -33.1038900  -16.3512800   -22.3181800   56.4705800
 		     -28.4442000 -129.8442000    -0.4015908  -30.5115800   -22.3563200   56.3358500   -32.6570100  -16.4496500
   10088560000   -31.8397800  -18.5620800   -22.3502900   56.6780800    -0.3893182  -30.7061200   -28.2504700 -130.8188000 
 		     -22.3747100   56.7653800   -33.0920200  -14.1317100   -28.2409800 -131.4751000    -0.4043644  -30.7334700
 		      -0.3902651  -30.6403400   -28.1935600 -132.4881000   -33.3983200  -14.8663100   -22.2904600   55.8954500
 		     -28.2129500 -131.6167000    -0.3984349  -30.6716000   -22.3063700   55.9922300   -33.0875300  -13.7368900
   10158550000   -32.6028400  -20.6901900   -22.3023100   56.8961100    -0.3923880  -30.9278400   -28.3278500 -130.6793000 
 		     -22.3407800   56.7229300   -32.0005500  -14.7074500   -28.2596100 -131.7510000    -0.4052618  -31.0191600
 		      -0.3943403  -30.8949900   -28.1491400 -131.5650000   -32.5701000  -15.5013900   -22.2409600   55.8623200
 		     -28.1559500 -129.5898000    -0.4034528  -31.0088700   -22.2604100   55.5560400   -33.7962300  -11.6705000
   10228540000   -32.6873100  -19.1566800   -22.2542700   56.3863300    -0.4028236  -31.1482000   -28.1751500 -130.6827000 
 		     -22.3072600   56.3502500   -33.4918300  -19.1450000   -28.1826900 -131.4351000    -0.4049554  -31.2117900
 		      -0.3977841  -31.1423100   -28.1145800 -130.8432000   -33.4820900  -17.7921600   -22.2452700   55.6074400
 		     -28.0439000 -130.8561000    -0.4093558  -31.2163700   -22.2568400   55.4535800   -32.5275800  -17.1094300
   10298530000   -32.7312000  -18.1458500   -22.2800800   56.1839200    -0.3911055  -31.3179800   -28.0899000 -130.7552000 
 		     -22.2554600   56.4268900   -32.4397800  -18.3603200   -28.1841400 -131.3684000    -0.4100508  -31.3707300
 		      -0.3887596  -31.2730500   -27.9680000 -131.4361000   -32.9046700  -20.5598000   -22.1852500   55.6186500
 		     -28.0967200 -131.0495000    -0.4073748  -31.2361400   -22.1868000   55.8219900   -33.5831000  -15.3569100
   10368520000   -32.4909100  -22.2004300   -22.1478600   55.4548600    -0.3982893  -31.4738200   -27.9415700 -131.0858000 
 		     -22.2735700   55.9312600   -32.5925400  -20.1530200   -28.0802500 -131.7801000    -0.4045584  -31.5430800
 		      -0.3985265  -31.4469400   -28.0899200 -132.1682000   -33.0019300  -18.6869000   -22.1494600   55.2068700
 		     -28.1388200 -131.5896000    -0.4141514  -31.4604400   -22.2153200   55.6042900   -33.0503200  -14.8475700
   10438510000   -32.6736900  -20.1912700   -22.1657100   55.8802100    -0.4022738  -31.6979700   -27.9193900 -131.3095000 
 		     -22.1925400   56.3506500   -33.2706300  -19.7241900   -27.9873600 -132.1667000    -0.4080894  -31.7763600
 		      -0.3842304  -31.7280200   -27.9005900 -131.7841000   -33.7644600  -19.3892600   -22.0865700   55.0587200
 		     -27.9419400 -130.9814000    -0.4034957  -31.8448700   -22.1132200   55.2267100   -33.0033600  -17.1387500
   10508500000   -32.7837600  -18.5242900   -22.1175500   55.6117400    -0.3966795  -31.8722000   -27.9499600 -131.9198000 
 		     -22.1490300   55.7810100   -33.0411900  -22.2308100   -27.9742100 -132.5627000    -0.4097271  -32.0772000
 		      -0.3974930  -31.9513500   -27.9811500 -131.9506000   -33.4877400  -22.8750800   -22.0962600   54.9140000
 		     -27.9820600 -132.8127000    -0.4153313  -32.0123300   -22.0776000   54.8963400   -32.9259600  -17.0912600
   10578490000   -32.7802600  -24.4573400   -22.1418100   55.6603500    -0.4041669  -32.1465200   -27.7977300 -131.9700000 
 		     -22.1219700   55.3337800   -32.0542200  -22.8141700   -27.9603800 -132.8903000    -0.4071312  -32.1799200
 		      -0.3992192  -32.1241700   -27.8091700 -133.9022000   -32.8686400  -16.9886200   -22.0525500   54.5749700
 		     -27.7148500 -131.6888000    -0.4111064  -32.2136500   -22.0800800   55.0545600   -32.9009000  -13.6481700
   10648480000   -32.8496000  -20.7810300   -22.0893300   56.0885700    -0.4057076  -32.2841800   -27.8102000 -131.3732000 
 		     -22.1529600   55.5493500   -32.4031300  -15.1880900   -27.8371900 -131.9304000    -0.4169181  -32.3550900
 		      -0.4050588  -32.2489000   -27.8232500 -133.2725000   -33.6563600  -20.1617100   -21.9965000   54.9962600
 		     -27.6697800 -131.9460000    -0.4197058  -32.4467300   -22.0253700   54.5825500   -33.3284100  -16.7730000
   10718470000   -32.2326800  -24.7237700   -22.0378600   55.0437300    -0.4117484  -32.5711100   -27.8044100 -131.7282000 
 		     -21.9608200   55.1090200   -32.7427600  -17.2023700   -27.9189000 -132.1413000    -0.4079796  -32.6152900
 		      -0.4041862  -32.5205200   -27.8120300 -133.6015000   -33.2018700  -15.9826100   -22.0367200   54.5806300
 		     -27.7172800 -133.0991000    -0.4028034  -32.6555100   -22.0409800   54.6336300   -32.8584000  -17.6229400
   10788460000   -32.7380900  -23.5134800   -21.9287200   55.0804600    -0.4106722  -32.7371900   -27.6804300 -133.0280000 
 		     -21.9356800   54.5675600   -32.9898700  -20.0266800   -27.8001000 -133.3410000    -0.4041550  -32.8314100
 		      -0.4086399  -32.7024400   -27.9159200 -133.7665000   -33.4930100  -21.6904900   -22.0574400   54.1608400
 		     -27.6316500 -131.9611000    -0.4185124  -32.8637400   -21.9893700   54.2679300   -32.8137600  -17.6670800
   10858450000   -32.7258100  -23.7072500   -21.8500200   55.2868500    -0.4053933  -32.9342200   -27.6635400 -132.5549000 
 		     -21.9820300   54.6690700   -32.9220400  -20.3870400   -27.7199400 -132.6637000    -0.4107100  -32.9972400
 		      -0.4022323  -32.9517300   -27.6596200 -132.8735000   -32.9294100  -17.5945300   -21.9509500   53.9589200
 		     -27.6352200 -132.5061000    -0.4213997  -33.0493600   -21.9931900   53.9771800   -33.4083200  -20.9744800
   10928440000   -32.5805100  -23.8276100   -21.9002600   54.5714800    -0.4082978  -33.1372600   -27.6511400 -132.8375000 
 		     -21.9694300   54.4243400   -32.9850300  -23.5016300   -27.5766400 -133.5043000    -0.4120760  -33.2711200
 		      -0.4022380  -33.0944900   -27.6473800 -132.3324000   -33.4275600  -20.6195100   -21.9335600   53.7490400
 		     -27.7719800 -131.7325000    -0.4242850  -33.1623700   -21.9806900   53.8400500   -32.7527700  -17.5741800
   10998430000   -32.5650000  -22.9994100   -22.0010100   54.3502000    -0.4031724  -33.3260300   -27.6337700 -132.5678000 
 		     -21.8979100   54.3003900   -32.7968200  -28.8298400   -27.6144900 -133.2590000    -0.4232947  -33.4409500
 		      -0.4105735  -33.3095700   -27.6418600 -132.5658000   -33.2789800  -25.6228900   -21.8825300   54.1575300
 		     -27.5539400 -132.3186000    -0.4137895  -33.4346200   -21.8917300   53.9111400   -32.9925000  -21.2305000
   11068420000   -32.3062000  -26.2102600   -21.8839300   54.9884200    -0.4080058  -33.5642700   -27.4666300 -132.6358000 
 		     -21.9356800   53.8423700   -32.2881800  -23.2173200   -27.5491200 -133.6217000    -0.4215677  -33.6222100
 		      -0.4121785  -33.5580400   -27.6518700 -134.2325000   -33.3711700  -17.8672300   -21.8573700   53.1898100
 		     -27.5148100 -132.2062000    -0.4292563  -33.5896700   -21.8894700   53.4511400   -32.9244800  -17.1495900
   11138410000   -32.1482100  -19.9560900   -21.9811300   54.5646500    -0.4166842  -33.7867100   -27.3824700 -133.3415000 
 		     -21.9639800   54.4800900   -32.3862300  -22.0268700   -27.5794000 -132.8909000    -0.4091743  -33.7552200
 		      -0.4114561  -33.7160900   -27.7160700 -134.7087000   -33.4517700  -20.1390400   -21.8123000   53.2743600
 		     -27.4377900 -132.8014000    -0.4130857  -33.7450400   -21.8624500   53.4961500   -33.0169100  -20.1024000
   11208400000   -32.2236200  -23.0970600   -21.8168000   53.6890300    -0.4126820  -33.9810900   -27.3908000 -134.0919000 
 		     -21.8844800   53.5458000   -32.5981900  -23.6231000   -27.3778100 -134.4883000    -0.4233612  -34.0463400
 		      -0.4141389  -34.0264400   -27.4286500 -134.6214000   -33.4306900  -23.6502300   -21.8154300   52.9551200
 		     -27.5002200 -133.6602000    -0.4225445  -33.9807200   -21.8209000   53.0245700   -32.7948500  -20.7603500
   11278390000   -32.6413300  -26.6634500   -21.7772700   53.4756800    -0.4215589  -34.1139600   -27.3654800 -133.8347000 
 		     -21.8768900   53.3916800   -32.7333500  -26.8775600   -27.5059100 -134.0948000    -0.4265407  -34.1952900
 		      -0.4207757  -34.1114700   -27.2545300 -133.0562000   -32.8945000  -21.9174000   -21.8363400   52.9081800
 		     -27.3891000 -133.0881000    -0.4267107  -34.2233400   -21.7905500   52.7714200   -33.1413200  -22.9042900
   11348380000   -32.4218700  -25.0145900   -21.8535400   53.2317500    -0.4291297  -34.3293800   -27.2655800 -133.9068000 
 		     -21.8384200   53.8840000   -31.6182900  -21.1891300   -27.3472400 -133.6283000    -0.4347548  -34.4880600
 		      -0.4301107  -34.3684700   -27.3126000 -134.2981000   -33.4901100  -22.6593700   -21.8084500   52.6336700
 		     -27.3425400 -133.0255000    -0.4261912  -34.4896100   -21.7792300   52.7323300   -33.5112000  -18.1460900
   11418370000   -32.8163600  -23.1673100   -21.7394700   53.3824500    -0.4203029  -34.5233700   -27.2528700 -133.5184000 
 		     -21.7423100   53.1086200   -33.2108200  -30.0967200   -27.3807000 -134.2628000    -0.4267252  -34.6932400
 		      -0.4271228  -34.5070400   -27.1594000 -133.6483000   -33.2693000  -21.4392200   -21.7470100   52.7532000
 		     -27.2324100 -133.3660000    -0.4184728  -34.5595200   -21.8047000   52.5726000   -32.5488500  -17.7515300
   11488360000   -32.8652300  -29.6816800   -21.7021700   52.6947700    -0.4405106  -34.7449500   -27.1608900 -133.7503000 
 		     -21.8134700   53.1109400   -32.9078500  -28.6675300   -27.2868800 -134.2229000    -0.4376947  -34.8143600
 		      -0.4271251  -34.7137100   -27.1918500 -134.0827000   -33.0846400  -25.1496400   -21.7618800   52.1562100
 		     -27.2257100 -134.5403000    -0.4315217  -34.9046600   -21.7201400   52.3832100   -33.2194700  -20.8233700
   11558350000   -32.3844600  -26.8459000   -21.7664100   53.2279200    -0.4224458  -35.0650600   -27.1054400 -133.9961000 
 		     -21.8570600   52.5464900   -32.7073700  -21.8580000   -27.1862000 -134.1533000    -0.4408140  -35.0804900
 		      -0.4222381  -34.9585300   -27.4455200 -133.9776000   -33.4188400  -24.6303600   -21.6870300   52.0957000
 		     -27.3188400 -134.6078000    -0.4330381  -35.0718800   -21.6356300   52.3421700   -33.7558400  -22.4037800
   11628340000   -32.7044000  -23.0038300   -21.7307700   52.6176500    -0.4320744  -35.1150100   -27.1850800 -133.9775000 
 		     -21.7671400   52.4834600   -32.9027200  -28.2384100   -27.0891800 -134.9178000    -0.4241029  -35.2343800
 		      -0.4210954  -35.1711400   -27.2883000 -134.4395000   -33.5416000  -26.7621000   -21.7256800   51.9168900
 		     -27.2465800 -134.1269000    -0.4409458  -35.2727700   -21.6851300   52.2203700   -32.6764000  -23.3810300
   11698330000   -32.9989500  -28.2486400   -21.7390100   52.2146000    -0.4402184  -35.3570100   -27.0370500 -134.9114000 
 		     -21.6244400   52.2602900   -32.1051200  -23.3169900   -27.1604600 -135.5380000    -0.4433203  -35.4359700
 		      -0.4293997  -35.3769000   -27.2015800 -135.1660000   -32.9865000  -27.2473000   -21.6933000   51.8642300
 		     -26.9459300 -134.2607000    -0.4169264  -35.3863900   -21.6716200   51.7507300   -33.0074200  -22.2564300
   11768320000   -32.5041300  -32.1806400   -21.6153800   52.4633600    -0.4345405  -35.5285000   -26.9857400 -134.5012000 
 		     -21.6577500   52.2193200   -32.9252100  -27.4389600   -27.0604500 -134.6186000    -0.4261987  -35.6641700
 		      -0.4282239  -35.5039000   -27.0399600 -135.6296000   -33.0303000  -24.4621300   -21.6344100   51.5860600
 		     -26.9883700 -135.2749000    -0.4339148  -35.5808600   -21.6216600   51.9341800   -33.0250100  -21.3843200
   11838310000   -32.3192400  -28.8968400   -21.6755300   52.1832500    -0.4294303  -35.7783500   -26.9239000 -134.8788000 
 		     -21.6700800   52.0371000   -32.1617100  -28.6500800   -27.0238800 -135.4499000    -0.4392614  -35.8417400
 		      -0.4245185  -35.7422000   -27.1028300 -135.4226000   -33.8897700  -24.3743600   -21.5980300   51.4430400
 		     -26.8743400 -134.7821000    -0.4326223  -35.7972500   -21.6425200   51.2311700   -32.8636700  -19.4243700
   11908300000   -32.6428800  -27.8498800   -21.6124900   52.1032200    -0.4277726  -35.9332800   -26.9218500 -135.4457000 
 		     -21.6499100   51.8892100   -33.0846200  -30.3038300   -26.8833000 -135.6115000    -0.4377477  -36.1015200
 		      -0.4358521  -35.9764300   -26.7579100 -136.4748000   -33.6803800  -25.9360800   -21.6057400   51.2264100
 		     -26.9062400 -135.1869000    -0.4421961  -35.9678600   -21.6067700   51.3929400   -33.2606500  -21.9785500
   11978290000   -32.6570300  -32.2604300   -21.5976300   52.0020000    -0.4389335  -36.1336700   -26.8676000 -135.5241000 
 		     -21.6342100   51.8536300   -32.6565300  -22.0046200   -26.8717700 -135.5135000    -0.4349362  -36.2711500
 		      -0.4439307  -36.0658600   -26.8641700 -135.1958000   -33.1762400  -24.9835000   -21.5678700   50.9722500
 		     -26.8276900 -134.4501000    -0.4408748  -36.2992500   -21.5879600   50.8431200   -33.3938900  -24.2251400
   12048280000   -32.6787200  -30.2243800   -21.5548200   51.5700000    -0.4419596  -36.3848900   -26.8018600 -135.7331000 
 		     -21.5302500   51.7927700   -32.6317600  -29.8066600   -26.7931500 -135.0993000    -0.4485869  -36.4575200
 		      -0.4445151  -36.3598700   -26.8732700 -135.7751000   -33.6648700  -26.8941200   -21.5684400   50.4680400
 		     -26.8090300 -135.7365000    -0.4481154  -36.4906900   -21.4866700   51.0672300   -33.5381200  -24.2705900
   12118270000   -32.5010000  -33.4784000   -21.6228800   51.4831300    -0.4370137  -36.6131800   -26.7822000 -135.7856000 
 		     -21.5994100   51.3733700   -33.2060000  -31.4593500   -26.6928100 -136.2563000    -0.4423543  -36.7117800
 		      -0.4342687  -36.5532200   -26.6935000 -135.4771000   -33.8748900  -27.5655100   -21.5317400   50.9928600
 		     -26.8952500 -135.0065000    -0.4374786  -36.7237900   -21.5623200   50.6994900   -33.0853700  -24.5016300
   12188260000   -32.3754800  -29.9559100   -21.4942300   51.3727000    -0.4353428  -36.7892700   -26.7798200 -135.4694000 
 		     -21.5234400   51.4203300   -32.7840500  -23.4061200   -26.7273400 -136.1679000    -0.4473761  -36.9140600
 		      -0.4396887  -36.7065200   -26.9213200 -136.1340000   -33.5860500  -27.4138200   -21.5693500   50.7973300
 		     -26.7944800 -136.1469000    -0.4356587  -36.7935300   -21.5125400   50.4720000   -33.2336300  -26.7215000
   12258250000   -32.8519800  -32.4016800   -21.5277100   51.5964900    -0.4380082  -36.9614500   -26.6235400 -136.0765000 
 		     -21.5808000   51.1310500   -33.2036900  -31.0664900   -26.5765600 -136.1138000    -0.4472889  -37.0278500
 		      -0.4366822  -37.0069500   -26.7540800 -137.3890000   -33.6774900  -27.6978400   -21.4682700   49.9020100
 		     -26.8318900 -135.2692000    -0.4574603  -36.9813600   -21.4734000   50.3477600   -33.4908900  -26.6646800
   12328240000   -32.4789500  -29.6639200   -21.4388400   49.9598100    -0.4499635  -37.1050300   -26.7453400 -136.4481000 
 		     -21.5186200   50.3976500   -33.9327900  -26.1851800   -26.5643300 -136.9835000    -0.4421084  -37.2722000
 		      -0.4452656  -37.1176500   -26.7630200 -137.8558000   -34.1740800  -30.9901800   -21.4641600   50.1842500
 		     -26.7828200 -136.0454000    -0.4533295  -37.3083200   -21.4890800   50.3147000   -32.8840600  -24.3991000
   12398230000   -32.5591500  -33.2980800   -21.4771800   50.5799400    -0.4460082  -37.3901600   -26.6605500 -137.1151000 
 		     -21.5103100   50.8391800   -32.7527800  -27.3463200   -26.6161700 -137.0858000    -0.4419367  -37.4681900
 		      -0.4435396  -37.3770600   -26.4965200 -136.9963000   -33.5374800  -30.6942300   -21.4811500   49.7702500
 		     -26.6375800 -137.3563000    -0.4453892  -37.4939000   -21.4301800   49.9399800   -33.8539100  -29.3755500
   12468220000   -32.3845500  -33.6433900   -21.5900900   50.7433300    -0.4502761  -37.6271100   -26.5891800 -136.8693000 
 		     -21.4539900   50.2368200   -32.4983700  -35.7664500   -26.6046300 -136.6877000    -0.4519447  -37.6159300
 		      -0.4455705  -37.5969300   -26.5346000 -138.6377000   -33.2218400  -25.0578600   -21.4610500   49.4766000
 		     -26.4217100 -137.0660000    -0.4510288  -37.6254100   -21.4633100   49.7532600   -33.7999600  -27.8220400
   12538210000   -31.9552200  -34.3514900   -21.5314300   50.3018500    -0.4436107  -37.7640800   -26.4601000 -136.5348000 
 		     -21.4774100   49.7690200   -33.3448900  -31.6306300   -26.4082000 -137.3076000    -0.4448535  -37.9159800
 		      -0.4411793  -37.7406900   -26.5994900 -137.6975000   -33.7620500  -25.5050000   -21.4119600   49.3759000
 		     -26.4315100 -136.4368000    -0.4489917  -37.8988500   -21.4495400   49.1883800   -33.7711600  -28.9285100
   12608200000   -32.7056900  -37.8796600   -21.4033400   50.4799900    -0.4513099  -37.9930100   -26.3923800 -136.9567000 
 		     -21.3405000   49.9412400   -33.4298600  -37.4873400   -26.4355500 -137.1876000    -0.4421597  -38.0870900
 		      -0.4555699  -37.9318500   -26.3363200 -137.6233000   -33.4301000  -30.9270400   -21.4632800   49.4797100
 		     -26.4305500 -137.9429000    -0.4571166  -38.0448900   -21.4493100   49.5199400   -33.0945400  -28.0665900
   12678190000   -32.5374900  -32.6083900   -21.3806500   50.5453300    -0.4404401  -38.1861500   -26.2440000 -137.5851000 
 		     -21.4104100   49.8056300   -32.3552900  -34.3178300   -26.3667000 -137.5495000    -0.4623916  -38.2636000
 		      -0.4416335  -38.1597100   -26.4369800 -138.9472000   -33.4191600  -30.5435300   -21.3740300   48.8287300
 		     -26.5020200 -138.0345000    -0.4448047  -38.1623900   -21.4021500   48.9761000   -34.0100700  -25.4642400
   12748180000   -32.3622100  -30.8853100   -21.4642900   49.9065400    -0.4417189  -38.3894800   -26.3838700 -137.8912000 
 		     -21.3941900   49.5704500   -31.7675800  -32.9184300   -26.4416300 -137.6746000    -0.4447709  -38.5195800
 		      -0.4490680  -38.3850700   -26.5785400 -137.3496000   -33.7532800  -27.9792200   -21.3687500   48.9322200
 		     -26.3043900 -136.6761000    -0.4455923  -38.4317500   -21.3504000   49.1565500   -33.6248700  -25.9313800
   12818170000   -32.8350000  -34.6253600   -21.4437100   48.6963700    -0.4400878  -38.5771400   -26.5297900 -137.8509000 
 		     -21.3588800   49.3898200   -32.2943600  -37.7082200   -26.3260500 -138.3582000    -0.4462799  -38.7076300
 		      -0.4536625  -38.5623600   -26.4105800 -138.7249000   -34.4371100  -34.9266500   -21.4442800   48.8340100
 		     -26.3832600 -137.3761000    -0.4561653  -38.6877500   -21.4038400   48.7504700   -33.5673200  -24.7757100
   12888160000   -32.5267900  -36.7984700   -21.5217200   49.1559900    -0.4516050  -38.7989900   -26.3628200 -137.5424000 
 		     -21.3778100   49.5088700   -32.1405100  -31.3038300   -26.3070100 -138.5232000    -0.4493132  -38.9138800
 		      -0.4515179  -38.8022000   -26.2437500 -138.8481000   -33.8216200  -30.2993400   -21.3842000   48.8018200
 		     -26.3693400 -136.8613000    -0.4542663  -38.9736600   -21.3156900   48.7605400   -34.4577100  -34.4862500
   12958150000   -32.4226000  -32.5242600   -21.3550000   49.5213400    -0.4495515  -38.9869300   -26.1964000 -137.6544000 
 		     -21.4549800   49.5717700   -32.4391100  -35.1540400   -26.2891400 -138.4139000    -0.4536074  -39.1470600
 		      -0.4604948  -38.9640900   -26.1173000 -139.8655000   -33.8320300  -31.7914100   -21.3721400   48.3781700
 		     -26.3130000 -137.7088000    -0.4632806  -39.0627600   -21.3733900   48.2225300   -33.4222300  -30.2288000
   13028140000   -32.7887400  -34.9569200   -21.3610500   48.5313800    -0.4486779  -39.1830200   -26.2274200 -138.0741000 
 		     -21.3934000   49.0321500   -33.4128000  -31.7229000   -26.1529700 -139.2392000    -0.4626061  -39.2564100
 		      -0.4472737  -39.1271800   -26.2587900 -138.1831000   -33.9203000  -37.3531600   -21.3087700   48.5579300
 		     -26.3660600 -137.8216000    -0.4517962  -39.2405300   -21.3591800   48.4500700   -33.7874000  -35.9300500
   13098130000   -33.0588200  -36.4654500   -21.4468600   48.4466800    -0.4625725  -39.3164300   -26.1832400 -139.3198000 
 		     -21.3783300   48.5961200   -32.1982500  -37.3896700   -26.2300700 -138.9511000    -0.4538372  -39.4902300
 		      -0.4491237  -39.3332700   -26.4978000 -138.8386000   -33.5874400  -36.9051400   -21.3844100   48.0642400
 		     -26.2769100 -138.8339000    -0.4749173  -39.4098000   -21.3578700   47.9395900   -33.9932600  -26.1577300
   13168120000   -32.0171000  -37.8890400   -21.3649800   48.7384400    -0.4598113  -39.5516900   -26.1132600 -138.9509000 
 		     -21.3581500   49.2491200   -32.3428800  -34.4288800   -26.1519100 -139.1321000    -0.4657417  -39.7089300
 		      -0.4483315  -39.5201600   -26.2418200 -139.5182000   -33.9405500  -30.9922400   -21.3399300   47.7680400
 		     -26.2035300 -137.9701000    -0.4406799  -39.6465000   -21.3030400   47.5788200   -33.8861800  -31.1102100
   13238110000   -32.2844400  -37.9824600   -21.3592100   48.5066900    -0.4530172  -39.7904100   -26.1605400 -138.2785000 
 		     -21.4021500   48.7452200   -33.6420200  -39.2769300   -26.0705900 -139.4235000    -0.4513459  -39.9126900
 		      -0.4363948  -39.7759800   -26.1356600 -139.4021000   -34.3792200  -38.3440000   -21.3367000   48.0266500
 		     -26.2707200 -138.1292000    -0.4489770  -39.9175000   -21.2547000   47.7837300   -33.9592200  -33.9626200
   13308100000   -32.6248400  -40.4156500   -21.3243300   47.9850200    -0.4599451  -40.0404100   -26.0967500 -138.2406000 
 		     -21.3324100   48.2387900   -32.8366900  -35.7799800   -26.1029800 -139.8662000    -0.4620360  -40.1507300
 		      -0.4618973  -40.0313800   -26.1871900 -139.4784000   -34.2053000  -37.7155900   -21.3278600   47.7702400
 		     -26.1637600 -138.8967000    -0.4694481  -40.0625500   -21.2808200   47.5507200   -34.1962500  -31.6724700
   13378090000   -32.6253000  -38.9831100   -21.3935500   47.9918900    -0.4591682  -40.2417600   -26.0201100 -139.1017000 
 		     -21.3380000   48.0747600   -32.8454100  -37.5812200   -26.0771200 -139.5159000    -0.4705079  -40.3199800
 		      -0.4641553  -40.2430800   -26.1685100 -140.3239000   -33.5206400  -33.9043600   -21.3015300   47.4131700
 		     -25.9988500 -139.2431000    -0.4842237  -40.1563200   -21.3090800   47.2439300   -33.9817700  -35.9793200
   13448080000   -32.1302800  -41.3179000   -21.4112700   48.5151400    -0.4590963  -40.4513700   -26.0263200 -139.6521000 
 		     -21.2945000   48.0585600   -33.0670300  -36.6652400   -26.0778000 -139.5208000    -0.4680118  -40.5982600
 		      -0.4580856  -40.4381600   -26.2073200 -139.5843000   -34.6258700  -33.9422000   -21.2366400   47.1179900
 		     -26.0743900 -139.2745000    -0.4691517  -40.5339000   -21.2750500   47.2355000   -33.9142500  -31.7831700
   13518070000   -32.5476400  -40.9019700   -21.2472600   47.7867900    -0.4633088  -40.7033800   -26.0087100 -139.7924000 
 		     -21.3353500   47.5116800   -32.9857800  -46.1788200   -25.9656900 -139.9499000    -0.4726005  -40.7897900
 		      -0.4569460  -40.6029200   -25.8574200 -139.9931000   -34.5462700  -37.0143900   -21.3153000   46.8954400
 		     -25.9327300 -139.5869000    -0.4645062  -40.6981300   -21.2721000   46.9622500   -34.1181900  -28.2957100
   13588060000   -32.8514900  -44.4939000   -21.3857000   47.8838300    -0.4614720  -40.8234300   -25.9800000 -139.3295000 
 		     -21.3140100   47.8684100   -32.1170400  -34.4143300   -25.9214300 -140.6850000    -0.4726660  -40.9741000
 		      -0.4515911  -40.8905500   -25.8861000 -140.8625000   -33.5501300  -37.5516300   -21.3130600   46.7170400
 		     -25.9762900 -138.9386000    -0.4604145  -40.9302500   -21.2486500   46.6721500   -33.3984800  -38.1066400
   13658050000   -32.6796300  -41.6896800   -21.3743000   48.5855600    -0.4534065  -41.0731000   -25.9232000 -139.1199000 
 		     -21.3400000   47.4994400   -33.7704500  -34.3643000   -25.9221400 -140.5997000    -0.4679824  -41.2151900
 		      -0.4627879  -41.0518800   -25.8555600 -139.8264000   -34.3237000  -38.9618900   -21.2730300   46.7391400
 		     -25.9037200 -139.4444000    -0.4666428  -41.2185500   -21.2844800   46.6646200   -33.8679200  -35.9755100
   13728040000   -32.4563100  -42.7040200   -21.2422000   47.7417300    -0.4679057  -41.2823900   -25.8595700 -139.3676000 
 		     -21.3591200   47.7147100   -33.3624000  -32.0463600   -25.8395600 -141.0148000    -0.4735106  -41.3759500
 		      -0.4679369  -41.2659800   -25.9545400 -140.0525000   -34.6900100  -40.0076500   -21.2615700   46.2758300
 		     -25.7834600 -139.9099000    -0.4707785  -41.3632400   -21.2882300   46.5875500   -34.3300300  -33.6802100
   13798030000   -32.8491600  -45.8088400   -21.3511400   47.0755800    -0.4715702  -41.3670700   -25.8289200 -140.0759000 
 		     -21.2446300   47.4419800   -32.8172100  -42.1828600   -25.8725100 -141.4318000    -0.4721592  -41.5086600
 		      -0.4641815  -41.3998500   -25.8234600 -140.9658000   -33.4680600  -37.8606400   -21.2575500   46.3524200
 		     -25.7447900 -139.4977000    -0.4661148  -41.4788200   -21.2837600   46.3638900   -33.5716700  -35.3145000
   13868020000   -32.2203800  -47.1149800   -21.3595700   48.1828300    -0.4563192  -41.6259300   -25.8898200 -139.9129000 
 		     -21.3735700   47.6704000   -33.7946900  -38.5351600   -25.8299800 -140.8218000    -0.4704306  -41.6971800
 		      -0.4601051  -41.5923500   -25.8301900 -140.9922000   -34.0098300  -38.5935700   -21.2696800   46.2760300
 		     -25.7989600 -139.7176000    -0.4671928  -41.6555500   -21.2393600   46.4667000   -33.9201900  -36.1595800
   13938010000   -32.8820600  -45.8079200   -21.2927200   46.5558300    -0.4714814  -41.8069800   -25.8277100 -140.2325000 
 		     -21.3339600   47.6251300   -33.7734600  -38.0457200   -25.7545800 -141.2189000    -0.4774916  -41.9719200
 		      -0.4699826  -41.7679200   -25.8729000 -140.9492000   -34.7285500  -41.8753600   -21.2692300   46.2960000
 		     -25.8903900 -139.6251000    -0.4701329  -41.9615500   -21.2561100   45.8402000   -34.0381800  -37.7480500
   14008000000   -32.8860200  -47.8958500   -21.2704400   46.3741300    -0.4757583  -42.0755600   -25.7610600 -140.1302000 
 		     -21.3429600   47.3107200   -32.5313300  -41.8089600   -25.7122200 -141.6889000    -0.4657927  -42.1211900
 		      -0.4617527  -42.0566400   -25.6682300 -140.9434000   -33.8953700  -38.0272400   -21.2132900   45.7910800
 		     -25.6836200 -139.8367000    -0.4612469  -42.1044400   -21.2432700   46.1166600   -34.4788800  -32.8543800
   14077990000   -32.6698200  -43.3568200   -21.1921100   47.4103500    -0.4732918  -42.3221100   -25.6345100 -140.0438000 
 		     -21.3122800   46.1746400   -33.4096200  -42.7580400   -25.7526400 -141.3797000    -0.4831852  -42.3740000
 		      -0.4696898  -42.2589300   -25.5735900 -141.3513000   -34.1424300  -40.5335800   -21.2093400   45.8040000
 		     -25.7019800 -139.9809000    -0.4817168  -42.2312900   -21.2135700   45.4814300   -34.2724800  -39.2388600
   14147980000   -33.0538600  -45.5317100   -21.2636000   46.8615700    -0.4681364  -42.4708000   -25.6168200 -140.1505000 
 		     -21.3740600   46.5660500   -33.0892300  -38.7994500   -25.7674200 -142.0288000    -0.4809637  -42.4829100
 		      -0.4626931  -42.4695600   -25.6947100 -141.3344000   -34.9925700  -40.9585600   -21.2345800   45.3945100
 		     -25.6727300 -140.3644000    -0.4844977  -42.5025900   -21.2568200   45.4386600   -35.1721200  -36.7342800
   14217970000   -32.4327100  -45.5084800   -21.2955200   46.1935500    -0.4738501  -42.6118100   -25.5829100 -140.7341000 
 		     -21.2954300   46.1285900   -32.5016800  -45.6490900   -25.6895700 -141.2948000    -0.4601327  -42.7583600
 		      -0.4785605  -42.6184400   -25.5580300 -141.2678000   -34.1773000  -41.8688100   -21.2384800   45.7375900
 		     -25.7026600 -139.7960000    -0.4608537  -42.7346300   -21.2362700   45.2191800   -34.6130400  -33.4804800
   14287960000   -32.6595100  -47.6377500   -21.3961900   46.7694600    -0.4807136  -42.8762600   -25.6059200 -140.7983000 
 		     -21.2744300   46.2606300   -33.1236600  -42.3583800   -25.6068300 -142.1694000    -0.4776242  -42.9497900
 		      -0.4781218  -42.8184400   -25.5130800 -141.2737000   -34.4184600  -40.0171900   -21.2253500   45.4611200
 		     -25.6638500 -140.7900000    -0.4584981  -42.9708500   -21.2340100   45.3756000   -34.5438700  -39.7056700
   14357950000   -32.6262200  -49.6820300   -21.3162800   46.8391700    -0.4808747  -43.0939100   -25.5807600 -140.8416000 
 		     -21.3784800   46.4636300   -33.0630100  -48.8462900   -25.5915700 -141.3439000    -0.4760609  -43.1178400
 		      -0.4779481  -43.0328400   -25.6630400 -141.8669000   -34.9056000  -41.2577300   -21.2604100   45.3186500
 		     -25.5395700 -141.2322000    -0.4702970  -43.0943200   -21.2485700   44.7928400   -34.6722200  -38.7367400
   14427940000   -32.4240100  -47.5373000   -21.3578900   46.3335500    -0.4777172  -43.2729000   -25.4982900 -140.8208000 
 		     -21.3016600   44.8728300   -33.4740900  -43.7080700   -25.5460500 -141.9905000    -0.4813865  -43.2980600
 		      -0.4735380  -43.2075200   -25.5077400 -141.7898000   -34.7266200  -44.6228600   -21.2166200   45.2390400
 		     -25.5490300 -141.3779000    -0.4781894  -43.2177500   -21.2421300   44.9731500   -34.7515700  -37.5019900
   14497930000   -32.8041000  -48.2550800   -21.3652600   45.6439400    -0.4788501  -43.4509000   -25.4079900 -141.1544000 
 		     -21.2159800   45.5037500   -32.5505700  -45.2637400   -25.4978000 -142.0898000    -0.4938314  -43.5257100
 		      -0.4795392  -43.4606200   -25.5115600 -141.9225000   -34.6640900  -43.7278200   -21.2242000   44.9316400
 		     -25.3064100 -141.4916000    -0.4758406  -43.5507700   -21.1923800   44.6714100   -34.8304700  -39.8589800
   14567920000   -32.8750400  -47.8850300   -21.2926800   45.2964700    -0.4798113  -43.6770600   -25.3140900 -141.3951000 
 		     -21.2801100   46.0343300   -33.5371200  -40.3315200   -25.4428100 -142.4161000    -0.4803796  -43.7873600
 		      -0.4732404  -43.6104100   -25.5247400 -142.3086000   -35.0689100  -39.9851300   -21.1648200   44.5555100
 		     -25.2275300 -141.3109000    -0.4846697  -43.6973400   -21.2064200   44.8614600   -34.7393300  -39.8103400
   14637910000   -33.1224900  -50.2810200   -21.3876200   45.8011100    -0.4772376  -43.7611100   -25.4095800 -141.2911000 
 		     -21.2423300   45.4513200   -32.8088000  -43.5557600   -25.4890000 -142.3129000    -0.4841021  -43.9485700
 		      -0.4834728  -43.7445000   -25.4334200 -143.8754000   -35.2921100  -45.6578700   -21.2494100   44.5580300
 		     -25.2647100 -141.4596000    -0.4823393  -43.9903200   -21.2496600   44.4429700   -34.4624100  -38.1096600
   14707900000   -32.8647400  -54.0598800   -21.1580700   46.1325300    -0.4770128  -44.0836800   -25.3340300 -141.5736000 
 		     -21.2452300   45.4046900   -33.1365400  -48.5178800   -25.3735400 -142.4589000    -0.4718238  -44.1609800
 		      -0.4746782  -44.0414000   -25.2860300 -142.1388000   -34.0645700  -43.0517400   -21.2314500   44.2834000
 		     -25.3287400 -140.7547000    -0.4748390  -44.1928500   -21.2575000   44.3812400   -34.7394100  -42.6421500
   14777890000   -32.8236100  -45.8485200   -21.2860800   45.3817200    -0.4826167  -44.2954900   -25.3302800 -141.7195000 
 		     -21.3072700   46.0565100   -33.2406800  -40.9154500   -25.3921700 -142.4836000    -0.4904518  -44.4735400
 		      -0.4706663  -44.2696400   -25.2151500 -142.0469000   -34.7228400  -40.3413800   -21.2233400   44.3461500
 		     -25.2669900 -141.7927000    -0.4891412  -44.4784200   -21.2073400   43.9544600   -35.0566200  -41.8976200
   14847880000   -33.3184400  -50.7311100   -21.3359200   45.4128000    -0.4749063  -44.4652300   -25.1229100 -142.0106000 
 		     -21.2636000   45.4174800   -33.6836100  -42.7172300   -25.3328200 -142.9105000    -0.4893139  -44.5563800
 		      -0.4748321  -44.3642700   -25.1997600 -143.0567000   -35.5413700  -40.2191300   -21.1455700   44.1754300
 		     -25.1571400 -141.4232000    -0.4804378  -44.5555400   -21.2024300   43.9035600   -34.8235900  -40.2292500
   14917870000   -33.0727700  -51.3007900   -21.2196400   45.7031700    -0.4848995  -44.6825600   -25.1486100 -142.2466000 
 		     -21.3064000   45.5934200   -32.9837200  -56.2190400   -25.2051600 -142.5090000    -0.4823994  -44.8280300
 		      -0.4848835  -44.6156500   -25.3603300 -142.5695000   -34.7398000  -50.4293200   -21.2122300   44.0317700
 		     -25.2098900 -141.4207000    -0.4931296  -44.7866500   -21.1877100   43.9780700   -34.6349900  -42.3484300
   14987860000   -32.3081000  -49.6397400   -21.2361500   45.2975000    -0.4989308  -44.8845400   -25.1687400 -142.3353000 
 		     -21.2248500   45.1462200   -33.2946400  -46.9290600   -25.1907300 -142.4374000    -0.4949000  -45.0044300
 		      -0.4957115  -44.8481100   -25.1787100 -142.5010000   -35.1582600  -44.7101500   -21.2051700   43.5567100
 		     -25.2078200 -141.4441000    -0.4999229  -44.9740200   -21.1983000   43.7699400   -34.1242300  -39.6101900
   15057850000   -33.1405300  -50.3622100   -21.3418200   44.7025700    -0.4894576  -45.0760100   -25.1248000 -142.6240000 
 		     -21.2796600   45.5829200   -33.7284100  -47.4390000   -25.2364400 -142.7719000    -0.4876097  -45.2470200
 		      -0.4794649  -45.0884500   -25.3837700 -142.7578000   -35.1283500  -42.5347900   -21.2038200   43.3881700
 		     -25.1308100 -142.4637000    -0.4708934  -45.2173300   -21.2480200   43.5300700   -35.4121900  -44.6297000
   15127840000   -33.1965800  -51.1108100   -21.2280600   44.4430800    -0.4941931  -45.3378900   -25.1547500 -142.3001000 
 		     -21.2575500   45.1766800   -32.8415500  -44.7333200   -25.1591800 -143.2849000    -0.4935872  -45.4132200
 		      -0.4765179  -45.3515500   -25.0987400 -144.2121000   -34.6220400  -49.1489100   -21.1963700   43.3518400
 		     -25.1386100 -141.5322000    -0.4752915  -45.3930500   -21.1572800   43.3242800   -35.1347100  -38.3558100
   15197830000   -32.8521100  -53.5089500   -21.2599800   44.8102700    -0.4827341  -45.5758600   -24.9979900 -142.4767000 
 		     -21.2432700   45.0537200   -33.4954100  -48.1792700   -25.1209900 -143.3841000    -0.5008707  -45.5989300
 		      -0.4800497  -45.5076400   -24.9564800 -144.0421000   -34.6716000  -47.5035600   -21.2074500   43.3260300
 		     -25.0445300 -142.3401000    -0.4881476  -45.5380800   -21.2069200   43.0874400   -35.5803000  -50.5970300
   15267820000   -32.7032500  -54.1416700   -21.2519100   44.7626800    -0.4888535  -45.6587700   -24.9453000 -142.8330000 
 		     -21.2949400   44.5501400   -32.8628300  -55.3543800   -25.0867400 -143.3764000    -0.4978436  -45.8285800
 		      -0.4857406  -45.6849900   -24.9902700 -142.9252000   -35.4668200  -49.5347100   -21.1516100   43.0300700
 		     -24.9954500 -143.2921000    -0.4971289  -45.7960600   -21.2022200   43.2485100   -34.4660600  -48.9827700
   15337810000   -32.3224200  -54.3459200   -21.1977100   44.3708200    -0.4839236  -45.9665200   -24.9602300 -143.2816000 
 		     -21.3060400   44.2013700   -32.8622300  -49.8407800   -25.1003500 -143.4267000    -0.4935034  -46.0422300
 		      -0.4825736  -45.8672400   -25.0409400 -143.4853000   -35.3865900  -51.1324900   -21.1871800   42.6704900
 		     -25.0883000 -143.0998000    -0.4908115  -46.1201800   -21.2150500   42.9249800   -34.9465600  -44.7157800
   15407800000   -32.5872400  -47.5991100   -21.2839300   44.2007900    -0.4934567  -46.1208400   -24.9363400 -143.2240000 
 		     -21.3131700   44.2624400   -33.9765900  -49.0239900   -25.0149300 -143.5025000    -0.4831374  -46.2607100
 		      -0.4887823  -46.1295900   -24.9293000 -143.0340000   -34.9448000  -54.4597000   -21.2060700   42.6667300
 		     -24.9970200 -143.4125000    -0.4873754  -46.2203700   -21.2300900   42.9742100   -35.2533300  -49.3370900
   15477790000   -32.8346900  -53.0522400   -21.3140600   44.4316100    -0.4928654  -46.3700500   -24.8923600 -142.9635000 
 		     -21.2681700   44.0742300   -32.1303300  -52.0524900   -24.9634700 -143.5985000    -0.4957899  -46.4336100
 		      -0.4869494  -46.3952900   -24.9922400 -144.1074000   -35.2491000  -45.4688300   -21.1777900   42.4787800
 		     -24.8088800 -143.6123000    -0.4945992  -46.4265500   -21.1846800   42.8039000   -35.8109000  -45.6853400
   15547780000   -33.3340400  -61.1531600   -21.3755000   44.3546500    -0.4876294  -46.5675500   -24.8183100 -142.9801000 
 		     -21.3353100   43.5907200   -32.9460000  -49.3156600   -24.9105000 -144.0427000    -0.5080299  -46.6872600
 		      -0.4871539  -46.5858600   -25.0403400 -143.5698000   -34.7525100  -51.5611800   -21.1501100   42.5935900
 		     -24.7572700 -142.4636000    -0.5225530  -46.6710900   -21.1518000   42.8576400   -35.2863300  -44.0646900
   15617770000   -33.0045000  -58.9581400   -21.2681500   44.0785800    -0.4922058  -46.6961400   -24.8030000 -143.0012000 
 		     -21.2143200   44.3267700   -33.7913000  -60.5002800   -24.8967200 -144.2116000    -0.5226535  -46.8971600
 		      -0.4915825  -46.6858300   -24.8955700 -143.8750000   -35.2075200  -51.4354600   -21.1317100   42.6568000
 		     -24.7450200 -143.0804000    -0.5409857  -46.9105800   -21.2468500   42.5061800   -35.1681900  -55.4754000
   15687760000   -32.7659200  -53.9422300   -21.2620000   43.8767200    -0.4912828  -46.9764300   -24.7347200 -143.7640000 
 		     -21.2642800   43.9913700   -33.2920600  -53.6586500   -24.8444900 -143.9174000    -0.5081373  -47.0542600
 		      -0.5009131  -46.9900200   -24.7714200 -144.8031000   -35.5255300  -52.9428900   -21.1493900   41.9054800
 		     -24.8831300 -143.7663000    -0.5120969  -47.0899700   -21.2714500   42.1418800   -35.2648000  -49.5226100
   15757750000   -32.9472700  -57.0603700   -21.2104400   43.6024000    -0.4967536  -47.1815600   -24.7395900 -143.7767000 
 		     -21.2656900   44.5864600   -33.6463200  -59.4474600   -24.8350700 -143.9469000    -0.5011987  -47.2877000
 		      -0.4952218  -47.1216500   -24.5888200 -144.7201000   -35.0881100  -49.6070800   -21.1697900   41.7870200
 		     -24.7227900 -143.5625000    -0.5151623  -47.3071500   -21.2421100   41.9807400   -34.6412700  -45.9695800
   15827740000   -32.8974600  -61.4516600   -21.2903300   43.3949100    -0.4994184  -47.4369300   -24.7458300 -143.4287000 
 		     -21.2551200   43.5884500   -33.8547600  -58.1379500   -24.7701000 -144.4970000    -0.5081606  -47.4589300
 		      -0.4866720  -47.3573400   -24.6490800 -144.5363000   -35.1651700  -54.5764300   -21.1860700   41.8877800
 		     -24.6826800 -143.5072000    -0.4927723  -47.4901300   -21.2155300   41.9299100   -35.6143100  -52.9253000
   15897730000   -32.4838900  -60.1243700   -21.1703500   43.6872800    -0.5090345  -47.5423000   -24.6234100 -143.5065000 
 		     -21.2873800   43.8076200   -32.5249300  -56.6382900   -24.7326800 -144.0579000    -0.5164863  -47.6662900
 		      -0.5081772  -47.5137300   -24.6086800 -145.0128000   -34.9643500  -50.8363500   -21.2089500   41.6590000
 		     -24.7578300 -143.2175000    -0.5123969  -47.6728200   -21.2256200   41.9275300   -35.5841200  -52.0327900
   15967720000   -32.8213000  -64.4009900   -21.2561500   42.5548300    -0.5018914  -47.7467100   -24.5567800 -143.5562000 
 		     -21.2296600   43.3496000   -33.2070500  -57.8263800   -24.6509500 -144.7602000    -0.5099965  -47.8977400
 		      -0.4844393  -47.6974800   -24.7403800 -144.4464000   -35.4392100  -52.6995000   -21.1475900   41.5533000
 		     -24.6114900 -143.0363000    -0.5087255  -47.9138100   -21.1699200   41.7363200   -34.9193800  -51.8548400
   16037710000   -32.7686300  -64.5443300   -21.2203100   43.9993100    -0.5074829  -47.9255000   -24.4902800 -143.9121000 
 		     -21.3754400   42.9273100   -33.4486800  -59.9962800   -24.5926300 -144.5820000    -0.5046343  -48.0955900
 		      -0.5040194  -47.9306800   -24.6030200 -144.1830000   -35.6998400  -59.2675000   -21.2044800   41.3642100
 		     -24.5985800 -143.9960000    -0.5084534  -48.0459500   -21.2165200   41.8366000   -35.8277900  -48.5805800
   16107700000   -33.3294800  -63.6850000   -21.2933000   43.1553800    -0.5052828  -48.1694600   -24.4981300 -144.3531000 
 		     -21.3017100   43.3785800   -33.1055800  -60.1445700   -24.5479700 -144.8117000    -0.5179166  -48.2291200
 		      -0.5170178  -48.0846300   -24.6586900 -145.2793000   -35.1644900  -58.6992000   -21.2488800   41.1366600
 		     -24.6071600 -145.2167000    -0.5097052  -48.1801300   -21.2408200   41.3115200   -35.6250000  -56.2962800
   16177690000   -33.0091700  -60.7755700   -21.3321000   43.1885800    -0.5127133  -48.3599900   -24.5244700 -144.9278000 
 		     -21.2778700   42.4498900   -33.5840800  -56.2990100   -24.5518000 -145.2840000    -0.5262405  -48.5334100
 		      -0.4973608  -48.3659200   -24.7249600 -145.4392000   -35.1750100  -50.7044400   -21.2456300   41.0098400
 		     -24.5576700 -145.3558000    -0.5200135  -48.5487800   -21.2441700   41.1370800   -34.8166700  -54.3870200
   16247680000   -32.6787600  -63.2795500   -21.2662000   42.5667600    -0.5073314  -48.5000000   -24.4462900 -144.1582000 
 		     -21.2823400   42.4103200   -33.1657800  -56.1777600   -24.4390200 -145.4046000    -0.5115200  -48.6828300
 		      -0.4932673  -48.5076800   -24.4333700 -145.1025000   -35.4254800  -59.0804600   -21.2336000   40.8890600
 		     -24.4829700 -145.0765000    -0.5205200  -48.6221700   -21.2359100   40.8427700   -35.6514600  -48.3008500
   16317670000   -33.1344900  -62.0459400   -21.2399100   42.8962400    -0.5068927  -48.7431200   -24.3424800 -144.5832000 
 		     -21.2717300   42.5921100   -34.2537700  -62.1500100   -24.3805800 -144.8673000    -0.5236062  -48.9067400
 		      -0.5115039  -48.7317000   -24.4012100 -146.1050000   -35.6314700  -60.7245300   -21.2251800   40.7731200
 		     -24.4232500 -145.1091000    -0.5196449  -48.8505300   -21.1941400   40.8068600   -35.9928000  -52.9011700
   16387660000   -33.0545600  -66.2815100   -21.1918100   42.8151800    -0.5111778  -48.9518900   -24.3406500 -145.2704000 
 		     -21.2602400   42.7331700   -33.1125600  -61.2448800   -24.3706900 -145.3939000    -0.5114315  -49.1250600
 		      -0.5080913  -48.9219100   -24.5723200 -145.7616000   -35.7365600  -60.8465200   -21.2175900   40.4742500
 		     -24.3788200 -144.8551000    -0.5166117  -49.1495900   -21.2222500   40.4759500   -36.2201300  -51.5411600
   16457650000   -32.8337300  -64.5652500   -21.2700900   42.5815200    -0.5099390  -49.1766400   -24.2818800 -145.3109000 
 		     -21.2240200   42.0193400   -33.5372300  -63.9824400   -24.3571700 -145.8336000    -0.5230780  -49.3831400
 		      -0.5088931  -49.1865700   -24.4498600 -147.3624000   -35.5334100  -62.7503500   -21.2501400   40.2983200
 		     -24.2298900 -145.6074000    -0.5141839  -49.3579800   -21.2063300   40.4804300   -35.4875500  -53.5996600
   16527640000   -32.6332300  -65.9217900   -21.2534100   42.6509200    -0.5121042  -49.3469900   -24.2976000 -145.6078000 
 		     -21.2548700   41.5912000   -34.2530300  -57.8094900   -24.2752600 -145.7857000    -0.5276928  -49.4482900
 		      -0.5162353  -49.2784000   -24.2070200 -145.9614000   -35.4545600  -60.9087700   -21.2533200   40.1825200
 		     -24.1689900 -145.5303000    -0.5330715  -49.5179500   -21.2368100   40.2675600   -35.7746400  -55.6506100
   16597630000   -33.1352300  -63.0681700   -21.3948700   42.3191800    -0.5152727  -49.6051900   -24.2742200 -145.4454000 
 		     -21.2838000   42.7290800   -33.1676500  -63.3460000   -24.2514800 -146.2363000    -0.5239426  -49.7729500
 		      -0.5190641  -49.4977500   -24.3240300 -146.0489000   -36.0414800  -59.1666800   -21.2861100   39.8888000
 		     -24.2562000 -145.6177000    -0.5289329  -49.7425200   -21.2550500   39.7990100   -35.4941400  -55.0712400
   16667620000   -32.5322600  -63.6896000   -21.3157400   41.3926800    -0.5205311  -49.6860800   -24.1428100 -145.2919000 
 		     -21.3524300   42.2571300   -34.3099000  -68.0941300   -24.2493900 -146.2659000    -0.5295329  -49.9765400
 		      -0.5075408  -49.7003200   -24.4614800 -146.1393000   -36.0197700  -63.3816600   -21.2336900   40.0389700
 		     -24.1484200 -144.9097000    -0.5351634  -49.8973600   -21.2553100   40.1534100   -35.9622500  -60.6981800
   16737610000   -33.4100600  -65.2308800   -21.2911800   41.8837500    -0.5291560  -49.9089700   -24.1089700 -146.1240000 
 		     -21.2665000   41.7659900   -33.4706300  -66.6452600   -24.1890300 -146.4960000    -0.5152777  -50.0875500
 		      -0.5182012  -49.8271900   -24.1285900 -146.2234000   -36.3877500  -66.1319800   -21.2383000   39.8959200
 		     -24.1799800 -146.2223000    -0.5253298  -49.9752200   -21.2874300   40.0574900   -35.5034200  -59.6957600
   16807600000   -32.6933500  -64.5788700   -21.4018000   41.1267900    -0.5295932  -50.0969600   -24.0609600 -146.7880000 
 		     -21.3759600   42.4850500   -33.0056500  -68.0372500   -24.1160500 -146.6160000    -0.5328196  -50.2903600
 		      -0.5136163  -50.0874500   -24.3067300 -147.0216000   -35.3422900  -61.9598400   -21.2839400   39.1978300
 		     -24.1644700 -147.1773000    -0.5360472  -50.3560100   -21.2774500   39.5414100   -36.5659000  -58.7970600
   16877590000   -33.1130000  -67.5380600   -21.3873100   40.5080200    -0.5095788  -50.3158400   -24.1037000 -146.5917000 
 		     -21.3788000   40.9080600   -33.6038600  -60.7360500   -24.1012500 -147.2257000    -0.5288168  -50.5072200
 		      -0.5162627  -50.3327500   -24.1653900 -147.3049000   -35.7139800  -63.9093400   -21.2680500   39.1583800
 		     -24.2092400 -146.2342000    -0.5306767  -50.5722800   -21.2767200   39.5290600   -35.4328900  -54.5323000
   16947580000   -33.1696400  -69.4535300   -21.3937800   41.2141400    -0.5148108  -50.5143100   -24.0627800 -146.2803000 
 		     -21.3341900   41.3970900   -33.8978200  -63.7738300   -23.9388300 -147.6401000    -0.5316143  -50.6191800
 		      -0.5057153  -50.4915300   -23.9584800 -146.7308000   -36.3542300  -62.5063900   -21.3060900   39.1151400
 		     -24.0351400 -145.8610000    -0.5315467  -50.5633700   -21.2955400   39.4225200   -36.6918200  -65.3086700
   17017570000   -33.4714800  -65.4213000   -21.2978400   41.2183600    -0.5252974  -50.7988800   -24.0443600 -146.6026000 
 		     -21.3779100   41.2941000   -34.5199100  -68.3802100   -23.9902500 -147.1806000    -0.5316371  -50.8800100
 		      -0.5192992  -50.7597000   -24.0527300 -146.9398000   -35.6559000  -67.6960000   -21.3305400   39.1344500
 		     -24.0395800 -146.2918000    -0.5336317  -50.8880600   -21.3619000   38.9114800   -35.4391100  -60.5183100
   17087560000   -33.2642200  -63.2149200   -21.4054300   40.8782100    -0.5199559  -50.9584800   -23.9836600 -146.7840000 
 		     -21.5000800   41.2983900   -32.9015000  -78.8654600   -24.0425600 -147.7408000    -0.5229875  -51.1909800
 		      -0.5119056  -50.9226900   -24.2168000 -147.5793000   -35.5840200  -67.8131000   -21.3252800   38.9735900
 		     -23.9571200 -147.4312000    -0.5183640  -51.0578000   -21.3353400   38.9999800   -35.2685600  -60.8921800
   17157550000   -33.3380400  -69.9601400   -21.3955900   41.1972700    -0.5261412  -51.1284200   -23.8731000 -147.0324000 
 		     -21.4127800   40.3421300   -33.1734600  -70.9395900   -23.9168500 -147.3969000    -0.5262499  -51.3343500
 		      -0.5100428  -51.0635600   -24.1135900 -148.1452000   -35.6282600  -74.7675100   -21.3018800   38.8544200
 		     -23.9703000 -147.2263000    -0.5441337  -51.3650500   -21.3033600   39.1729400   -36.4801100  -64.1409800
   17227540000   -32.6792400  -69.9256300   -21.4900700   40.8921800    -0.5217937  -51.3855100   -23.9026800 -147.6599000 
 		     -21.4793900   40.8471100   -31.7364200  -70.9692300   -23.9408300 -147.6622000    -0.5194255  -51.4166600
 		      -0.5140053  -51.3074900   -24.0006000 -148.4371000   -36.3267600  -66.1063700   -21.3395900   38.4467000
 		     -24.0081000 -147.3175000    -0.5360586  -51.4733700   -21.3438000   38.4088100   -36.8043600  -58.4427600
   17297530000   -32.8990000  -71.5115600   -21.3452800   40.1594100    -0.5316017  -51.5684200   -23.9455800 -147.5629000 
 		     -21.4761200   40.6316200   -33.8867100  -69.8805500   -23.8732800 -147.7532000    -0.5236886  -51.6678400
 		      -0.5280041  -51.5577900   -24.0718000 -148.8986000   -35.2315500  -68.6787800   -21.3929900   38.4499100
 		     -23.8972300 -147.9796000    -0.5357505  -51.6269900   -21.3491300   38.1046800   -35.3530000  -70.5263400
   17367520000   -33.4954800  -72.5056700   -21.5523000   40.2716800    -0.5405151  -51.7913400   -23.7863300 -147.2086000 
 		     -21.4172900   40.7263400   -35.8814700  -61.9698500   -23.8347600 -148.6109000    -0.5352498  -51.9157300
 		      -0.5243115  -51.7682300   -23.8432900 -148.4341000   -35.8541700  -75.9595300   -21.3996500   38.1584500
 		     -23.8328200 -147.5007000    -0.5446722  -52.0077100   -21.3026800   38.2216800   -37.3993500  -68.7706000
   17437510000   -32.9021000  -68.4333600   -21.4999400   40.7741500    -0.5255031  -51.9991600   -23.7869000 -147.6820000 
 		     -21.3598200   40.8452800   -34.3729100  -62.7411800   -23.6978500 -148.5145000    -0.5280210  -52.1861800
 		      -0.5201164  -51.9377700   -23.7603600 -148.4544000   -36.2441100  -68.0672800   -21.3618300   38.0912500
 		     -23.7745100 -147.3275000    -0.5217058  -52.0489700   -21.3654400   37.7942900   -36.8126900  -66.3688100
   17507500000   -32.8178000  -70.2237900   -21.3862900   40.0808400    -0.5249965  -52.2657200   -23.7220800 -148.0522000 
 		     -21.4532200   40.4817800   -33.2077200  -69.3634400   -23.7193000 -148.9878000    -0.5376922  -52.3374700
 		      -0.5247765  -52.0994100   -23.8021600 -149.9640000   -35.7105300  -71.8500000   -21.3876700   37.6973000
 		     -23.6965600 -148.3636000    -0.5518855  -52.3332600   -21.3826400   37.8228700   -35.9954100  -65.3226500
   17577490000   -32.6815500  -74.3691500   -21.5037700   40.4019800    -0.5227728  -52.3969300   -23.6147500 -148.3938000 
 		     -21.4749500   40.2061900   -33.9408000  -76.5015000   -23.7839100 -149.5126000    -0.5359710  -52.5519300
 		      -0.5056582  -52.3159400   -23.6326400 -149.1213000   -36.3198100  -68.4804500   -21.4112100   37.5766000
 		     -23.7202800 -148.5139000    -0.5407370  -52.5947300   -21.3770900   37.4626900   -36.4380200  -61.2904500
   17647480000   -31.9039900  -73.9472300   -21.5199200   40.4067500    -0.5179982  -52.7427200   -23.6956600 -148.5297000 
 		     -21.5378200   40.1911400   -34.4840700  -70.0773200   -23.6383500 -148.9564000    -0.5229484  -52.8359700
 		      -0.5306103  -52.6473500   -23.8923500 -149.6465000   -35.7084900  -76.2174300   -21.4737900   37.7743800
 		     -23.7679600 -147.9499000    -0.5096577  -52.7715200   -21.4250400   37.4432200   -35.3533900  -69.3213000
   17717470000   -32.4421700  -71.1459100   -21.4965900   40.5190900    -0.5304191  -52.7987600   -23.6218700 -148.5092000 
 		     -21.5331200   39.8465000   -33.2754400  -72.7987100   -23.5882600 -149.3736000    -0.5314476  -52.9798500
 		      -0.5300847  -52.8212700   -23.6127800 -148.5529000   -35.4373500  -72.1571700   -21.4275000   37.4214400
 		     -23.6561600 -148.0273000    -0.5390835  -52.9261400   -21.4640200   37.3452900   -36.0292000  -71.8969100
   17787460000   -32.8192200  -78.5582700   -21.5374000   40.6860400    -0.5303091  -53.1236800   -23.5755200 -148.9220000 
 		     -21.6340000   39.6891800   -33.9887300  -78.1641200   -23.6250500 -149.9116000    -0.5431107  -53.3912000
 		      -0.5288051  -53.0437200   -23.8026500 -149.3983000   -35.6199600  -77.2453200   -21.5281900   37.3199300
 		     -23.6223100 -148.8898000    -0.5380251  -53.3971400   -21.4557800   36.7777700   -36.0039700  -58.5677400
   17857450000   -33.0588100  -75.6826900   -21.6484100   39.3444100    -0.5313241  -53.2378900   -23.5919800 -148.8340000 
 		     -21.5366500   39.9209000   -33.6135400  -80.9247900   -23.5356000 -149.6546000    -0.5494624  -53.3427700
 		      -0.5312170  -53.1106600   -23.6546900 -148.9006000   -36.6416800  -74.2983900   -21.4605600   36.8708300
 		     -23.6234800 -148.9568000    -0.5569030  -53.4071700   -21.4740600   36.7303800   -36.1131300  -68.4678000
   17927440000   -32.5958100  -77.1733800   -21.4805300   40.8923900    -0.5374666  -53.4183200   -23.4839500 -149.2556000 
 		     -21.6099200   39.3885700   -34.5227300  -77.2205000   -23.5783200 -150.2657000    -0.5471452  -53.6388900
 		      -0.5329071  -53.3567000   -23.6465900 -151.9218000   -36.4301100  -69.0718000   -21.4696100   36.7102300
 		     -23.5378100 -148.4158000    -0.5570899  -53.5508200   -21.4637800   36.7178600   -36.0779300  -74.4225700
   17997430000   -32.8170700  -75.2263200   -21.5912100   39.1433700    -0.5374397  -53.6476700   -23.5053300 -149.1862000 
 		     -21.5949800   39.4785000   -35.2596500  -70.1360200   -23.4373900 -150.2432000    -0.5507156  -53.7096700
 		      -0.5273902  -53.6426600   -23.5881200 -150.7977000   -37.2854500  -74.6131600   -21.4927900   36.7102600
 		     -23.5384600 -148.8306000    -0.5494516  -53.7294200   -21.5197000   36.7040000   -35.8224300  -76.1732600
   18067420000   -33.2712200  -79.9086400   -21.5610500   40.4370800    -0.5382003  -53.9264100   -23.4679600 -148.9232000 
 		     -21.5684100   39.4247600   -33.7875100  -70.1326400   -23.4796000 -150.3337000    -0.5471693  -54.0619300
 		      -0.5198693  -53.8641200   -23.3964500 -150.9073000   -36.6899500  -72.3862100   -21.5307300   36.2945600
 		     -23.5521500 -148.7748000    -0.5540562  -54.0252200   -21.5226700   36.2164000   -36.6514400  -83.1474200
   18137410000   -32.8253600  -79.3586000   -21.5782900   39.6120800    -0.5471455  -54.1160400   -23.4044200 -149.0277000 
 		     -21.6639600   39.3068100   -34.0432500  -84.5043500   -23.4479900 -150.0089000    -0.5523271  -54.2072500
 		      -0.5322033  -54.0830600   -23.5148600 -150.8774000   -35.3617400  -78.0714100   -21.5793800   36.5812200
 		     -23.4151800 -150.0794000    -0.5460349  -54.2756500   -21.6028900   36.3521400   -35.6490400  -78.2408100
   18207400000   -32.4858600  -79.2197400   -21.6432900   39.2009200    -0.5398684  -54.2710800   -23.3490700 -149.5076000 
 		     -21.5782700   39.4507700   -34.7607900  -77.7129700   -23.4238400 -150.6853000    -0.5480058  -54.4076100
 		      -0.5353599  -54.1983600   -23.5451900 -150.6717000   -36.3148400  -78.7402600   -21.5783100   36.2360700
 		     -23.4279700 -149.9365000    -0.5426962  -54.3803400   -21.5863900   35.8191300   -36.6795500  -75.1817700
   18277390000   -31.9378700  -78.4755600   -21.6352200   39.0472600    -0.5349351  -54.4313000   -23.2985700 -150.2183000 
 		     -21.7630200   39.2420400   -32.9755300  -77.8992500   -23.4132700 -150.8809000    -0.5450252  -54.6183900
 		      -0.5383647  -54.4058600   -23.4696500 -150.9526000   -37.2505100  -75.2299600   -21.6133200   35.8330300
 		     -23.3921500 -150.7114000    -0.5554557  -54.5263100   -21.5978600   35.6193100   -37.1967000  -70.0149200
   18347380000   -31.9853100  -74.7119300   -21.8554700   39.5386100    -0.5382484  -54.5952100   -23.3387100 -149.9357000 
 		     -21.6481400   39.3250800   -33.8832800  -80.6407200   -23.3222500 -151.4357000    -0.5490782  -54.7952600
 		      -0.5276433  -54.6125100   -23.2690300 -150.5800000   -36.8741100  -75.4679300   -21.6643000   35.7127700
 		     -23.3845900 -150.9493000    -0.5413370  -54.7434900   -21.6380800   35.6786200   -36.2365200  -72.9722000
   18417370000   -33.0838800  -78.6415000   -21.7639500   38.3703200    -0.5513636  -54.8864800   -23.2799500 -150.0071000 
 		     -21.6415000   38.7895700   -34.2146000  -79.8011600   -23.3383900 -151.4790000    -0.5556378  -55.0112400
 		      -0.5406078  -54.7478400   -23.5080200 -150.1032000   -36.5357800  -82.7630800   -21.6018100   35.7607400
 		     -23.2973700 -150.6741000    -0.5552509  -54.9057600   -21.6041300   35.6516200   -37.1367700  -80.4521500
   18487360000   -32.7130400  -80.3002800   -21.5721500   37.7340500    -0.5533993  -55.0868900   -23.2049000 -150.7398000 
 		     -21.7601800   38.9673500   -33.8452800  -82.2345200   -23.2957700 -151.8651000    -0.5558046  -55.2509100
 		      -0.5392392  -55.0315400   -23.3469100 -151.5962000   -36.3521300  -82.7598700   -21.6655100   35.5838500
 		     -23.3440800 -151.4372000    -0.5657214  -55.2779600   -21.6400200   35.4319100   -37.2029500  -77.5523200
   18557350000   -32.5238500  -83.0818900   -21.5704100   37.9419600    -0.5432815  -55.2450400   -23.1987900 -150.2486000 
 		     -21.7308100   38.7337400   -33.4957800  -87.2738300   -23.2831900 -151.8864000    -0.5507156  -55.4080100
 		      -0.5407878  -55.2027200   -23.2735400 -151.4591000   -35.5533900  -75.7518200   -21.7008400   35.2378700
 		     -23.2085400 -150.1240000    -0.5583705  -55.4059300   -21.7022900   34.9755000   -36.1705500  -77.6418500
   18627340000   -32.7363900  -84.8093200   -21.7172500   37.3793700    -0.5560603  -55.4298700   -23.1551900 -150.8526000 
 		     -21.8463600   38.1656200   -33.4317100  -78.9600400   -23.2492200 -151.7894000    -0.5616485  -55.6269800
 		      -0.5505663  -55.4441300   -23.1738600 -151.2320000   -36.1723100  -81.4613500   -21.6857400   35.3522300
 		     -23.1791100 -151.1748000    -0.5637432  -55.6007400   -21.6927900   35.1493100   -36.2089300  -83.4452400
   18697330000   -32.2537400  -84.0792300   -21.7663400   38.5194900    -0.5456542  -55.5912400   -23.1028200 -150.5713000 
 		     -21.8264800   38.0068900   -33.6701800  -86.6616000   -23.1931300 -151.8392000    -0.5512645  -55.8537800
 		      -0.5469030  -55.5949700   -23.3636900 -151.2806000   -35.9787900  -81.8977100   -21.7517000   35.3754000
 		     -23.2231700 -151.4918000    -0.5415657  -55.7520700   -21.7130500   34.9945200   -35.8124800  -81.8961600
   18767320000   -32.1823700  -76.1105500   -21.8447100   39.1596100    -0.5547138  -55.8496300   -23.1284400 -151.2242000 
 		     -21.8952800   38.6445100   -33.9172200  -83.3481800   -23.0875100 -151.8765000    -0.5570195  -56.0679200
 		      -0.5481735  -55.8644300   -23.1932300 -151.5428000   -36.0772900  -88.4714600   -21.6960000   34.8661100
 		     -23.0509800 -150.4856000    -0.5734797  -56.0333600   -21.7594700   34.9467000   -36.7609500  -79.8517400
   18837310000   -33.0429200  -81.7182500   -21.9389400   37.5041600    -0.5555010  -56.1219700   -23.0427100 -151.2762000 
 		     -21.8907100   37.5707400   -34.5617900  -87.4755900   -23.2057600 -152.2511000    -0.5639982  -56.1776500
 		      -0.5541356  -56.0295500   -23.2518500 -152.5872000   -35.7147300  -84.1961400   -21.7709600   34.8094600
 		     -23.0820500 -150.9160000    -0.5638667  -56.0798800   -21.8175000   34.3641100   -37.0042400  -84.2679900
   18907300000   -32.5526000  -86.3451700   -22.0296000   38.1413800    -0.5472142  -56.3098000   -22.9768700 -151.4358000 
 		     -21.7907800   38.5296600   -33.0883300  -93.6945400   -23.1141400 -152.5604000    -0.5573562  -56.5173100
 		      -0.5570881  -56.2376900   -23.1025900 -152.8567000   -35.8208700  -85.5291100   -21.7893000   34.3515400
 		     -23.1385200 -152.4984000    -0.5600600  -56.3527200   -21.7954100   34.1204400   -37.1068800  -79.6250700
   18977290000   -32.7803300  -89.7429100   -21.8721500   37.3700300    -0.5589814  -56.5331400   -22.9529300 -151.9511000 
 		     -22.0305300   38.0171400   -33.2599300  -85.7707400   -23.0832400 -152.9166000    -0.5556784  -56.5981300
 		      -0.5460639  -56.4620200   -22.9784500 -152.5339000   -35.1957900  -92.0440100   -21.8253500   34.4391900
 		     -22.8716500 -151.8550000    -0.5588875  -56.6016700   -21.8497200   34.3015100   -36.4619000  -75.7456400
   19047280000   -32.4188700  -86.7206000   -21.8620000   37.6841800    -0.5475760  -56.6120900   -22.9628600 -151.7411000 
 		     -21.9724400   37.9374700   -34.6121300  -92.4400800   -22.9676300 -152.8806000    -0.5479149  -56.8904800
 		      -0.5484955  -56.6474800   -23.0574800 -153.0990000   -36.3662600  -92.0433300   -21.8449800   34.1590500
 		     -23.0215700 -151.7838000    -0.5543233  -56.8308800   -21.9168100   34.2089200   -35.0706700  -82.9530500
   19117270000   -32.6934900  -88.8619800   -22.0136200   38.4128500    -0.5577897  -56.7460700   -22.9196000 -152.0177000 
 		     -21.9744000   38.1573700   -33.2774200  -87.4455000   -22.9736200 -152.5813000    -0.5604602  -57.1081000
 		      -0.5656621  -56.7259600   -23.1132000 -153.2042000   -35.8194800  -91.0873400   -21.9130200   34.1325100
 		     -22.7980300 -152.3681000    -0.5712875  -57.0087100   -21.9060100   34.2030800   -35.8959200  -85.2038400
   19187260000   -32.9552800  -90.2993200   -21.9081500   38.2470100    -0.5591987  -57.0904100   -22.8490300 -152.1839000 
 		     -21.9864500   37.7523300   -34.3408500  -98.5656100   -22.9126200 -152.9426000    -0.5627527  -57.1996000
 		      -0.5602927  -57.1146500   -22.9971000 -152.6186000   -35.8570400  -93.2905800   -21.9154500   34.0975800
 		     -22.9683700 -151.8438000    -0.5767995  -57.1935400   -21.9290600   33.9492700   -36.2575700  -84.1800800
   19257250000   -32.6165200  -87.4669600   -22.1162900   37.9949800    -0.5501420  -57.3150300   -22.7907800 -152.1487000 
 		     -22.0045400   37.5182500   -33.9335300  -97.3889500   -22.8897500 -153.2449000    -0.5617840  -57.4881300
 		      -0.5450992  -57.2334400   -22.8328800 -153.4711000   -35.8837800  -88.6881300   -21.9107800   34.0653500
 		     -22.7775200 -153.0474000    -0.5600399  -57.4258400   -21.9558300   33.6613200   -35.6908600  -93.8050600
   19327240000   -32.8449300  -88.2351000   -22.0342200   37.5391200    -0.5546327  -57.3985400   -22.7731300 -152.7127000 
 		     -21.9567900   37.2611500   -33.5632200  -84.1045500   -22.8357700 -153.5667000    -0.5583255  -57.6682200
 		      -0.5513216  -57.4123800   -22.9001100 -154.4237000   -36.3602200  -94.8630100   -21.9983400   33.6076200
 		     -22.8892600 -152.6889000    -0.5821235  -57.6727000   -21.9420900   33.9110900   -36.2978200  -84.4540800
   19397230000   -32.5964000  -90.2761500   -21.9854900   38.1102000    -0.5642715  -57.6744100   -22.7473100 -152.7562000 
 		     -21.9926100   36.8731800   -32.9920300  -89.5408900   -22.8100000 -152.8942000    -0.5645211  -57.8306700
 		      -0.5564637  -57.6203300   -22.8625800 -152.9653000   -35.7667700  -95.9481000   -21.9458600   34.0166500
 		     -22.8109100 -152.6464000    -0.5786904  -57.6780500   -22.0310200   33.6180400   -36.8289100  -88.1050900
   19467220000   -32.4980500  -93.8644000   -22.2617300   37.1842400    -0.5680633  -57.9148000   -22.7871600 -153.1492000 
 		     -22.0250900   37.6922400   -33.4124100  -94.5596500   -22.8481400 -153.7965000    -0.5634836  -58.0657300
 		      -0.5527387  -57.9187400   -22.9418600 -153.6030000   -35.5630400  -95.5362500   -22.0120800   33.2172100
 		     -22.7969600 -152.8977000    -0.5596563  -57.9225100   -21.9976700   33.4372200   -35.8658100  -93.4400000
   19537210000   -32.1053400  -93.5586200   -22.1013500   36.4604100    -0.5672777  -58.1040800   -22.7117000 -153.0943000 
 		     -22.0360400   37.3555600   -31.6950200  -93.9215700   -22.8128200 -154.1656000    -0.5681317  -58.2610700
 		      -0.5530077  -58.0184200   -22.7798000 -154.1310000   -35.4759600  -92.4160800   -22.0535400   33.2374500
 		     -22.6256100 -153.2930000    -0.5764512  -58.2033700   -22.0828700   33.2431000   -36.1397400  -95.8048200
   19607200000   -32.8250400  -89.3147900   -22.1937500   37.0051100    -0.5652649  -58.3272200   -22.5998600 -153.1528000 
 		     -22.2606000   38.0172200   -33.9675800  -96.2292500   -22.7210000 -153.9685000    -0.5709527  -58.4541900
 		      -0.5512857  -58.2232300   -22.6667400 -153.0135000   -36.1546500  -96.7795100   -22.0405700   33.1027800
 		     -22.6435000 -152.3847000    -0.5785207  -58.3185800   -22.0702500   33.3943500   -37.4974000 -101.2517000
   19677190000   -33.0694800  -83.9362700   -22.2460700   37.1334200    -0.5612578  -58.4492200   -22.6925800 -153.5956000 
 		     -22.1697800   36.6357000   -33.6952300  -92.6859600   -22.7238700 -154.6221000    -0.5639278  -58.6896200
 		      -0.5495162  -58.3660500   -22.5545700 -154.5231000   -36.1558000 -100.6806000   -22.1288600   32.8683900
 		     -22.6741600 -153.8036000    -0.5697147  -58.6294700   -22.1301300   33.0419900   -36.5372700  -90.8204900
   19747180000   -32.9839800  -93.5068300   -22.1107500   36.5680200    -0.5578769  -58.6143800   -22.5837600 -153.6338000 
 		     -22.1708400   37.3435700   -34.0152700  -95.7693400   -22.6708500 -154.7171000    -0.5615683  -58.8629100
 		      -0.5580897  -58.6691100   -22.8562200 -154.2862000   -35.4191600  -99.5933800   -22.1017200   32.9244600
 		     -22.6160900 -153.1882000    -0.5814764  -58.7218100   -22.1332900   33.2373400   -36.3456400 -101.8359000
   19817170000   -32.5004800  -93.4959800   -22.2157000   36.7070900    -0.5669282  -58.8268100   -22.5837400 -153.8727000 
 		     -22.2531400   36.9459400   -32.8435000  -93.3420100   -22.5785300 -154.6708000    -0.5675479  -58.9756200
 		      -0.5613721  -58.8302800   -22.7361300 -155.1868000   -36.0914300 -102.8338000   -22.1794700   32.6308600
 		     -22.5428000 -153.6111000    -0.5772308  -58.9878300   -22.1548400   32.7289500   -35.7696100 -100.5532000
   19887160000   -32.2191900  -91.2165100   -22.1865400   36.8784200    -0.5662717  -59.1751300   -22.5070300 -154.0161000 
 		     -22.3848800   37.5316500   -33.0771000  -85.4562500   -22.5770500 -155.0476000    -0.5668008  -59.2700000
 		      -0.5600556  -59.1223000   -22.5110600 -155.9996000   -36.2954700  -99.8768600   -22.1897700   32.2888600
 		     -22.5218000 -154.7726000    -0.5522742  -59.3108700   -22.1958600   32.2469700   -36.7134400  -96.2932200
   19957150000   -32.6606000  -95.4527400   -22.3510400   36.6924600    -0.5495764  -59.3077100   -22.4627700 -154.2743000 
 		     -22.2322600   35.2755700   -32.7907500  -94.4612400   -22.5220100 -155.2631000    -0.5773706  -59.4844800
 		      -0.5577050  -59.2200100   -22.6738200 -155.5272000   -36.0116300  -98.9029900   -22.1679700   32.6507300
 		     -22.6125700 -154.0259000    -0.5776510  -59.4270600   -22.2379300   32.5383100   -36.8647700 -109.9256000
   20027140000   -32.4189100  -95.7546800   -22.1238700   37.6548500    -0.5667545  -59.5890400   -22.4585700 -155.2314000 
 		     -22.3092800   35.7204800   -33.7287300  -95.4129700   -22.5037100 -155.3631000    -0.5898710  -59.7075700
 		      -0.5757191  -59.5463900   -22.4092600 -155.2891000   -36.2422000 -109.8286000   -22.3100300   32.3220100
 		     -22.5575700 -154.2201000    -0.5620261  -59.4531600   -22.2865400   32.0354600   -35.7095200  -96.3888900
   20097130000   -31.9790100  -87.0102200   -22.3810600   36.3950400    -0.5489892  -59.7483400   -22.5344500 -155.1677000 
 		     -22.3910500   36.9639100   -32.3912600  -92.1652500   -22.5070800 -155.4958000    -0.5688027  -59.9663200
 		      -0.5489789  -59.6475600   -22.6587400 -155.4948000   -35.8115900  -99.4839000   -22.3176700   31.9347300
 		     -22.4795500 -155.1797000    -0.5729397  -60.0014300   -22.3306000   31.8190400   -34.6076500  -99.8491800
   20167120000   -32.6986700  -99.9458000   -22.3395400   35.8457600    -0.5650414  -59.9252100   -22.4284000 -155.2296000 
 		     -22.4870200   35.6865300   -33.6391400  -96.3291500   -22.4621000 -155.9836000    -0.5688281  -60.2188200
 		      -0.5713060  -59.8662800   -22.6021800 -155.7838000   -35.6117600 -104.0210000   -22.3159800   32.0783100
 		     -22.2810300 -154.5654000    -0.5788549  -60.2725200   -22.3405600   32.0991700   -36.2184000 -113.4696000
   20237110000   -33.4814500  -89.2677800   -22.4587800   36.5749900    -0.5828407  -60.1038300   -22.3469500 -154.9678000 
 		     -22.4515500   35.8992700   -32.9855300  -98.7312100   -22.4232100 -155.8926000    -0.5779866  -60.3190800
 		      -0.5774153  -60.1612800   -22.2807000 -156.6109000   -36.0604600 -108.4388000   -22.4909900   31.3315800
 		     -22.4074900 -155.5298000    -0.5900312  -60.2563900   -22.3114700   31.5675600   -36.5480100 -104.0680000
   20307100000   -31.2677300 -101.9109000   -22.3708400   38.7302300    -0.5683846  -60.4007500   -22.3529800 -155.4847000 
 		     -22.3616000   37.5203200   -31.3988000  -98.8349200   -22.3758800 -156.1332000    -0.5754167  -60.4408300
 		      -0.5734171  -60.2766400   -22.5319900 -155.9141000   -35.6538900 -100.5046000   -22.4180800   31.4195600
 		     -22.3451300 -155.1637000    -0.5802801  -60.4372700   -22.3665100   31.2692000   -36.1117200  -99.3580600
   20377090000   -31.7352800  -97.5873900   -22.5811900   37.5231600    -0.5724031  -60.6376600   -22.2516100 -155.7097000 
 		     -22.5908400   36.3441800   -32.1562000 -104.5485000   -22.3805700 -156.4445000    -0.5816049  -60.8179000
 		      -0.5770466  -60.5263600   -22.4919800 -155.4927000   -35.9824000 -106.7988000   -22.4972900   31.8340100
 		     -22.3742000 -155.1601000    -0.5970082  -60.7038500   -22.4440000   31.8606000   -34.9443500 -111.4688000
   20447080000   -31.5265800 -101.6224000   -22.5138500   36.1819100    -0.5777864  -60.7743000   -22.2611700 -155.7457000 
 		     -22.4970300   36.8575400   -35.1386000 -106.3267000   -22.3169400 -156.7817000    -0.5707779  -60.9520200
 		      -0.6015206  -60.7511600   -22.5311900 -155.5887000   -35.0217500 -106.4257000   -22.5156700   31.5720400
 		     -22.3122900 -155.8009000    -0.5620376  -60.9165200   -22.4955100   31.2363900   -37.0507800 -104.1393000
   20517070000   -32.4521700  -98.9936000   -22.7916300   35.5244500    -0.5737086  -61.0775100   -22.2175700 -156.1008000 
 		     -22.6812600   36.2374800   -34.8130300  -99.5471100   -22.3573600 -156.4841000    -0.5825956  -61.1002300
 		      -0.5803787  -60.9699700   -22.3502900 -155.8157000   -34.9010300 -107.1017000   -22.5445900   31.0264100
 		     -22.2333200 -155.6650000    -0.5927708  -61.0492000   -22.5316200   31.1483300   -36.8628700 -113.9685000
   20587060000   -31.8141400  -99.1752500   -22.5684500   37.0171800    -0.5869946  -61.0706700   -22.1395800 -156.2787000 
 		     -22.6481600   35.8518600   -32.8396700 -107.2161000   -22.2952500 -156.9602000    -0.5881830  -61.4509400
 		      -0.5740371  -61.2039800   -22.3820800 -156.9500000   -36.0908200 -104.4426000   -22.5953900   31.0327900
 		     -22.3136300 -155.2930000    -0.6210063  -61.4286200   -22.5097400   30.9974100   -37.7842000 -112.8436000
   20657050000   -30.9532000  -99.2352100   -22.8135600   36.8232500    -0.5734608  -61.3016500   -22.2200300 -155.4490000 
 		     -22.6755600   35.1061600   -33.0902600 -111.4243000   -22.2001100 -157.3938000    -0.5794207  -61.5244300
 		      -0.5760170  -61.2862900   -22.2897000 -157.3633000   -36.0304800 -108.8157000   -22.6674200   30.9830400
 		     -22.2963900 -156.2830000    -0.5757489  -61.3866300   -22.7208400   30.7650300   -35.1718600 -102.4599000
   20727040000   -31.4984100  -94.8784200   -22.4929600   35.2851600    -0.5826337  -61.5515100   -22.1370600 -156.4686000 
 		     -22.7384100   36.0347900   -31.2976700 -106.2899000   -22.2223200 -157.5122000    -0.5945310  -61.7263300
 		      -0.5827078  -61.5629800   -22.2318300 -157.2717000   -35.7094000 -114.4232000   -22.6916000   30.8039500
 		     -22.2825800 -157.1149000    -0.5948266  -61.8336400   -22.7315400   31.1834900   -35.5687700 -108.6336000
   20797030000   -31.0798000 -101.7822000   -22.5432900   34.7948900    -0.5950864  -61.7593800   -22.1195800 -157.3191000 
 		     -22.7084300   36.0145500   -33.8736500 -105.6991000   -22.1414500 -157.8500000    -0.5915977  -61.9939900
 		      -0.5682867  -61.7915400   -22.1558600 -158.3614000   -35.7197600 -115.5659000   -22.6217900   30.7001500
 		     -22.1384500 -156.6410000    -0.5879035  -61.7947100   -22.6789900   30.9697600   -38.1442800 -117.4967000
   20867020000   -32.0921700 -102.4180000   -22.6167900   36.0962100    -0.6007690  -61.9607500   -22.0875100 -157.3013000 
 		     -22.7580700   36.6914100   -32.4788600 -105.4773000   -22.1447400 -157.7472000    -0.5730330  -62.1250700
 		      -0.5716199  -62.0022000   -22.0564700 -158.6846000   -34.8520200 -118.6397000   -22.7503600   30.8054000
 		     -22.2456100 -156.5317000    -0.5971510  -62.0530700   -22.7339600   30.5230100   -36.8348000 -105.5984000
   20937010000   -32.7740100 -106.0249000   -22.7841500   35.3675300    -0.5763280  -62.1694600   -22.0172900 -157.0016000 
 		     -22.7813000   36.1614000   -32.9880000 -101.8860000   -22.0852400 -157.8340000    -0.5918268  -62.3455900
 		      -0.5941000  -62.0501700   -22.2228100 -158.2073000   -35.3031100 -120.5568000   -22.7248700   30.4885300
 		     -22.1093800 -157.7946000    -0.5820832  -62.3317000   -22.7306000   30.1160100   -35.8031600 -106.8216000
   21007000000   -31.5382200 -106.4012000   -22.8360800   34.6512600    -0.5704130  -62.3539300   -22.0159500 -157.5843000 
 		     -22.8331200   34.1092800   -32.6281800 -100.3133000   -22.0872100 -157.7840000    -0.5949819  -62.5057600
 		      -0.5670934  -62.3679500   -21.9154100 -156.7468000   -34.5197000 -118.8663000   -22.8060900   30.1034700
 		     -22.0944800 -157.7831000    -0.5667329  -62.5477700   -22.7761200   30.0848100   -37.4334100 -108.5145000
   21076990000   -31.3713400 -103.6059000   -22.8824500   36.6530600    -0.5871052  -62.6118000   -22.0026900 -157.3559000 
 		     -22.9625500   35.1920100   -33.2438900 -112.2208000   -22.0657700 -158.3707000    -0.6028061  -62.7320200
 		      -0.5765751  -62.5908500   -22.0238500 -158.7647000   -35.4280400 -120.5047000   -22.9078500   30.4279800
 		     -22.0566600 -156.9382000    -0.5930378  -62.8170500   -22.9359900   30.4073700   -35.0092000 -116.6362000
   21146980000   -31.2369500  -96.7905700   -23.0011800   35.9851600    -0.5680916  -62.7979700   -22.0023000 -157.6844000 
 		     -22.9714900   36.3532800   -32.5776300  -99.7650200   -22.1024200 -158.8855000    -0.5900300  -62.9442200
 		      -0.5559688  -62.7992100   -22.0622600 -159.0459000   -35.8490000 -115.1926000   -22.9378300   29.9126800
 		     -21.8995000 -157.6320000    -0.5890175  -62.8363800   -22.8847200   30.0401500   -35.2575800 -117.9661000
   21216970000   -31.0934400 -103.5962000   -22.8868600   35.0151200    -0.5823546  -63.0268600   -21.9089700 -158.2387000 
 		     -23.0418600   33.9998900   -34.9360200 -110.7596000   -22.0423500 -158.8982000    -0.5901448  -63.2123300
 		      -0.5702648  -63.0706300   -22.1829600 -159.1031000   -35.3098800 -109.9561000   -22.9444000   29.0112100
 		     -21.8955200 -157.3987000    -0.6042493  -63.3759700   -23.0210800   29.6454100   -35.8566900 -125.2256000
   21286960000   -31.5351000 -108.1618000   -22.8330200   34.2921200    -0.5911706  -63.2954100   -21.8761600 -157.6841000 
 		     -23.1891300   34.9488100   -33.0849400 -114.0136000   -21.9102600 -158.9554000    -0.5806721  -63.3689400
 		      -0.5821714  -63.2467900   -21.9218900 -158.0478000   -35.5442700 -125.9629000   -22.9178000   29.4354700
 		     -21.8351900 -157.9408000    -0.5612885  -63.3053000   -22.9539300   29.5793600   -36.0322700 -124.7196000
   21356950000   -31.8946800 -110.2892000   -23.1757200   35.9063500    -0.5884590  -63.4274800   -21.9578000 -158.1020000 
 		     -23.0994200   35.9392200   -32.4732800 -118.0103000   -21.9765200 -159.1753000    -0.5830648  -63.6260500
 		      -0.5830905  -63.3030200   -22.1646200 -159.2226000   -35.3224300 -120.1504000   -23.0845400   29.7258800
 		     -21.8260400 -157.6767000    -0.6210197  -63.7301800   -23.0819800   29.3213700   -35.7774000 -118.8319000
   21426940000   -30.8477000 -112.8990000   -23.1109400   35.3241800    -0.5935358  -63.6784300   -21.9143800 -158.6167000 
 		     -23.2880400   35.4272500   -30.4236000 -112.2430000   -21.9754300 -159.1255000    -0.5765128  -63.8879900
 		      -0.6041443  -63.5528200   -21.9103200 -157.8730000   -34.8969600 -113.2048000   -23.1876200   29.0622700
 		     -21.8108900 -158.6685000    -0.5706456  -63.9325500   -23.1701800   29.0464600   -36.2436300 -105.1771000
   21496930000   -30.5098200 -111.9090000   -23.0905600   34.2776600    -0.5874293  -63.9297700   -21.8643200 -158.5663000 
 		     -23.1952800   35.6029200   -31.0741700 -110.5815000   -21.8614900 -159.5375000    -0.5940353  -64.1343800
 		      -0.6003924  -63.7402500   -21.9074800 -160.3285000   -35.1481800 -126.0015000   -23.1987500   29.4403900
 		     -22.0366300 -157.9144000    -0.5867584  -63.9769000   -23.2087100   29.2955600   -35.0081300 -122.9333000
   21566920000   -30.4462200 -109.2456000   -23.2301400   35.0468600    -0.6006712  -64.1272800   -21.7414300 -159.1273000 
 		     -23.1944800   34.8496400   -31.9505200 -115.7360000   -21.7708900 -159.4462000    -0.5880734  -64.2752800
 		      -0.5729182  -64.0999500   -21.9100300 -158.8965000   -36.1946700 -118.6296000   -23.2558600   28.7606000
 		     -21.7841800 -159.1229000    -0.5939652  -64.1129100   -23.1904200   28.9218600   -35.2727500 -117.6598000
   21636910000   -32.2614900 -112.8916000   -23.1154800   33.2519300    -0.5891393  -64.2631800   -21.7282300 -158.9388000 
 		     -23.1668200   33.9964600   -32.1064000 -107.4266000   -21.8425000 -160.2429000    -0.5775806  -64.4285700
 		      -0.5645497  -64.3174700   -21.9286700 -159.5496000   -34.3730400 -122.2803000   -23.2412200   28.8571200
 		     -21.8462200 -158.8739000    -0.5787644  -64.5082800   -23.2712400   29.4970000   -35.1022400 -120.5599000
   21706900000   -30.9073500 -116.1416000   -23.2413500   35.1444200    -0.6047699  -64.4467000   -21.7298300 -159.1134000 
 		     -23.3741000   35.2465100   -30.3550800 -122.6492000   -21.7932400 -159.8293000    -0.5800192  -64.5510500
 		      -0.6102567  -64.5466600   -21.7705100 -159.6974000   -34.7988100 -125.9640000   -23.3251700   28.2413300
 		     -21.5742200 -158.9276000    -0.5734953  -64.6396800   -23.3211000   28.8219500   -36.6710200 -123.1041000
   21776890000   -31.3139800 -109.9176000   -23.3259400   35.7103100    -0.6100643  -64.7135600   -21.7040200 -160.0069000 
 		     -23.4441000   33.8370800   -33.1443200 -105.2250000   -21.8194600 -160.2461000    -0.6249550  -64.8461900
 		      -0.5887895  -64.6330600   -21.6663400 -159.1203000   -35.2006500 -122.8948000   -23.4436100   28.0545800
 		     -21.8036900 -159.9648000    -0.6159939  -64.8257200   -23.3926700   28.2674900   -38.1723800 -117.8589000
   21846880000   -31.0556200 -118.2674000   -23.4912100   34.9352100    -0.5968155  -64.8434800   -21.6591500 -160.0978000 
 		     -23.5042100   35.3733400   -30.5861000 -112.0119000   -21.7619600 -160.2869000    -0.5951205  -65.1127300
 		      -0.5935501  -64.8543900   -21.8491800 -161.1758000   -34.4987400 -117.9916000   -23.4285300   28.3054400
 		     -21.6914500 -160.1588000    -0.5739642  -65.0790900   -23.5038400   28.5456900   -35.5241600 -119.9210000
   21916870000   -31.0790400 -117.3903000   -23.4532100   34.8888700    -0.6088821  -65.0791400   -21.6180900 -159.9853000 
 		     -23.6936600   33.5538200   -31.3339200 -108.7283000   -21.7096700 -160.7343000    -0.6048185  -65.1734200
 		      -0.6148244  -65.0070000   -21.7015600 -161.0454000   -34.9029200 -127.6077000   -23.4468500   28.4119500
 		     -21.6232700 -160.0274000    -0.6021331  -65.2813600   -23.4535900   28.3540800   -36.9036200 -127.1936000
   21986860000   -30.8167600 -112.5830000   -23.6334500   35.8255600    -0.5902827  -65.2918100   -21.6371300 -160.3696000 
 		     -23.7707500   35.3643300   -33.0226300 -106.8144000   -21.7069700 -161.0846000    -0.6022756  -65.5144500
 		      -0.6039352  -65.2925800   -21.7564800 -160.9116000   -35.2132500 -122.7783000   -23.4676600   27.9584800
 		     -21.6753700 -160.5320000    -0.6076591  -65.5265200   -23.4549500   28.3315900   -35.9876300 -118.3478000
   22056850000   -30.6931600 -119.6825000   -23.5749100   35.9705400    -0.5995498  -65.4504100   -21.5233600 -159.9320000 
 		     -23.4994200   34.5951200   -32.9839000 -121.8641000   -21.6946700 -160.3445000    -0.6104096  -65.8338300
 		      -0.5786857  -65.4791000   -21.7683000 -160.5219000   -34.2081000 -125.2944000   -23.5860100   28.8843600
 		     -21.5845600 -160.4532000    -0.6105285  -65.7319900   -23.5824400   28.7646000   -33.7842800 -130.8092000
   22126840000   -31.2058800 -112.5901000   -23.4986900   35.6448100    -0.5781489  -65.6688500   -21.5757400 -160.0424000 
 		     -23.7158100   35.2955100   -32.6924700 -127.9828000   -21.5374800 -161.0503000    -0.6010187  -65.8791900
 		      -0.6114259  -65.6373400   -21.4956400 -161.7324000   -35.0807900 -133.8927000   -23.6739300   28.3915400
 		     -21.5904000 -159.7550000    -0.6059511  -65.8970000   -23.6115400   28.0363700   -35.0141600 -131.9282000
   22196830000   -30.9891300 -110.9279000   -23.8043300   35.8006500    -0.6074060  -65.9417700   -21.5296600 -161.1198000 
 		     -23.6733700   35.9269000   -32.9236300 -119.5219000   -21.5499000 -161.1323000    -0.6132169  -66.1329300
 		      -0.6230614  -65.9426300   -21.7175600 -162.1073000   -34.4775700 -125.6247000   -23.8248500   27.7067100
 		     -21.5051300 -161.1182000    -0.5997121  -66.0551500   -23.7560300   27.9500500   -35.8963100 -123.4353000
   22266820000   -31.4777200 -114.6665000   -23.8445200   35.3589600    -0.5980802  -66.0797500   -21.4960000 -161.2636000 
 		     -24.1293300   34.2357900   -31.0817300 -118.4218000   -21.5992100 -161.8849000    -0.6152965  -66.2936900
 		      -0.6095757  -66.1073200   -21.5874400 -162.1620000   -34.6559700 -121.4569000   -23.8441900   27.7298200
 		     -21.3071600 -160.3835000    -0.5929562  -66.2069900   -23.7355800   27.5266600   -34.1275600 -124.0356000
   22336810000   -30.4722100 -118.6262000   -23.9432100   36.6275600    -0.6155462  -66.3172700   -21.4630500 -160.6841000 
 		     -23.9624600   35.5143200   -32.6413700 -126.8819000   -21.5672500 -161.6260000    -0.6128061  -66.5016800
 		      -0.5900143  -66.2238800   -21.7150600 -160.9557000   -34.9567900 -131.1593000   -23.7924700   27.7144100
 		     -21.5288000 -160.6409000    -0.6092261  -66.5435000   -23.7714300   27.7199900   -35.4869700 -136.1673000
   22406800000   -30.5215200 -113.9430000   -23.6449700   35.1883200    -0.6011397  -66.5110100   -21.4177600 -161.1853000 
 		     -23.9373800   35.9254300   -30.8132700 -123.3586000   -21.5131400 -161.7227000    -0.6279790  -66.6889400
 		      -0.6241304  -66.5192800   -21.6330100 -162.5517000   -35.6192300 -129.6461000   -23.9863200   27.7160300
 		     -21.4884400 -161.4717000    -0.6069422  -66.5772300   -23.9242200   27.2523300   -35.1051300 -118.2057000
   22476790000   -30.8326600 -111.7454000   -23.6889200   34.9500500    -0.6163841  -66.6914600   -21.3896000 -161.2874000 
 		     -23.7901100   36.2213400   -31.6368800 -124.1297000   -21.4480700 -161.9725000    -0.6288431  -66.8691000
 		      -0.6050321  -66.7368900   -21.4108500 -162.2799000   -34.0895800 -127.0678000   -23.9638200   27.4500000
 		     -21.2662500 -160.5923000    -0.6491420  -66.9682200   -23.9048000   27.9564200   -36.2894700 -140.1741000
   22546780000   -30.1581100 -114.9439000   -24.2684400   35.2934800    -0.6013517  -66.8880200   -21.3437500 -161.0381000 
 		     -24.1942500   35.0499800   -30.4560900 -121.2974000   -21.3924000 -162.1951000    -0.6335534  -67.0892300
 		      -0.6026960  -66.9360500   -21.6271500 -161.8439000   -34.3235800 -128.8931000   -24.0957900   27.1288500
 		     -21.4611200 -161.8691000    -0.6017876  -67.0944400   -24.0972500   27.1501000   -35.1388500 -130.9591000
   22616770000   -30.8532100 -117.1143000   -23.9825400   36.1420100    -0.6042532  -67.0918700   -21.3174800 -161.9031000 
 		     -24.2480400   35.4736500   -31.2119200 -119.3915000   -21.3784200 -161.9575000    -0.6254683  -67.2846400
 		      -0.6052416  -67.1612200   -21.3740800 -161.6743000   -33.4252800 -138.1655000   -24.1059100   26.7978700
 		     -21.4150000 -161.3220000    -0.6011668  -67.3440500   -24.1143400   27.5306100   -35.4887500 -131.8496000
   22686760000   -30.1090500 -120.0217000   -24.0914000   35.7272100    -0.6021745  -67.2818600   -21.2763700 -161.4924000 
 		     -24.2471600   35.0307500   -32.2307200 -128.3076000   -21.3563300 -162.2950000    -0.6286435  -67.4766100
 		      -0.6109486  -67.3238700   -21.3161500 -163.0519000   -35.2570700 -134.4104000   -24.1514000   27.3153700
 		     -21.3263000 -161.0438000    -0.6129075  -67.3803400   -24.1096300   27.1511100   -34.0516200 -142.3835000
   22756750000   -30.2468100 -121.8266000   -24.1173200   34.3842500    -0.6093116  -67.5074400   -21.3074300 -161.9733000 
 		     -24.1684400   35.1609500   -31.3876700 -133.6427000   -21.2949500 -162.9022000    -0.6372944  -67.7465900
 		      -0.6089411  -67.4947000   -21.3066400 -163.3016000   -33.6917400 -130.4162000   -24.2954700   27.8094300
 		     -21.4328000 -161.9259000    -0.6244974  -67.6650200   -24.2300800   27.8493300   -34.4678600 -132.1629000
   22826740000   -29.9285500 -120.0074000   -24.2841500   35.6153800    -0.6156350  -67.8837100   -21.2719900 -162.2593000 
 		     -24.0585900   36.1044800   -31.3667600 -126.4127000   -21.2852000 -163.1782000    -0.6194293  -67.8264400
 		      -0.6216251  -67.7595000   -21.3410700 -162.6805000   -33.5680500 -135.9318000   -24.2841100   26.5990000
 		     -21.3563400 -162.2445000    -0.6114491  -67.9314900   -24.2965600   27.2942900   -35.0607000 -135.6086000
   22896730000   -30.7089800 -120.5514000   -24.1655100   36.9358400    -0.6310633  -67.9579500   -21.2221900 -162.8542000 
 		     -24.2246600   36.0308200   -30.8010600 -119.9850000   -21.2750500 -162.7103000    -0.6387938  -68.0909500
 		      -0.6176355  -67.9068400   -21.4141500 -163.7261000   -32.9418500 -139.0764000   -24.3489000   27.2827500
 		     -21.2434300 -163.0031000    -0.6239056  -67.9889600   -24.3856000   26.8348800   -34.5846800 -150.3022000
   22966720000   -30.0499900 -126.3071000   -24.6004500   36.5134600    -0.6251371  -68.1651100   -21.2128600 -162.8024000 
 		     -24.2935000   35.1355000   -30.3308400 -125.6320000   -21.2558600 -162.7541000    -0.6345054  -68.2530700
 		      -0.6267080  -67.9936400   -21.2593100 -162.3590000   -32.7878900 -136.1460000   -24.4084100   27.0256200
 		     -21.1765000 -162.6912000    -0.6338037  -68.1621500   -24.5161600   26.6769400   -35.2548300 -139.0389000
   23036710000   -30.6221400 -127.7941000   -24.3702500   34.3344300    -0.6129185  -68.3398600   -21.0882500 -162.3715000 
 		     -24.4533700   35.6750000   -31.9304000 -121.1690000   -21.1056800 -163.3172000    -0.6219160  -68.4020800
 		      -0.6081582  -68.2852700   -21.2437200 -163.5592000   -33.5518100 -145.6986000   -24.5004900   26.9035000
 		     -21.2164600 -162.8485000    -0.6268201  -68.3898300   -24.4713200   26.8437700   -33.9133000 -132.6178000
   23106700000   -30.4382200 -120.2569000   -24.1891300   36.1867800    -0.6183836  -68.5599100   -21.2110200 -163.3486000 
 		     -24.2805600   35.1774600   -32.1543900 -127.2201000   -21.1534700 -163.5653000    -0.6295830  -68.6549900
 		      -0.6241504  -68.5261600   -21.3167300 -163.4060000   -33.5509100 -133.3279000   -24.5814600   27.7520100
 		     -21.2382200 -163.5547000    -0.6180550  -68.7142200   -24.5440500   26.8668500   -35.5501400 -145.4806000
   23176690000   -29.9580500 -127.3246000   -24.9227000   37.4001700    -0.6076237  -68.7600200   -21.0392600 -163.4052000 
 		     -24.7166400   34.9834400   -30.3159800 -122.2626000   -21.0999800 -164.4678000    -0.6317938  -68.8903400
 		      -0.6064701  -68.6680800   -21.1345800 -163.4960000   -33.2619200 -136.2621000   -24.6332600   27.3470100
 		     -21.1035100 -162.8287000    -0.6186866  -68.9382900   -24.7004400   26.3902100   -35.0316500 -137.9852000
   23246680000   -30.0259100 -123.3474000   -24.5948700   35.9042700    -0.6347798  -68.8940100   -21.1305600 -163.4827000 
 		     -24.7018700   36.2816100   -30.7498300 -130.2970000   -21.0228300 -163.9221000    -0.6341692  -69.1539900
 		      -0.6246818  -68.9366800   -21.0488900 -164.4459000   -34.3240600 -146.6730000   -24.7493300   27.3689100
 		     -21.1839000 -163.1334000    -0.6264702  -69.0714300   -24.7645200   27.1538400   -33.6046200 -137.6738000
   23316670000   -30.1967800 -124.5748000   -24.8656300   35.9834700    -0.6066294  -69.2213300   -21.1034700 -163.9182000 
 		     -24.7390800   36.9747800   -31.2907400 -124.3677000   -21.0915100 -164.7006000    -0.6227367  -69.3620800
 		      -0.6081069  -69.1290700   -21.1661600 -164.2741000   -32.6791500 -139.1545000   -24.8447100   26.7456000
 		     -21.0537500 -163.9773000    -0.6361372  -69.3110700   -24.7369600   27.1330000   -33.9957800 -136.4273000
   23386660000   -29.6964500 -125.7784000   -24.8783300   36.7108100    -0.6121694  -69.3027800   -21.0159100 -163.9595000 
 		     -24.7276900   36.3633200   -31.0740800 -121.8637000   -21.1058100 -164.3551000    -0.6300397  -69.5047700
 		      -0.6002373  -69.2981600   -21.1136300 -164.4538000   -32.6274000 -137.7270000   -24.9506200   25.9389300
 		     -21.0448000 -164.1454000    -0.6108708  -69.4245500   -24.9336400   25.8410000   -35.3480900 -136.1463000
   23456650000   -29.9605900 -128.5092000   -24.7607600   35.9224100    -0.6300026  -69.4441700   -20.9700500 -163.9241000 
 		     -24.7168300   35.1461300   -31.3482300 -129.1804000   -20.9789500 -164.2542000    -0.6280724  -69.7676400
 		      -0.6247520  -69.4898000   -21.0346200 -163.9632000   -32.8922300 -141.3118000   -25.0475700   26.9468300
 		     -20.9985400 -164.0078000    -0.6318387  -69.7638500   -24.9212900   26.5524300   -33.2658700 -137.2326000
   23526640000   -30.8393400 -124.1053000   -24.6326500   36.7158300    -0.6341093  -69.7795400   -20.9489200 -164.6719000 
 		     -24.8754200   38.0195700   -30.4092800 -133.4688000   -20.9964300 -164.9803000    -0.6342930  -69.9206500
 		      -0.6313977  -69.7571900   -21.0827200 -165.0580000   -32.9411800 -143.4715000   -25.0214200   26.2018900
 		     -21.0000600 -163.8805000    -0.6435678  -69.9045600   -25.1140400   26.9046400   -34.5328800 -137.0098000
   23596630000   -30.2570500 -129.6235000   -24.7755700   37.5323600    -0.6327837  -69.9671900   -20.8887900 -164.7282000 
 		     -25.0042700   35.5753400   -31.2430000 -122.5000000   -21.0143600 -165.1531000    -0.6321809  -70.1932700
 		      -0.6230336  -69.9593500   -21.0753000 -165.4798000   -32.5876600 -146.8090000   -25.1478900   26.0449900
 		     -20.9599700 -164.9473000    -0.6438651  -70.2669900   -25.1501600   26.1089400   -34.9550800 -146.2883000
   23666620000   -29.6846800 -128.7375000   -24.8997700   36.0403400    -0.6351549  -70.1841900   -20.9636800 -164.5946000 
 		     -25.0394000   37.2372200   -31.2609300 -136.0134000   -20.8690300 -165.3268000    -0.6333407  -70.3068500
 		      -0.6233127  -70.1084300   -20.8778700 -165.0901000   -33.2808600 -147.0163000   -25.1420400   26.3039400
 		     -20.9026300 -164.8748000    -0.6339290  -70.3466600   -25.1763500   26.4734800   -32.7531100 -142.6237000
   23736610000   -29.9249100 -124.2693000   -25.0761800   38.1838300    -0.6405353  -70.4610100   -20.8529900 -164.8123000 
 		     -25.2235800   36.0740600   -31.9901000 -132.3227000   -20.8419800 -165.4817000    -0.6395692  -70.5288500
 		      -0.6146466  -70.4611700   -20.8484500 -164.7241000   -33.0173900 -146.5541000   -25.3020300   26.3407900
 		     -20.8948900 -164.7252000    -0.6364764  -70.4016400   -25.3473300   26.2493200   -33.8827100 -140.5103000
   23806600000   -30.4277200 -132.6179000   -25.2991800   36.4767700    -0.6280488  -70.5790400   -20.8370200 -165.0250000 
 		     -25.3145500   37.0910100   -31.7152000 -139.7963000   -20.9023700 -165.7884000    -0.6253852  -70.7272300
 		      -0.6266245  -70.4399600   -20.9663800 -165.6193000   -32.5067100 -146.2309000   -25.3841900   26.1871300
 		     -20.8321500 -165.8413000    -0.6347897  -70.8882900   -25.3225400   26.6768600   -33.5874300 -151.7878000
   23876590000   -29.1207100 -130.2826000   -25.2981900   38.2547100    -0.6259311  -70.8288900   -20.8014200 -165.1690000 
 		     -24.9581700   37.1836300   -30.4105700 -139.0281000   -20.8694900 -166.3717000    -0.6464821  -70.9951400
 		      -0.6306428  -70.6979600   -20.7908900 -167.3373000   -33.1249900 -146.6633000   -25.4431400   27.2067400
 		     -20.8728300 -164.8916000    -0.6550678  -71.0294600   -25.4423200   26.1959600   -33.5009300 -144.2525000
   23946580000   -29.5098600 -128.0122000   -25.1253100   36.6296100    -0.6358678  -71.0087300   -20.8078200 -165.1075000 
 		     -25.2295200   38.8031600   -31.5394500 -133.1946000   -20.8469700 -165.7629000    -0.6365094  -71.2133900
 		      -0.6291207  -70.8909700   -20.8177000 -166.4264000   -32.4330400 -147.8323000   -25.5554500   26.2143800
 		     -20.8009400 -165.2090000    -0.6272068  -71.0331500   -25.5650200   26.2511400   -33.5938800 -147.7894000
   24016570000   -29.4979500 -130.0192000   -25.2593100   37.1323500    -0.6315076  -71.2418600   -20.7666600 -165.6243000 
 		     -25.5567800   37.7755600   -29.0655900 -132.0731000   -20.7607800 -166.1399000    -0.6308607  -71.4267000
 		      -0.6277715  -70.9747900   -20.9049200 -166.1896000   -32.5762900 -145.6347000   -25.6718900   26.2749600
 		     -20.6705400 -165.7920000    -0.6523885  -71.4375500   -25.6841100   26.4083700   -33.0275700 -149.1361000
   24086560000   -29.6521500 -136.0651000   -25.3993800   38.4401800    -0.6436336  -71.4356400   -20.6594900 -166.0045000 
 		     -25.3769200   36.6911900   -30.3834700 -128.6539000   -20.8019800 -166.6093000    -0.6414061  -71.5109700
 		      -0.6568311  -71.4822300   -20.7768200 -166.8114000   -33.0109100 -152.2980000   -25.6916300   27.0736800
 		     -20.7758000 -165.6042000    -0.6576843  -71.6051500   -25.6905000   26.5081000   -33.0851100 -155.7820000
   24156550000   -29.1849500 -127.9907000   -25.5990400   38.2947700    -0.6370336  -71.6702700   -20.7058100 -165.8673000 
 		     -25.4794200   36.5546500   -30.2254800 -146.4218000   -20.7207700 -166.7789000    -0.6488415  -71.8345900
 		      -0.6327307  -71.6917300   -20.6699400 -166.5872000   -32.4212200 -147.4822000   -25.8926700   26.3501400
 		     -20.8078700 -165.8192000    -0.6386262  -71.7684600   -25.8729600   26.8863500   -31.9757800 -143.3219000
   24226540000   -30.0803800 -131.1395000   -25.5497000   38.0722100    -0.6385159  -71.8177100   -20.7052200 -166.0565000 
 		     -25.6525500   38.1393400   -29.6364100 -140.0416000   -20.7220400 -167.4420000    -0.6433877  -72.0268900
 		      -0.6402221  -71.7974500   -20.8012100 -166.3368000   -32.1973900 -147.9097000   -25.9417300   25.9885500
 		     -20.6919400 -166.2376000    -0.6446269  -71.9271200   -25.8877200   26.5392900   -33.5319900 -154.8448000
   24296530000   -29.3797500 -136.5910000   -25.6143500   38.6413300    -0.6343319  -72.0551100   -20.6498300 -166.6751000 
 		     -25.6368600   36.9724200   -29.7962500 -142.4600000   -20.7257500 -167.3163000    -0.6615490  -72.2897500
 		      -0.6344802  -72.0905400   -20.7962000 -167.8391000   -32.5513400 -148.5926000   -25.9007700   26.1016400
 		     -20.7271100 -166.2613000    -0.6405245  -72.2418400   -26.0186700   26.1397600   -32.6177200 -155.1504000
   24366520000   -29.0115000 -131.5223000   -25.7005600   36.9991900    -0.6499393  -72.2858400   -20.6381100 -166.6449000 
 		     -25.6163500   37.8814100   -30.0837100 -134.3424000   -20.6620700 -167.4446000    -0.6595394  -72.4453500
 		      -0.6457098  -72.2883800   -20.7663900 -166.8163000   -32.2489700 -149.5092000   -26.1199200   26.3736200
 		     -20.5811800 -166.5688000    -0.6549095  -72.4782100   -26.1772500   25.8726200   -32.7406100 -144.3484000
   24436510000   -29.0245500 -132.8421000   -26.0377600   40.9451400    -0.6354746  -72.5098000   -20.5626600 -167.0863000 
 		     -25.9199700   38.8415100   -30.1195300 -141.0559000   -20.5717100 -167.5406000    -0.6424903  -72.6086400
 		      -0.6236531  -72.4963200   -20.6945000 -167.6348000   -31.4800100 -147.9488000   -26.1945400   26.2056300
 		     -20.5504300 -166.9252000    -0.6501958  -72.5448500   -26.2473900   25.7242600   -33.5261800 -154.9153000
   24506500000   -29.1640000 -133.7787000   -26.1169700   38.1728900    -0.6411210  -72.6205100   -20.5398400 -166.8029000 
 		     -26.1634900   38.5312500   -29.8615200 -143.4030000   -20.5882600 -168.2192000    -0.6666188  -72.7701700
 		      -0.6419446  -72.5678300   -20.7740600 -167.8243000   -32.1604500 -150.8788000   -26.1940600   25.6742300
 		     -20.5714500 -167.0413000    -0.6574600  -72.7812600   -26.2138900   26.2718800   -32.6976000 -156.2641000
   24576490000   -29.7224500 -132.5625000   -25.8271400   37.3424400    -0.6477655  -72.7897100   -20.5248500 -166.8543000 
 		     -26.1083300   39.0399200   -30.5507900 -141.4021000   -20.5166200 -168.1967000    -0.6409517  -73.0300800
 		      -0.6444881  -72.7646800   -20.6753900 -168.4956000   -32.3808000 -155.5915000   -26.2431400   26.1868000
 		     -20.5476500 -167.5716000    -0.6559504  -73.0937200   -26.3620900   26.0681300   -31.7465100 -154.9210000
   24646480000   -28.7705400 -134.9150000   -26.2683100   39.9660200    -0.6663722  -73.0328100   -20.5148200 -167.1866000 
 		     -26.1957300   40.5270900   -29.3910000 -145.9407000   -20.5781800 -168.5327000    -0.6651927  -73.1623900
 		      -0.6564418  -72.9101100   -20.6208800 -168.5664000   -31.2876400 -150.7524000   -26.4464500   26.8400600
 		     -20.5315500 -167.9703000    -0.6682875  -73.3804200   -26.5486000   26.7964600   -32.1309700 -152.4239000
   24716470000   -29.8021500 -137.2252000   -26.0931400   38.2633800    -0.6487988  -73.1451000   -20.4181500 -167.5276000 
 		     -26.2524400   38.2987300   -29.2792400 -133.3884000   -20.5918200 -168.3108000    -0.6589573  -73.4825800
 		      -0.6523181  -73.1272400   -20.5319400 -168.5077000   -32.1904100 -152.3755000   -26.5830500   25.8959100
 		     -20.4081500 -168.0433000    -0.6700771  -73.5040400   -26.5396700   25.7216500   -33.5199500 -157.0200000
   24786460000   -29.0188800 -134.2463000   -26.0654900   37.3391700    -0.6466311  -73.4048700   -20.3960000 -167.9007000 
 		     -26.2578200   38.0270600   -30.3357000 -135.5345000   -20.4947000 -168.4278000    -0.6382457  -73.6810000
 		      -0.6669465  -73.5182600   -20.4212700 -169.4035000   -31.6406700 -155.5347000   -26.6721800   26.6986500
 		     -20.4791100 -167.6447000    -0.6436675  -73.6551900   -26.6989000   26.6347400   -31.7895500 -152.4765000
   24856450000   -28.8611100 -135.3675000   -26.6003400   39.1943600    -0.6622571  -73.7373200   -20.3923500 -168.0211000 
 		     -26.1347200   39.7733100   -30.1856800 -143.5788000   -20.4755500 -168.7257000    -0.6635174  -73.8661300
 		      -0.6578906  -73.6466000   -20.5625900 -168.3071000   -31.4803000 -156.4362000   -26.7465400   26.5221000
 		     -20.4429800 -168.5136000    -0.6550229  -73.8689700   -26.7672800   26.3105000   -32.6061500 -158.0970000
   24926440000   -29.4255900 -137.0854000   -26.6788000   39.2735700    -0.6617802  -73.8280900   -20.3273700 -168.2167000 
 		     -26.6768400   41.3550500   -29.1121900 -144.1007000   -20.4644200 -168.9640000    -0.6528674  -74.1013100
 		      -0.6478074  -73.8056800   -20.3541800 -169.3295000   -31.3344100 -153.8877000   -26.9299900   27.1371400
 		     -20.3882500 -168.9994000    -0.6644436  -74.0810200   -27.0211500   26.5172100   -32.2347800 -161.3502000
   24996430000   -28.9518800 -136.8154000   -26.6433400   40.7629200    -0.6465124  -74.1356600   -20.3480600 -168.7994000 
 		     -26.4068800   39.7710200   -29.6397000 -143.0243000   -20.4789600 -169.3127000    -0.6683802  -74.3320200
 		      -0.6556954  -74.1612900   -20.4112700 -169.3976000   -31.4781100 -158.5536000   -27.1260700   26.4207900
 		     -20.2918500 -168.9010000    -0.6827266  -74.2906400   -26.9541800   26.4663600   -32.3327500 -154.4491000
   25066420000   -28.7341700 -137.9217000   -26.7414700   42.3943200    -0.6552174  -74.3120100   -20.3256100 -168.8079000 
 		     -26.4076800   41.3647000   -29.4111800 -138.8962000   -20.3662900 -169.4624000    -0.6644400  -74.5967000
 		      -0.6582011  -74.3185100   -20.3907800 -169.1480000   -31.2432500 -161.3996000   -27.0464900   27.0580600
 		     -20.3033800 -168.8379000    -0.6774429  -74.4446100   -27.1148700   26.5943400   -31.3363600 -156.5285000
   25136410000   -29.2020000 -140.0838000   -26.4962900   38.3320000    -0.6546897  -74.5970700   -20.2951500 -169.0379000 
 		     -26.7267300   39.6231300   -29.5772400 -146.6441000   -20.4295500 -169.5408000    -0.6594641  -74.7703900
 		      -0.6589519  -74.4158900   -20.2611600 -169.7764000   -31.3755500 -156.0401000   -27.2487900   25.9841600
 		     -20.2758200 -169.4559000    -0.6449184  -74.6941500   -27.3216200   25.6267900   -32.6568900 -158.4585000
   25206400000   -28.8498800 -139.2983000   -26.5772600   43.4212100    -0.6580476  -74.6179100   -20.1769000 -169.2959000 
 		     -26.9866000   42.3035400   -29.6772000 -138.4913000   -20.3449800 -170.0846000    -0.6714730  -74.9294600
 		      -0.6566059  -74.6183500   -20.3214500 -170.1617000   -31.5503700 -159.5032000   -27.2133200   25.7124800
 		     -20.1065400 -169.2733000    -0.6633126  -74.7810400   -27.4216600   26.6665000   -32.2744600 -161.9891000
   25276390000   -28.1298300 -134.6276000   -26.9025800   41.2379800    -0.6515195  -74.9264300   -20.2333800 -169.1566000 
 		     -26.7970400   42.4113200   -28.9858400 -143.3148000   -20.3119100 -170.4426000    -0.6830759  -75.1467100
 		      -0.6501110  -74.8836700   -20.3596900 -170.4627000   -31.4825500 -160.7703000   -27.6117200   27.2656700
 		     -20.2509500 -169.4618000    -0.6924642  -74.9789400   -27.4558300   26.4818200   -31.3855300 -167.4366000
   25346380000   -28.2569400 -138.9613000   -27.0937000   42.3301800    -0.6581774  -75.1372600   -20.2196700 -169.4947000 
 		     -27.1262000   42.8884000   -29.1405300 -145.7307000   -20.2696400 -170.0638000    -0.6677532  -75.2806500
 		      -0.6484204  -75.1685300   -20.3336800 -170.3672000   -31.0728000 -158.3652000   -27.5666300   26.4750000
 		     -20.2263300 -169.7039000    -0.6803975  -75.3650800   -27.6699400   26.2702400   -32.0852100 -159.6311000
   25416370000   -28.7398200 -139.3483000   -27.2776200   40.5003200    -0.6621266  -75.3500900   -20.1493300 -170.1792000 
 		     -27.1550400   42.4337000   -28.8247300 -145.8729000   -20.2676000 -170.4212000    -0.6723421  -75.5650400
 		      -0.6536115  -75.3394900   -20.2409800 -170.6182000   -31.1298600 -161.1561000   -27.7714700   25.7602100
 		     -20.2085900 -169.7914000    -0.6702547  -75.5135700   -27.7653100   26.1074700   -31.4764400 -159.0672000
   25486360000   -28.7643100 -139.7917000   -27.3854300   42.2515200    -0.6643845  -75.5407800   -20.1048200 -170.0194000 
 		     -26.9777700   41.8481500   -29.0105100 -149.9288000   -20.1878400 -170.9904000    -0.6641024  -75.7749300
 		      -0.6516864  -75.5397000   -20.2910400 -170.9687000   -31.0315700 -158.9964000   -27.9323700   27.3974900
 		     -20.1144900 -170.0034000    -0.6639531  -75.7419100   -27.9821500   26.3940500   -31.5005600 -162.6968000
   25556350000   -28.6426400 -143.0427000   -27.1069200   42.3448500    -0.6641030  -75.8040000   -20.1723600 -170.2031000 
 		     -27.2518500   42.9804100   -28.7687300 -152.3846000   -20.1310100 -170.6258000    -0.6788570  -75.9296000
 		      -0.6703878  -75.8222700   -20.2683400 -171.6343000   -31.2509000 -162.8896000   -27.9288200   26.7575500
 		     -20.0943000 -169.9917000    -0.6585178  -76.0581800   -27.9350700   26.4378700   -30.8549900 -165.3059000
   25626340000   -28.0643700 -138.3197000   -27.4852600   43.6990500    -0.6502556  -75.9823700   -20.0870600 -170.2688000 
 		     -27.5978600   42.7152400   -28.6786100 -150.1608000   -20.1413200 -170.7947000    -0.6697354  -76.1432600
 		      -0.6609368  -75.9394800   -20.1630600 -170.9233000   -30.9626200 -161.3211000   -28.1177000   26.3390800
 		     -20.0659300 -170.6785000    -0.6822783  -76.0997500   -28.1859800   26.8317400   -31.6902800 -164.9269000
   25696330000   -27.9373100 -142.0858000   -27.6244700   44.7726500    -0.6642225  -76.0990800   -20.0696200 -170.7715000 
 		     -27.3825300   44.6873700   -28.1782900 -145.4214000   -20.1091700 -171.4592000    -0.6734976  -76.3796600
 		      -0.6689427  -76.1426200   -20.1574000 -171.5432000   -30.9769700 -163.9217000   -28.2134000   26.4567900
 		     -20.1059800 -170.6595000    -0.6823138  -76.2909200   -28.2585600   26.0519800   -31.9253600 -164.5786000
   25766320000   -28.1969000 -139.5280000   -27.7242200   46.7606500    -0.6786119  -76.4062700   -20.0649700 -170.9655000 
 		     -27.6167700   45.7277900   -28.8166700 -143.6083000   -20.0752800 -171.4285000    -0.6790864  -76.5535700
 		      -0.6905607  -76.2799100   -20.2095000 -170.9757000   -30.8390600 -165.0892000   -28.3306700   26.8433400
 		     -20.0009300 -170.8518000    -0.6811133  -76.4753300   -28.2628500   26.9420900   -30.9681500 -169.2044000
   25836310000   -28.5973800 -141.0959000   -27.9232400   44.5812100    -0.6673827  -76.6080300   -19.9788900 -170.9267000 
 		     -27.3750500   44.6536000   -29.8546900 -157.0814000   -20.0054300 -172.0362000    -0.6802725  -76.7204400
 		      -0.6581101  -76.5258600   -20.0458300 -172.4301000   -30.6094200 -164.1397000   -28.4552000   27.3097800
 		     -19.9543300 -171.5190000    -0.6914497  -76.6572900   -28.5286000   27.2344600   -30.7209700 -164.4278000
   25906300000   -28.0281300 -143.8115000   -28.0440800   41.9234200    -0.6647667  -76.7576400   -19.9645000 -171.2469000 
 		     -27.9204900   44.4761400   -28.7631500 -143.4638000   -20.0575800 -171.6575000    -0.6747943  -76.9785200
 		      -0.6800469  -76.6128300   -20.0956100 -171.3008000   -30.8779700 -165.7620000   -28.8594200   27.3400700
 		     -20.0305000 -171.2002000    -0.6690517  -76.9462800   -28.6976000   26.3907200   -31.5314300 -161.2098000
   25976290000   -28.2324500 -143.7537000   -28.0817100   47.1662500    -0.6791384  -76.9450400   -19.9995300 -171.3672000 
 		     -27.6758300   47.1859400   -29.2464300 -141.2825000   -20.0311200 -172.4119000    -0.6874604  -77.2009900
 		      -0.6683992  -76.8367000   -20.0163400 -172.2413000   -30.6789700 -159.8385000   -28.7478800   28.2607400
 		     -19.9910300 -171.7319000    -0.6696019  -76.9893000   -28.7920300   26.8252300   -31.1444500 -168.8798000
   26046280000   -28.1592300 -141.2675000   -28.1098300   47.0156200    -0.6658972  -77.1955900   -19.9421100 -171.4630000 
 		     -28.4549400   43.6953400   -28.5299700 -146.1310000   -20.0340700 -171.9645000    -0.6733343  -77.2446400
 		      -0.6669689  -77.1940800   -19.9863000 -172.9899000   -30.2521200 -163.3366000   -29.0074500   27.3867900
 		     -20.0114400 -171.6594000    -0.7000483  -77.2526700   -29.0332000   27.0913000   -31.3159200 -166.0383000
   26116270000   -28.0722400 -143.6534000   -27.8909900   47.5110500    -0.6699613  -77.2876100   -19.8829700 -172.3127000 
 		     -28.3857500   46.7387600   -28.1561700 -147.5468000   -20.0124000 -172.5422000    -0.6851346  -77.5333500
 		      -0.6611128  -77.3259400   -20.0136900 -172.0271000   -30.8060900 -164.2021000   -29.1775200   26.5864600
 		     -19.8860800 -172.2159000    -0.6812868  -77.5375500   -29.0242200   27.9204100   -32.1402900 -168.3349000
   26186260000   -27.7001200 -144.8743000   -28.0473000   47.3865700    -0.6748498  -77.5624300   -19.8461800 -172.0097000 
 		     -28.0917800   46.3094600   -29.0713200 -151.5814000   -19.9008300 -172.9854000    -0.6675428  -77.7285800
 		      -0.6767658  -77.4957700   -19.9255000 -172.9017000   -30.4503000 -165.9615000   -29.3711900   29.3793800
 		     -19.8457200 -172.3546000    -0.6881516  -77.7791700   -29.2754300   28.4154900   -30.5992300 -161.7097000
   26256250000   -27.2524000 -141.4782000   -28.5639400   50.0714300    -0.6740695  -77.7226000   -19.8047000 -172.2804000 
 		     -28.1103200   47.7037400   -28.6538700 -153.2348000   -19.8814200 -173.1282000    -0.6816820  -78.0714000
 		      -0.6640431  -77.6578200   -19.9975000 -172.1912000   -30.2586600 -168.4718000   -29.4037600   28.9946300
 		     -19.8066700 -172.5034000    -0.7102339  -78.0285100   -29.6656600   28.6570200   -30.2158000 -160.5993000
   26326240000   -28.2244800 -148.1223000   -28.1552700   51.4085100    -0.6806954  -77.9981700   -19.7803700 -172.1492000 
 		     -28.4659000   47.6256400   -29.5034900 -153.8501000   -19.8171000 -172.6647000    -0.6962585  -78.1068600
 		      -0.6695744  -78.0405900   -19.8389500 -173.1420000   -29.7810600 -167.3510000   -29.4168900   28.6841700
 		     -19.7526400 -172.8225000    -0.6973785  -78.2106600   -29.5948300   29.0099300   -30.7168900 -172.6847000
   26396230000   -27.3684100 -150.3208000   -28.2614600   48.5228400    -0.6763738  -78.2343400   -19.7550900 -173.2830000 
 		     -28.3923300   48.2262900   -28.1306900 -146.0166000   -19.8553000 -172.9955000    -0.6916871  -78.3562200
 		      -0.6970506  -78.2510100   -19.8668200 -173.6902000   -30.1795700 -163.1687000   -30.0957900   28.7933300
 		     -19.8593000 -172.7955000    -0.6956661  -78.3254900   -29.7789200   29.7202700   -31.1007100 -168.1287000
   26466220000   -27.5291900 -145.7912000   -28.6855800   52.0360200    -0.6773340  -78.4505400   -19.7299100 -172.7439000 
 		     -28.3936500   52.2930300   -28.4160800 -155.1553000   -19.7858300 -173.4293000    -0.6826055  -78.5637100
 		      -0.6628385  -78.5920000   -19.8744900 -173.6342000   -29.6772000 -169.6962000   -29.9361000   28.5478400
 		     -19.8301800 -173.5827000    -0.6841803  -78.6042700   -29.8544600   30.1932700   -29.9464800 -166.5649000
   26536210000   -27.2933700 -148.6140000   -28.4764700   52.5496300    -0.6925332  -78.6001000   -19.7347600 -173.2388000 
 		     -28.5465000   51.6982700   -28.6717000 -154.3418000   -19.8139200 -173.7766000    -0.6894392  -78.7708700
 		      -0.6918459  -78.5954200   -19.8332000 -173.8047000   -29.8572200 -171.5104000   -30.1089600   29.0524300
 		     -19.7591600 -172.6199000    -0.6807656  -78.7537000   -29.9732000   29.6264400   -30.2320800 -175.2599000
   26606200000   -27.4465600 -150.6079000   -28.5326200   52.0098000    -0.6922909  -78.8852000   -19.6827400 -173.3181000 
 		     -28.6907500   53.7265700   -28.1471800 -149.2792000   -19.7486700 -174.2994000    -0.6841110  -79.0112800
 		      -0.6900549  -78.8691600   -19.7444500 -174.7804000   -29.7440400 -166.1589000   -30.2606800   30.3265600
 		     -19.7107500 -173.4426000    -0.6917020  -78.9162400   -30.2422900   31.6381900   -30.1449400 -169.2319000
   26676190000   -26.8373500 -149.8034000   -28.8087800   51.1921700    -0.6856351  -79.1575100   -19.6377800 -173.2999000 
 		     -28.8321200   51.6787900   -29.1912900 -150.5091000   -19.6681600 -174.1154000    -0.6870276  -79.2659600
 		      -0.6876627  -78.9588900   -19.7974200 -174.3416000   -29.0160400 -170.7564000   -30.5134200   31.8054000
 		     -19.6915400 -173.6471000    -0.6962126  -79.3122000   -30.3384400   30.9740800   -30.0754700 -173.2126000
   26746180000   -27.2066300 -149.0533000   -29.3375300   53.0901400    -0.6917095  -79.2888000   -19.6143100 -173.6822000 
 		     -28.8282400   52.5727800   -27.9335800 -150.3742000   -19.6883000 -174.0539000    -0.6831505  -79.4118400
 		      -0.6672897  -79.1778600   -19.7528500 -173.4196000   -29.0486900 -173.6288000   -30.5404700   30.9606600
 		     -19.6823100 -174.3318000    -0.6876705  -79.3603100   -30.6798800   31.2345200   -30.3049400 -173.0864000
   26816170000   -27.2820900 -154.7530000   -28.6207700   54.4817200    -0.6934805  -79.4957100   -19.5973000 -174.3150000 
 		     -28.9182200   51.9529700   -27.7542900 -153.3570000   -19.7500800 -174.5081000    -0.6866107  -79.6483100
 		      -0.6850907  -79.3485300   -19.6652400 -175.2331000   -29.6133100 -167.1868000   -30.8875400   31.5028600
 		     -19.7088800 -173.7341000    -0.6838440  -79.5362700   -30.8697900   31.9445400   -30.6114800 -173.5422000
   26886160000   -27.1564300 -152.7519000   -29.1182600   54.5536600    -0.6835431  -79.6500500   -19.5375200 -174.1109000 
 		     -29.3253900   54.6856200   -27.8398200 -158.1340000   -19.6516000 -174.8940000    -0.6911001  -79.8808800
 		      -0.6848219  -79.5379000   -19.6879100 -174.7806000   -29.7693500 -173.0671000   -30.8723100   31.8042700
 		     -19.6405100 -174.0739000    -0.6921589  -79.8095400   -30.8522200   32.0159000   -29.3247200 -176.5740000
   26956150000   -27.1154100 -151.8580000   -29.1472400   54.8330900    -0.6797553  -79.9036500   -19.5830500 -174.6048000 
 		     -29.0111800   54.9591400   -27.3007400 -162.0926000   -19.6593500 -174.7453000    -0.7015458  -80.0351900
 		      -0.6880800  -79.9534700   -19.8174800 -175.2225000   -29.1479900 -174.7370000   -30.9369400   32.2661500
 		     -19.6010200 -174.4197000    -0.7026744  -80.0846600   -30.9882000   32.1055900   -30.0840700 -178.8499000
   27026140000   -27.0617000 -155.8853000   -29.3767300   56.2330600    -0.6968037  -80.0917900   -19.5299200 -174.9016000 
 		     -29.2732100   57.1649000   -27.0062500 -159.5689000   -19.5115900 -175.2244000    -0.6982800  -80.2471500
 		      -0.6849522  -79.9157100   -19.5472800 -174.8385000   -29.0456900 -167.7324000   -31.4475700   33.9872400
 		     -19.6236900 -175.1604000    -0.7157881  -80.4121800   -31.4126700   33.4830600   -29.4266800 -172.6769000
   27096130000   -26.9045500 -156.3438000   -29.0815800   58.4869900    -0.7095742  -80.3081800   -19.5257900 -175.1429000 
 		     -29.3612700   56.4012900   -27.2106800 -156.1203000   -19.6008600 -175.3399000    -0.6997430  -80.5236400
 		      -0.6884179  -80.2125600   -19.5869800 -175.6228000   -29.2232200 -172.1882000   -31.5612200   33.9513600
 		     -19.5503600 -174.7568000    -0.7204273  -80.5752300   -31.6523500   34.0493500   -29.5155400 -176.0409000
   27166120000   -26.9254700 -152.1409000   -29.6042700   57.4715600    -0.6949402  -80.5083300   -19.4924600 -175.1425000 
 		     -29.2018900   56.1878400   -27.1368300 -154.4903000   -19.5708200 -175.7500000    -0.6914142  -80.6297600
 		      -0.6869027  -80.5315600   -19.5977900 -175.6603000   -28.8393600 -171.9409000   -31.7978300   35.9854800
 		     -19.5465900 -174.7842000    -0.7121317  -80.5258600   -31.7163600   33.5521000   -29.7015000 -172.0623000
   27236110000   -27.2137900 -159.3486000   -29.7010300   58.5080500    -0.6988668  -80.7278500   -19.5039800 -175.2627000 
 		     -29.5739100   56.6228000   -27.2750700 -161.5704000   -19.5381900 -175.9957000    -0.6966056  -80.7925000
 		      -0.7060689  -80.7336700   -19.4817100 -175.6346000   -28.8288200 -173.0821000   -31.7667000   33.8571200
 		     -19.5815600 -175.6757000    -0.6950138  -80.8747500   -31.9230400   34.6421300   -29.4346400  179.1178000
   27306100000   -26.9232300 -153.3836000   -29.3951200   60.2300100    -0.7105123  -80.9184800   -19.4111000 -175.5692000 
 		     -29.5906800   60.9011700   -26.7786000 -159.8171000   -19.4574800 -176.1335000    -0.6982144  -81.1259000
 		      -0.7066972  -80.8761000   -19.5807000 -176.1681000   -29.1324300 -176.2399000   -32.2005600   34.0347600
 		     -19.4704400 -175.7381000    -0.6969326  -80.9512300   -32.0941000   34.7794600   -29.6839600  179.0515000
   27376090000   -27.0175900 -152.4376000   -29.3081800   60.7359400    -0.6989605  -81.1302900   -19.4221100 -176.2601000 
 		     -29.5027100   61.0271100   -26.6911000 -159.3236000   -19.4504600 -176.0802000    -0.6955992  -81.4314200
 		      -0.7012610  -80.9160900   -19.6352400 -175.7553000   -28.6207800 -179.1107000   -32.3898800   34.2248100
 		     -19.4468700 -175.7321000    -0.7016879  -81.4258400   -32.2323800   36.2383700   -29.2008900 -174.0357000
   27446080000   -27.3212800 -157.0531000   -30.1535800   62.2432300    -0.6921500  -81.3172200   -19.3738500 -176.0450000 
 		     -29.8709100   61.6385500   -27.9605100 -155.6859000   -19.4322600 -176.3305000    -0.7086355  -81.5252600
 		      -0.6971998  -81.3256300   -19.5487400 -176.2484000   -28.5095300 -172.2869000   -32.8225500   36.7627400
 		     -19.3318000 -176.4700000    -0.7023674  -81.2757900   -33.0611400   37.5861900   -29.8503300 -174.7444000
   27516070000   -26.2193100 -155.6195000   -29.9277500   62.6203400    -0.6939382  -81.5799600   -19.3374300 -176.4028000 
 		     -29.6305000   61.3890800   -27.7547300 -162.9870000   -19.4428400 -177.4037000    -0.6944743  -81.6929200
 		      -0.6884630  -81.5366900   -19.3781900 -177.1033000   -28.7082400 -172.4211000   -32.9691500   37.1215000
 		     -19.3795600 -176.5047000    -0.6901077  -81.5309200   -32.8588900   36.4493000   -30.0528900  177.7373000
   27586060000   -26.7606500 -158.2484000   -29.9617800   65.9107300    -0.6992734  -81.7576600   -19.3367300 -177.0110000 
 		     -29.8776600   63.5087100   -28.0185200 -156.0092000   -19.3280200 -176.7210000    -0.6950894  -81.8796700
 		      -0.6875156  -81.6276900   -19.5204100 -177.8092000   -29.1807400 -176.8782000   -32.8465500   38.1802100
 		     -19.4203000 -176.9251000    -0.7174856  -81.8732100   -33.1910100   38.1331200   -29.2244900 -178.9747000
   27656050000   -26.9046200 -157.3997000   -30.1933400   61.2683500    -0.6967566  -81.8860500   -19.3616200 -176.6741000 
 		     -30.3216400   64.3680000   -27.7236200 -157.9868000   -19.3545100 -177.2823000    -0.7167059  -82.1459700
 		      -0.6941155  -81.9585600   -19.4333400 -176.2234000   -28.2509800 -176.2477000   -33.3765000   38.7576800
 		     -19.3463400 -176.5863000    -0.7160913  -81.8852900   -33.4746500   39.3790400   -30.0445000  179.0544000
   27726040000   -26.3819500 -159.4269000   -29.4207500   69.5497700    -0.7068983  -82.1869800   -19.2673100 -176.8754000 
 		     -29.9523800   67.4927700   -26.7472600 -158.9901000   -19.3499700 -177.5445000    -0.7037871  -82.3519100
 		      -0.7160550  -82.0367900   -19.4350700 -177.6495000   -28.3190600 -173.9224000   -33.8212400   40.7994900
 		     -19.3475200 -177.1111000    -0.7207555  -82.3597400   -33.9968700   40.4964600   -29.9932800  177.5464000
   27796030000   -26.7349100 -154.4159000   -30.5811300   64.3704100    -0.6984163  -82.4674500   -19.2424500 -177.1112000 
 		     -30.5973400   68.9168700   -26.7777000 -156.1124000   -19.2993200 -177.6679000    -0.6900826  -82.7379100
 		      -0.7007539  -82.2748600   -19.3419400 -177.4704000   -28.9377500 -174.1358000   -34.1970400   41.2896900
 		     -19.2216100 -177.6246000    -0.6958441  -82.7998500   -34.0176700   41.5655300   -28.9561000 -174.9783000
   27866020000   -26.4409000 -155.7039000   -29.7363300   68.7144600    -0.6996274  -82.5917100   -19.2855000 -177.5846000 
 		     -30.4743200   68.8184400   -26.8867000 -164.3886000   -19.3245000 -177.9704000    -0.7121649  -82.8391100
 		      -0.6978888  -82.5423700   -19.2764000 -179.1101000   -28.2774200 -179.5970000   -33.9536100   41.9793300
 		     -19.2901400 -177.7174000    -0.7245657  -82.5891000   -34.1690300   43.9554300   -29.0974100 -177.9820000
   27936010000   -27.0430400 -158.1451000   -30.5114300   69.6278800    -0.7095078  -82.8476100   -19.2047000 -177.7337000 
 		     -30.6496800   69.2252000   -26.8196200 -159.8321000   -19.2788600 -178.6093000    -0.7209349  -83.0166300
 		      -0.7145237  -82.8172600   -19.3799300 -178.8867000   -28.5108500  179.6621000   -34.4009100   41.7638500
 		     -19.1435300 -177.3990000    -0.7310324  -82.9917700   -34.2521200   43.4479700   -29.7802900  175.6627000
   28006000000   -26.0912700 -158.1536000   -30.5592800   69.5885000    -0.6987787  -83.0193900   -19.1934700 -177.7021000 
 		     -30.3285800   72.7095300   -27.7242900 -169.3168000   -19.1730400 -178.1500000    -0.7129753  -83.2185300
 		      -0.7163996  -83.0161100   -19.2931500 -177.8880000   -28.4251900  177.4854000   -34.4350000   45.3949200
 		     -19.1714200 -177.8107000    -0.7110403  -83.2184500   -34.6082700   45.5704800   -28.8294400  178.2148000
   28075990000   -26.4456500 -155.3915000   -30.7548500   74.0933500    -0.7091378  -83.2985200   -19.1110200 -178.0194000 
 		     -30.0978400   72.7716100   -26.9980700 -163.0092000   -19.1990200 -178.2610000    -0.7123568  -83.3526800
 		      -0.6955844  -83.1776500   -19.3007300 -177.8116000   -27.5627900 -176.6444000   -34.6853000   49.0397600
 		     -19.1294400 -177.9673000    -0.7334631  -83.2610100   -34.7655100   48.0337300   -29.4303400  174.7109000
   28145980000   -25.9889200 -157.3031000   -30.1649300   72.3861200    -0.7093499  -83.4427300   -19.1259400 -178.3622000 
 		     -30.3091900   73.3223400   -26.8149400 -159.6019000   -19.2375200 -178.7915000    -0.7251270  -83.6433100
 		      -0.7124486  -83.4597300   -19.1571600 -179.0212000   -27.9147700 -177.1483000   -35.3489300   49.3336100
 		     -19.1644600 -177.9359000    -0.7295008  -83.4432700   -35.3204000   49.0696700   -29.8397600  179.0973000
   28215970000   -26.3781400 -158.0310000   -30.2311800   75.5177600    -0.7040985  -83.6757700   -19.1236900 -178.5287000 
 		     -30.4267900   72.7026400   -27.0242200 -163.5639000   -19.1707300 -179.0729000    -0.7298970  -83.8224600
 		      -0.6956524  -83.4174300   -19.2944800 -177.8914000   -28.8304000  179.1030000   -35.5946500   47.7033800
 		     -19.1743100 -178.5951000    -0.7232736  -83.7032400   -35.5445100   49.5781600   -28.6917000  174.4154000
   28285960000   -26.1369100 -158.9156000   -30.8896000   76.3672300    -0.7132261  -83.8063000   -19.0768900 -178.5742000 
 		     -30.1982700   75.3935900   -27.2204600 -162.1649000   -19.1270100 -178.9793000    -0.7301356  -84.0054600
 		      -0.7089650  -83.7884800   -19.1430500 -178.0950000   -28.1647900  178.9287000   -35.6127400   53.8115300
 		     -19.1117300 -178.7943000    -0.7546647  -84.0254600   -35.2863700   52.2968700   -28.6172900 -179.3154000
   28355950000   -25.3088600 -160.7135000   -30.5843000   79.0796400    -0.7231700  -84.1024800   -19.0817300 -178.9129000 
 		     -30.8430400   79.1685500   -26.4361100 -169.2934000   -19.1104900 -179.6875000    -0.7295755  -84.1991700
 		      -0.7136114  -83.9989200   -19.2227800 -178.8529000   -27.5885800  179.4422000   -35.7147300   55.9675600
 		     -19.0303400 -178.6742000    -0.7194422  -84.2654600   -35.9053400   55.8455800   -28.5885900  174.8777000
   28425940000   -25.9215500 -159.0930000   -30.4911200   80.3831300    -0.7093164  -84.3508700   -19.0576500 -178.8471000 
 		     -30.4037300   77.6733700   -26.2244500 -166.5490000   -19.0583200 -179.5020000    -0.7304574  -84.3352500
 		      -0.7018969  -84.2773200   -19.1841300  179.4456000   -28.4178500  179.7790000   -36.2727700   56.6905100
 		     -19.0379600 -179.0745000    -0.7276391  -84.5187900   -36.1756900   56.6355000   -27.5478400  174.1339000
   28495930000   -25.9071600 -159.3676000   -30.5956200   80.5886700    -0.7269713  -84.4152800   -18.9907100 -179.6604000 
 		     -30.6443900   82.2338700   -25.9850300 -161.1526000   -19.0341800 -179.5621000    -0.7290458  -84.7396100
 		      -0.7128012  -84.4484200   -19.1728600  179.5844000   -28.0471000  178.4329000   -36.3495200   59.3359200
 		     -19.1253900 -179.0843000    -0.7464084  -84.6922700   -36.4710700   59.5560700   -28.4545400  177.2146000
   28565920000   -26.0319500 -159.9381000   -30.1960500   85.5236100    -0.7244403  -84.7035800   -19.0123700 -179.7115000 
 		     -30.3713600   84.4426700   -25.7852400 -166.9633000   -19.0495500 -179.6682000    -0.7300777  -84.9246400
 		      -0.7157061  -84.6044200   -19.2065000 -179.4036000   -27.8915400 -179.9870000   -36.3200100   63.3526600
 		     -19.0150000 -178.9979000    -0.7562524  -85.0200100   -36.5605200   62.4027700   -27.6852800  178.3997000
   28635910000   -25.8676900 -157.0162000   -30.7397500   87.8634700    -0.7332777  -84.9836500   -18.9321900 -179.7314000 
 		     -30.3015200   83.1662300   -26.5375500 -167.9864000   -19.0258200  179.2505000    -0.7431189  -85.1340000
 		      -0.7101595  -84.9712000   -19.1784200  179.6310000   -28.6078600  177.7616000   -36.5763100   60.6966200
 		     -18.9770800 -179.5643000    -0.7374210  -84.9869200   -36.8356100   62.4160700   -27.9517300  171.7797000
   28705900000   -26.1889200 -158.8980000   -30.7017500   84.7791400    -0.7400925  -85.0787700   -18.9914500  179.8016000 
 		     -30.5763500   83.8143000   -26.2717500 -165.5849000   -18.9734600  179.3708000    -0.7384140  -85.2960400
 		      -0.7308835  -84.8946500   -18.9537200  179.8876000   -28.3424000  176.5825000   -37.3733400   65.9379300
 		     -18.9892400  179.3904000    -0.7395876  -85.2230000   -36.9077900   65.5774800   -28.5127400  174.6769000
   28775890000   -25.9007000 -160.8398000   -30.0303800   88.8888200    -0.7366287  -85.2547800   -18.9150800  179.6514000 
 		     -30.7325200   85.8524700   -26.1177600 -163.5455000   -18.9601200  179.4818000    -0.7467380  -85.5673400
 		      -0.7430151  -85.2371200   -19.1045700  179.1984000   -27.3409100  177.9185000   -37.0135500   68.1141500
 		     -18.9131100  179.6908000    -0.7460826  -85.3380200   -36.6571100   68.7982700   -28.1175800  176.4528000
   28845880000   -25.4809200 -158.7886000   -30.2963100   89.2287000    -0.7296542  -85.5562000   -18.8734000  179.3176000 
 		     -30.3194300   86.5801700   -26.2634200 -164.3957000   -18.9787000  178.8796000    -0.7382969  -85.6987900
 		      -0.7228264  -85.4847600   -18.9987700  179.0395000   -27.9672800  178.9955000   -37.6861900   74.5371200
 		     -18.7838700  179.7412000    -0.7568871  -85.7118100   -37.2607700   74.0394300   -28.2775000  174.4131000
   28915870000   -25.7848200 -162.7106000   -30.7596300   93.9907500    -0.7314272  -85.7460600   -18.8227500  179.1080000 
 		     -30.2652200   87.3244600   -26.5467700 -163.1444000   -18.8833500  179.2530000    -0.7344979  -85.9533000
 		      -0.7361454  -85.7242900   -19.0256500  179.1848000   -27.7073900  177.4099000   -37.5407100   75.5660900
 		     -18.7796100  178.8799000    -0.7444679  -85.8946100   -37.3525700   75.8614300   -28.3956800  175.5106000
   28985860000   -26.4349800 -165.6140000   -30.6018300   89.4923300    -0.7538240  -85.8683200   -18.8630100  179.3224000 
 		     -29.9728600   89.8844800   -25.4313700 -168.8135000   -18.9220300  178.4603000    -0.7479472  -86.0645800
 		      -0.7381698  -85.8460200   -18.9032700  178.6176000   -27.5839500  173.3392000   -37.4799500   79.8363700
 		     -18.8316800  178.7092000    -0.7427415  -85.9847400   -37.1302000   78.2287000   -27.6521700  175.2072000
   29055850000   -25.8623300 -165.4409000   -29.8441600   93.5710300    -0.7404004  -86.1833300   -18.8406700  178.4946000 
 		     -30.3472400   93.9234400   -25.7335400 -168.6546000   -18.8989600  178.9700000    -0.7485109  -86.4646900
 		      -0.7538625  -86.1430600   -18.9101500  179.4641000   -27.4580100  173.1918000   -37.3721200   80.3789900
 		     -18.7930400  178.2934000    -0.7448071  -86.3979100   -37.5382900   84.7516500   -28.1893700  173.7409000
   29125840000   -25.3597000 -162.5603000   -30.0691100   95.4819700    -0.7293979  -86.4232900   -18.7616900  178.2692000 
 		     -30.2153900   93.6885500   -26.2472200 -169.6846000   -18.8788300  178.4241000    -0.7553504  -86.4884700
 		      -0.7230819  -86.3739500   -18.8733700  178.4818000   -27.3780200  178.0583000   -37.7214600   88.5007100
 		     -18.8342800  178.6426000    -0.7631833  -86.3531500   -37.5533300   87.4717600   -27.8163100  173.5493000
   29195830000   -25.6075500 -167.5417000   -30.3007300   93.2073200    -0.7472369  -86.5474100   -18.7695500  178.4573000 
 		     -30.4444800   93.5011100   -25.3959200 -169.0219000   -18.8209400  178.0830000    -0.7571204  -86.7826900
 		      -0.7444980  -86.5617500   -18.8931000  177.8176000   -27.1803400  172.8844000   -37.4611100   87.6069200
 		     -18.7790100  178.6269000    -0.7588893  -86.8082900   -37.2930900   89.5731500   -27.9545100  174.4893000
   29265820000   -25.5729400 -161.3059000   -30.2273200   98.2508300    -0.7438454  -86.8007200   -18.7552400  177.8862000 
 		     -29.9607700   96.3774900   -25.8596000 -169.9264000   -18.8397400  177.9969000    -0.7753202  -87.0847200
 		      -0.7404547  -86.7970800   -18.8375400  176.8522000   -27.5498900  174.9109000   -37.0230400   93.6550900
 		     -18.7019500  178.6032000    -0.7888958  -86.9962700   -37.3807400   94.2528200   -27.8524000  174.4185000
   29335810000   -25.7098900 -166.4811000   -29.9857200   94.6651800    -0.7482117  -87.0549500   -18.7029400  177.8557000 
 		     -29.8648000   95.0849800   -26.2369300 -170.1509000   -18.8079300  178.0651000    -0.7538120  -87.0307900
 		      -0.7409923  -86.9074600   -18.7771800  177.8915000   -27.0205900  173.1786000   -37.0236700   91.3851100
 		     -18.7704300  177.7606000    -0.7696432  -86.7513600   -37.4070100   93.2159800   -27.9579800  169.8031000
   29405800000   -25.5108700 -167.4621000   -30.4456400   95.0932200    -0.7565389  -87.2448600   -18.7078200  177.5132000 
 		     -30.3326800   97.6234200   -26.9295000 -172.3663000   -18.7340500  177.7176000    -0.7730676  -87.3491400
 		      -0.7586608  -87.1018500   -18.9424800  176.9655000   -26.9319400  172.0863000   -36.9787000   97.8860900
 		     -18.7453000  177.8536000    -0.8033302  -87.3581300   -37.3886600   97.1654700   -27.3665900  170.9290000
   29475790000   -25.4249800 -165.4322000   -30.0825700  100.1455000    -0.7471604  -87.3662400   -18.7243400  177.3311000 
 		     -29.7314700  101.0098000   -26.0252800 -169.5802000   -18.6823300  177.4731000    -0.7619255  -87.4727000
 		      -0.7384039  -87.2783300   -18.6639700  178.2909000   -27.1570200  172.8414000   -37.3370400   99.9962500
 		     -18.7096600  177.3310000    -0.7726154  -87.5531900   -36.9609200  103.8066000   -27.4168500  170.5130000
   29545780000   -25.5734200 -166.9304000   -29.6517800  101.1698000    -0.7545162  -87.6126700   -18.6113400  177.4802000 
 		     -29.8476400   98.8338300   -26.4536800 -171.4320000   -18.6889800  177.1041000    -0.7719707  -87.7891900
 		      -0.7620898  -87.5058800   -18.6954700  177.3048000   -26.9421900  174.1864000   -37.1084500  104.1213000
 		     -18.6174400  176.9084000    -0.7729210  -87.5722700   -37.1522500  104.5731000   -27.4476600  169.2964000
   29615770000   -25.0414900 -168.0161000   -29.5597400   97.2776200    -0.7497997  -87.8959600   -18.6293800  176.7642000 
 		     -29.1575300  103.2872000   -25.1982100 -170.4331000   -18.5804400  176.4960000    -0.7588714  -87.9668900
 		      -0.7421514  -87.6694600   -18.6905800  177.0862000   -26.8020600  170.0948000   -36.2951900  106.9409000
 		     -18.6261100  176.8270000    -0.7571015  -87.8994700   -36.1809200  105.6277000   -27.2360100  170.2656000
   29685760000   -25.0485000 -166.4032000   -29.4248200  102.5669000    -0.7449159  -88.0851200   -18.5984800  176.6720000 
 		     -29.1618600  103.7967000   -25.8105500 -176.9268000   -18.5517300  176.5302000    -0.7880959  -88.1569300
 		      -0.7457522  -87.9867900   -18.7249400  176.6426000   -27.2135200  173.3584000   -36.3625900  108.9648000
 		     -18.5564500  176.6987000    -0.8008875  -88.0641900   -36.3941400  108.5028000   -26.9955500  165.5192000
   29755750000   -25.5690800 -168.6837000   -30.1224600  105.0441000    -0.7595447  -88.2566100   -18.5982200  176.3819000 
 		     -29.4738000  103.1215000   -25.3772300 -172.8616000   -18.6667500  176.1718000    -0.7754078  -88.3913100
 		      -0.7603061  -88.2758900   -18.6582500  176.9243000   -26.8617800  170.6257000   -36.3115300  108.2259000
 		     -18.5494800  176.1357000    -0.7826220  -88.3999800   -36.3373500  111.6771000   -26.8764000  168.8697000
   29825740000   -25.4966100 -168.5945000   -29.5756100  103.7521000    -0.7624215  -88.3608600   -18.5551200  176.2234000 
 		     -29.2926700  103.6054000   -25.1260800 -173.8162000   -18.5412700  176.0779000    -0.7799650  -88.5392500
 		      -0.7607696  -88.2837000   -18.4974700  176.1635000   -26.8022700  170.5010000   -36.5271600  114.8585000
 		     -18.5421600  176.2455000    -0.7665437  -88.5413800   -36.0903400  114.2864000   -27.2009700  165.3533000
   29895730000   -25.2673800 -171.0111000   -29.2078600  104.8328000    -0.7699764  -88.7020600   -18.5055000  176.0639000 
 		     -29.1650000  105.2477000   -25.4956600 -169.5537000   -18.4824800  175.8957000    -0.7653767  -88.7025500
 		      -0.7784356  -88.4816400   -18.4781900  175.4941000   -27.1579800  172.4832000   -36.2491300  114.2084000
 		     -18.5395600  176.2562000    -0.7702938  -88.6159100   -36.0211600  114.6730000   -26.7440900  159.6820000
   29965720000   -25.1168700 -167.0309000   -29.7731900  109.1645000    -0.7569152  -88.7964600   -18.4965600  175.9279000 
 		     -29.2962100  106.8587000   -26.0337600 -176.2164000   -18.5035700  175.7371000    -0.7650424  -89.0387500
 		      -0.7610000  -88.7080400   -18.6067700  176.0379000   -26.5194700  171.1255000   -35.7650500  116.1579000
 		     -18.5438200  176.1160000    -0.7770476  -88.9184800   -35.9117200  118.1920000   -26.4362000  167.4625000
   30035710000   -24.7272600 -174.5285000   -29.1204000  109.1632000    -0.7721284  -89.0203000   -18.4857500  175.5419000 
 		     -29.5095000  107.4866000   -26.1830300 -174.8493000   -18.5369400  175.2869000    -0.7737992  -89.0965400
 		      -0.7844645  -88.8735200   -18.4482000  174.9568000   -26.5778600  168.9169000   -35.3742100  119.3834000
 		     -18.5396600  175.9406000    -0.7683136  -88.9848700   -35.5838700  119.4384000   -27.0417200  163.1139000
   30105700000   -25.2773600 -171.3168000   -28.9939700  110.3279000    -0.7728072  -89.2446700   -18.4454600  175.7370000 
 		     -28.6323100  109.1003000   -25.1883700 -169.0921000   -18.3725900  175.8056000    -0.7747969  -89.2814200
 		      -0.7701433  -89.2521500   -18.6025600  175.3327000   -26.5909400  172.3627000   -35.3186900  121.1828000
 		     -18.4103300  175.0134000    -0.7781464  -89.4362700   -35.1217800  123.7364000   -27.0111800  163.9005000
   30175690000   -24.8528100 -168.2084000   -28.9933900  111.5512000    -0.7608171  -89.3833800   -18.4127800  175.5679000 
 		     -29.3749000  111.3265000   -25.6854300 -171.7896000   -18.4339300  175.1439000    -0.7542375  -89.5299600
 		      -0.7505030  -89.4444200   -18.5504100  175.1103000   -26.3671000  168.7197000   -35.2856400  125.1373000
 		     -18.4178400  175.7026000    -0.7678579  -89.6186600   -35.1227100  124.0120000   -26.6236100  164.7472000
   30245680000   -25.1039400 -172.9368000   -29.2935000  109.2660000    -0.7625471  -89.6442300   -18.4281400  175.0643000 
 		     -28.8241600  110.6956000   -25.1726200 -175.2562000   -18.4345200  174.6377000    -0.7784861  -89.7353500
 		      -0.7619458  -89.5035800   -18.4236800  174.6056000   -26.7525200  168.4032000   -34.9197600  127.1046000
 		     -18.4278200  175.2201000    -0.8038229  -89.9146000   -34.7983400  125.5987000   -27.0888700  163.5381000
   30315670000   -24.9293900 -169.5535000   -28.6257500  112.5246000    -0.7673330  -89.8039600   -18.3836400  174.3310000 
 		     -28.7051600  112.3551000   -25.3789300 -176.4084000   -18.3762700  174.1304000    -0.7741955  -89.9520300
 		      -0.7654203  -89.7070700   -18.4288400  174.4706000   -26.4486800  171.7174000   -34.4745300  128.6217000
 		     -18.3592600  174.7299000    -0.7874156  -89.7671600   -34.2216200  126.0694000   -27.3140800  165.5117000
   30385660000   -24.6336500 -173.1666000   -29.1961000  111.6937000    -0.7795621  -90.0377000   -18.3967700  174.5663000 
 		     -28.9568900  111.8554000   -25.7503500 -176.0067000   -18.4404800  174.3025000    -0.7743743  -90.1383700
 		      -0.7775637  -90.0175100   -18.4532500  173.8720000   -25.7968300  169.2689000   -34.4359400  127.2995000
 		     -18.3764400  174.0342000    -0.7863765  -90.0534400   -34.0733000  129.2773000   -26.3273800  161.8942000
   30455650000   -25.0582000 -170.2568000   -28.4418500  112.4849000    -0.7824736  -90.2214300   -18.3645600  174.1395000 
 		     -28.6593600  114.8480000   -25.8689200 -178.1537000   -18.4099200  174.1047000    -0.7959068  -90.3276200
 		      -0.7613474  -90.1702300   -18.3363100  173.9566000   -26.0116900  169.0070000   -33.8749700  128.8761000
 		     -18.4038600  174.7594000    -0.7908603  -90.3133200   -34.2878200  128.7038000   -26.7055500  161.0896000
   30525640000   -24.8662200 -171.7106000   -28.4082600  114.3387000    -0.7656534  -90.3516500   -18.2893500  174.0351000 
 		     -28.3450900  110.2704000   -24.9729700 -173.8088000   -18.3730700  173.0526000    -0.7724816  -90.5708200
 		      -0.7727676  -90.4437800   -18.4621000  172.9858000   -25.7476000  169.7143000   -33.6246500  130.7040000
 		     -18.3804600  173.8010000    -0.7899076  -90.6887500   -33.5196400  131.4159000   -26.5744000  165.9151000
   30595630000   -24.4919000 -174.9323000   -28.2898600  115.3931000    -0.7812974  -90.6555900   -18.2485900  173.8960000 
 		     -28.1038000  115.6630000   -24.7592000 -178.0837000   -18.2739200  173.2760000    -0.7793731  -90.9211500
 		      -0.7601300  -90.6303600   -18.2577700  172.9995000   -25.9268600  165.3452000   -33.2935600  133.3130000
 		     -18.3527100  174.1211000    -0.7774519  -90.9321400   -33.5208000  130.8880000   -25.9542800  164.4915000
   30665620000   -24.6811500 -172.6942000   -28.2345800  114.6206000    -0.7750376  -90.7457500   -18.2328300  173.7969000 
 		     -28.2532600  119.9864000   -25.6143200 -176.3827000   -18.2706600  173.3722000    -0.7725267  -90.9550200
 		      -0.7789092  -90.6820300   -18.3103100  173.7615000   -26.0564800  164.3590000   -33.0669700  134.6665000
 		     -18.3403900  173.6378000    -0.7900420  -91.1700500   -32.9922000  133.6848000   -26.5028100  164.7947000
   30735610000   -24.7013100 -173.6369000   -28.3989700  113.8220000    -0.7883113  -91.1256000   -18.2236400  173.4821000 
 		     -28.0598700  116.0754000   -24.8574500  178.2390000   -18.2917900  172.7616000    -0.7812091  -91.2060200
 		      -0.7701473  -90.9772700   -18.3405700  172.6719000   -25.7717300  166.7186000   -32.6799800  136.7463000
 		     -18.1583100  173.5546000    -0.7661928  -91.3362200   -32.8718900  134.7148000   -26.6732000  166.9646000
   30805600000   -24.8055600 -171.8063000   -27.7530700  117.5055000    -0.7855216  -91.3030400   -18.1967900  172.9295000 
 		     -27.9276400  117.8300000   -24.9086600 -175.9031000   -18.2020700  172.2677000    -0.7910774  -91.4541900
 		      -0.7679552  -91.2801400   -18.1199400  172.8133000   -26.1927300  165.8407000   -32.5150800  137.2874000
 		     -18.2525700  172.8833000    -0.8101168  -91.5290800   -32.6898800  135.5041000   -26.4491200  160.2423000
   30875590000   -24.9544800 -171.8818000   -27.8169800  119.2020000    -0.7911128  -91.4436300   -18.1603200  173.0423000 
 		     -27.7714600  117.7594000   -25.2874500 -177.0754000   -18.2317800  172.4201000    -0.7855951  -91.6705900
 		      -0.7733213  -91.4454700   -18.1466800  171.9821000   -25.9651500  160.1383000   -32.6120700  137.6237000
 		     -18.2252300  173.6214000    -0.7858469  -91.4729600   -32.5273900  138.0600000   -26.6703400  160.3736000
   30945580000   -24.8831600 -174.4137000   -27.6569000  119.8898000    -0.7761239  -91.6356500   -18.1514100  172.6832000 
 		     -27.6800200  121.3647000   -25.0660100 -175.4606000   -18.1718600  171.9487000    -0.7728338  -91.8917400
 		      -0.7640268  -91.5291000   -18.1918700  172.8944000   -25.6927900  166.9879000   -32.3015600  138.1554000
 		     -18.1331900  172.7961000    -0.7578120  -91.5561500   -32.2132100  139.2905000   -26.6385600  161.7250000
   31015570000   -24.0910000 -174.8584000   -27.7530000  120.9774000    -0.7968449  -91.8890500   -18.1740600  172.0868000 
 		     -27.5375500  120.6667000   -25.6558100 -177.6256000   -18.1431800  172.1858000    -0.8028852  -92.0024900
 		      -0.7768779  -91.8280500   -18.2086700  172.1769000   -25.9037600  162.0652000   -31.8433100  139.1589000
 		     -18.2196300  172.6774000    -0.8279752  -91.9900700   -32.1568500  139.7159000   -26.1774100  158.8491000
   31085560000   -24.5604600 -172.4995000   -27.2001000  121.4569000    -0.7753431  -92.0103100   -18.1384300  172.0495000 
 		     -27.3525700  118.8136000   -24.7430800 -178.5408000   -18.1945700  171.5647000    -0.7765557  -92.3337200
 		      -0.7805076  -92.0647800   -18.1397200  172.3468000   -26.0596200  161.5551000   -31.6709100  140.4829000
 		     -18.1986300  172.1700000    -0.7706004  -92.2679700   -31.7003100  139.2195000   -26.0561400  163.0980000
   31155550000   -24.4697600 -173.8486000   -27.1719100  121.1407000    -0.7758453  -92.2566800   -18.1173900  171.9804000 
 		     -27.4964100  122.1769000   -24.1106500 -178.3311000   -18.2051700  171.2370000    -0.7777718  -92.5103200
 		      -0.7871301  -92.2351000   -18.1790700  171.8779000   -25.4721500  167.1567000   -31.2848800  140.3943000
 		     -18.1822900  172.1427000    -0.7876586  -92.4411500   -31.3687200  139.3398000   -25.7960300  160.4938000
   31225540000   -24.4166500 -173.5355000   -26.9042000  122.5396000    -0.7910702  -92.5824500   -18.0560600  171.5254000 
 		     -26.9747300  121.8903000   -24.1506100 -176.8909000   -18.1768600  171.0249000    -0.8031091  -92.6957600
 		      -0.7863914  -92.4105100   -18.1692000  171.6006000   -25.8069200  161.7784000   -31.1689900  143.4718000
 		     -18.1208300  172.0551000    -0.7663565  -92.7362300   -31.2514100  142.4690000   -26.1931500  162.0427000
   31295530000   -24.2076800 -172.5696000   -26.7008700  123.6573000    -0.7872245  -92.6530400   -18.0369100  171.1115000 
 		     -27.1189500  124.2199000   -24.6805600 -178.4918000   -18.0705900  170.6901000    -0.7892354  -92.9071700
 		      -0.7589207  -92.6065800   -18.2452200  171.4035000   -26.2745800  160.1983000   -31.1827200  142.4564000
 		     -18.0560600  171.6869000    -0.8014771  -92.9237400   -30.9193900  141.8179000   -25.4440300  160.8060000
   31365520000   -24.2150200 -171.7556000   -26.4028900  123.5465000    -0.7868046  -92.9010600   -18.0464500  171.3210000 
 		     -26.9266800  123.7746000   -24.0266100 -178.1882000   -18.0496700  170.7133000    -0.7748371  -93.2058400
 		      -0.7802132  -92.8796100   -18.0761800  170.8618000   -25.6271300  164.4205000   -30.8402400  143.4136000
 		     -18.0759900  170.8379000    -0.7986549  -93.2239100   -30.6766000  144.7553000   -25.9516300  160.9360000
   31435510000   -23.7922400 -175.0694000   -26.3621200  123.4950000    -0.7833909  -93.2814900   -18.0212600  171.1065000 
 		     -27.0549100  121.9076000   -24.3202100 -177.8331000   -18.0643900  169.9848000    -0.7985302  -93.3649800
 		      -0.7934108  -93.1670500   -18.1589300  170.5128000   -25.3925200  163.3351000   -30.6856300  144.1256000
 		     -17.9605500  170.9592000    -0.8006609  -93.4769300   -30.6311000  144.2959000   -25.8989400  158.7248000
   31505500000   -24.1525200 -175.1003000   -26.6760100  125.3168000    -0.7798591  -93.3770100   -17.9428400  170.6377000 
 		     -26.8331800  123.7876000   -24.5222600 -179.5347000   -18.0644000  169.9611000    -0.8006549  -93.6047900
 		      -0.7774878  -93.3886500   -17.9591400  170.4752000   -25.7398000  162.7130000   -29.9128300  143.6283000
 		     -17.9909600  170.4728000    -0.8098006  -93.5157200   -30.0670100  142.5124000   -25.2750500  162.2171000
   31575490000   -23.7959900 -175.2251000   -26.4554300  126.7468000    -0.7933626  -93.6473500   -17.9585500  170.2331000 
 		     -26.1971900  123.8964000   -23.7507200 -176.7696000   -17.9925000  170.2582000    -0.7832770  -93.8938400
 		      -0.8007041  -93.6174900   -17.9992400  170.6001000   -25.2119100  162.9203000   -29.9283400  145.2585000
 		     -17.9686900  170.5923000    -0.8256018  -93.7776200   -29.9902000  143.4972000   -25.5489400  160.0184000
   31645480000   -23.7279300 -177.2284000   -25.9837500  127.1062000    -0.7994188  -93.8446900   -17.9546700  170.1208000 
 		     -26.2045800  122.7298000   -24.3516900 -173.9296000   -18.0546900  169.7323000    -0.8053564  -94.0219400
 		      -0.8028761  -93.8217200   -18.0084900  169.8488000   -25.1411600  162.5363000   -29.8420100  144.7681000
 		     -17.8772700  169.9115000    -0.8286929  -93.7520400   -30.0055900  144.7108000   -25.5803300  155.8699000
   31715470000   -23.9294000 -174.9433000   -26.0661100  123.6792000    -0.7838922  -94.0152300   -17.9479400  169.8416000 
 		     -26.1531200  125.4001000   -24.3876600  178.7118000   -17.9763500  169.8328000    -0.8105130  -94.3378500
 		      -0.7935897  -94.0627200   -18.0620300  169.2066000   -25.4149300  160.4533000   -29.6553700  145.1004000
 		     -17.9177100  170.2561000    -0.8366016  -94.2844200   -29.5727400  145.1617000   -25.5023000  160.2876000
   31785460000   -23.7391300 -175.3230000   -26.1280900  125.8062000    -0.8206265  -94.3353700   -17.9061800  169.8092000 
 		     -26.2106000  124.0945000   -23.7824900 -177.3808000   -17.9903200  169.1333000    -0.8050713  -94.4630600
 		      -0.8072657  -94.2142600   -18.0300300  169.0930000   -25.1717700  162.9282000   -29.2624800  146.6279000
 		     -17.9389900  169.8530000    -0.8236710  -94.4226800   -29.4645200  145.6627000   -25.2002400  157.1090000
   31855450000   -23.6605300 -175.8519000   -25.9569900  125.2984000    -0.8040868  -94.5726000   -17.9107000  169.3866000 
 		     -25.6975500  126.9800000   -24.5553700  175.2994000   -17.9615500  169.0438000    -0.8177184  -94.5082900
 		      -0.8113217  -94.3625100   -18.0248000  169.2869000   -24.8539500  162.7542000   -29.0198100  147.8622000
 		     -17.8440000  168.7745000    -0.8305516  -94.5164800   -28.9001700  146.8847000   -25.7329500  156.6505000
   31925440000   -23.6149300 -175.0354000   -25.3739300  126.7090000    -0.8162865  -94.5797300   -17.8573100  168.9816000 
 		     -25.9151800  127.7531000   -23.5513900  179.8147000   -17.9146100  168.9135000    -0.8257603  -94.9321200
 		      -0.8184875  -94.5654900   -18.0778800  168.7026000   -25.4523400  160.3412000   -28.8302100  147.0287000
 		     -17.8725200  169.2291000    -0.8267283  -94.8341100   -28.9356800  147.0550000   -25.2579000  161.5035000
   31995430000   -23.3604400 -177.4559000   -25.4897500  125.6148000    -0.8163352  -94.8956200   -17.8339800  168.7300000 
 		     -25.7304300  126.6110000   -24.2964300 -174.7472000   -17.9082200  168.7339000    -0.8055761  -94.9962000
 		      -0.8193661  -94.8662900   -18.0435500  168.8317000   -24.7480700  160.5440000   -28.7015800  146.3253000
 		     -17.7815300  168.7435000    -0.8235158  -94.9616000   -28.5934400  146.9046000   -25.4478800  158.5847000
   32065420000   -23.3564500 -177.1875000   -25.4462100  126.0354000    -0.8331622  -95.1445000   -17.8279500  168.7159000 
 		     -25.4765700  127.7009000   -23.7059900  177.0497000   -17.9258100  168.7285000    -0.8351349  -95.1698800
 		      -0.8285459  -95.0907700   -17.9970700  167.9953000   -24.4396600  160.7342000   -28.5594000  145.7388000
 		     -17.8464100  168.9836000    -0.8397183  -95.0786600   -28.3391700  147.8389000   -25.3671500  155.8264000
   32135410000   -23.6425000 -178.3216000   -25.1261200  128.7212000    -0.8226591  -95.3333700   -17.8329800  168.3213000 
 		     -25.5721500  128.7433000   -23.5589500  177.4937000   -17.8865800  168.1907000    -0.8385491  -95.4599600
 		      -0.8103777  -95.3233900   -17.9412100  168.7275000   -24.9920300  159.6514000   -28.3364800  147.0806000
 		     -17.8472300  168.2944000    -0.8364958  -95.4127700   -28.4755900  146.8937000   -24.8822000  155.3764000
   32205400000   -23.5088600 -179.6921000   -25.5083800  125.7231000    -0.8216103  -95.4843400   -17.8087400  168.0098000 
 		     -25.3707600  125.6875000   -23.3292400  177.9417000   -17.8508700  167.7825000    -0.8334664  -95.6545600
 		      -0.8170397  -95.4002000   -17.8796700  167.7711000   -24.5540800  160.2912000   -28.0242900  147.0991000
 		     -17.8217500  167.8753000    -0.8192664  -95.7125900   -28.0026200  147.6567000   -25.2033800  159.7472000
   32275390000   -23.4871800  178.7491000   -25.2183100  128.7678000    -0.8312290  -95.7302800   -17.8350600  168.0721000 
 		     -25.0969600  127.9376000   -23.9361800  173.0931000   -17.8229000  167.5188000    -0.8767015  -95.8546200
 		      -0.8281493  -95.6832700   -17.8811300  167.8412000   -24.7314500  158.7963000   -28.1173700  146.7879000
 		     -17.8183000  167.7609000    -0.8579873  -95.8287900   -28.0786900  148.3967000   -24.9969400  152.6901000
   32345380000   -23.4710500  179.4745000   -24.9695500  127.0956000    -0.8245397  -95.9506100   -17.7525600  167.6331000 
 		     -25.0871900  128.8222000   -23.9400800  176.6066000   -17.8532000  167.7122000    -0.8474804  -96.1120200
 		      -0.8228440  -95.7582900   -17.8630900  168.1563000   -25.1482700  159.0289000   -27.8874900  148.3525000
 		     -17.8164500  167.9991000    -0.8403016  -96.0022900   -27.8198700  148.0853000   -24.7607800  155.6789000
   32415370000   -22.9838500  179.5284000   -25.2051900  129.1801000    -0.8419768  -96.1345600   -17.7610900  167.5919000 
 		     -25.0109600  127.0176000   -23.1899000  176.7111000   -17.7437200  167.5151000    -0.8431312  -96.2385900
 		      -0.8403333  -96.1962100   -17.8496200  168.0952000   -24.0299900  156.5444000   -27.7211300  147.3980000
 		     -17.7798400  167.5206000    -0.8410851  -96.1707300   -27.5996500  148.0124000   -25.1409300  156.3500000
   32485360000   -23.3275200  176.3772000   -24.7123900  126.3858000    -0.8546630  -96.4008200   -17.7335800  167.3147000 
 		     -24.9749000  128.1861000   -23.3583800  177.5255000   -17.7412000  167.3316000    -0.8518041  -96.4133500
 		      -0.8568362  -96.3665100   -17.7406700  167.0648000   -24.3330700  158.1430000   -27.3252100  147.8253000
 		     -17.7704100  167.6340000    -0.8537377  -96.2518900   -27.2743600  147.8957000   -24.8442200  157.5543000
   32555350000   -23.2785600  178.7318000   -24.8666400  132.4671000    -0.8331991  -96.5026600   -17.6781000  166.9927000 
 		     -24.5081000  128.3910000   -23.0572400  173.3358000   -17.7468800  166.6601000    -0.8531643  -96.8620700
 		      -0.8405539  -96.6138600   -17.7433700  166.1718000   -24.8766700  158.8256000   -27.3127300  148.3024000
 		     -17.7093500  166.6152000    -0.8340172  -96.7864400   -27.2126000  147.7828000   -24.5738600  153.3494000
   32625340000   -23.3250300  179.8441000   -24.3056900  128.7035000    -0.8373163  -96.5922000   -17.6142300  166.8024000 
 		     -24.4973500  129.6383000   -23.2694400  170.9354000   -17.7089300  166.6304000    -0.8569608  -96.8781900
 		      -0.8291192  -96.5846600   -17.6368700  166.1326000   -24.4436600  155.7454000   -27.1872300  147.9650000
 		     -17.7551800  167.3530000    -0.8569627  -96.7483400   -27.0608500  148.4483000   -24.8277000  153.2471000
   32695330000   -22.9647100  178.4471000   -24.1715000  130.2503000    -0.8545628  -96.9824200   -17.7268900  166.4146000 
 		     -24.1836700  131.0668000   -23.4979800  176.3331000   -17.6535800  166.6759000    -0.8686334  -97.0284800
 		      -0.8551121  -96.8302300   -17.7204300  167.2687000   -23.9935900  155.4520000   -26.8348700  147.3063000
 		     -17.5904400  166.2397000    -0.8681988  -97.0950200   -26.8350600  147.5380000   -24.5417600  150.8769000
   32765320000   -23.3891500  175.8554000   -24.5072900  129.3531000    -0.8404147  -97.1070200   -17.6329800  166.3499000 
 		     -24.5552900  128.9011000   -23.5772100  175.5183000   -17.6896300  166.2186000    -0.8458949  -97.3921400
 		      -0.8626789  -97.0134100   -17.7791500  165.7647000   -24.2874000  156.2015000   -26.7596200  147.8728000
 		     -17.5718600  166.0449000    -0.8536013  -97.3241000   -26.6421800  148.0782000   -24.5607000  155.7021000
   32835310000   -22.9887400  175.8344000   -24.3313500  130.3116000    -0.8608969  -97.2812800   -17.5993100  166.2007000 
 		     -24.3572700  128.6906000   -22.8850000  172.9149000   -17.6477400  166.0748000    -0.8556955  -97.4821800
 		      -0.8493482  -97.1966900   -17.6974800  165.4702000   -24.3649300  154.4940000   -26.7235600  148.3293000
 		     -17.6171700  166.0538000    -0.8890455  -97.4425400   -26.6347200  148.5762000   -24.6084300  153.9356000
   32905300000   -22.9176800  173.8085000   -24.3005700  129.4858000    -0.8724874  -97.4999000   -17.6348800  165.6526000 
 		     -24.0873400  131.2535000   -22.9719700  171.1622000   -17.5585100  166.2681000    -0.8563311  -97.7746900
 		      -0.8686205  -97.5009700   -17.7094200  165.6719000   -24.1679600  155.3736000   -26.4899300  149.4076000
 		     -17.6352500  165.5455000    -0.8564115  -97.7530400   -26.3879000  148.0130000   -24.4092800  152.4916000
   32975290000   -23.6285900  174.2688000   -24.3117500  128.9776000    -0.8583207  -97.6725400   -17.5644000  165.6419000 
 		     -24.0864400  131.0406000   -22.8673700  172.3208000   -17.5759200  165.3834000    -0.8581851  -97.9497200
 		      -0.8349237  -97.5203000   -17.5814000  166.1496000   -24.2345400  154.2941000   -26.3531600  148.7739000
 		     -17.5532300  165.9114000    -0.8550216  -97.9855100   -26.3521300  148.0955000   -24.0465000  152.1984000
   33045280000   -22.5374100  172.3600000   -24.1601800  131.8701000    -0.8562741  -97.9297500   -17.5855200  165.6109000 
 		     -24.0209600  131.4220000   -24.1807900  169.4081000   -17.6317400  165.6979000    -0.8681377  -97.9758500
 		      -0.8529463  -97.8663600   -17.5027300  165.6697000   -23.7869000  152.2873000   -26.2630200  148.5597000
 		     -17.5566800  165.1633000    -0.8521191  -97.9827500   -26.1212300  148.8580000   -24.2810500  153.4966000
   33115270000   -23.0161600  174.3132000   -23.8708400  131.9204000    -0.8788366  -98.0775000   -17.5053200  165.0751000 
 		     -23.9293200  128.6385000   -22.9420900  174.8918000   -17.6210600  164.8312000    -0.8517680  -98.2561800
 		      -0.8577839  -98.0952300   -17.6270300  165.6331000   -23.9948200  152.5818000   -25.9862300  149.1424000
 		     -17.5673800  164.7931000    -0.8855406  -98.2252100   -25.9498800  148.2370000   -24.5122100  154.8617000
   33185260000   -23.0762200  175.3639000   -23.9639900  130.6001000    -0.8531142  -98.3552500   -17.5239400  165.2634000 
 		     -23.6176900  130.6533000   -22.2511900  171.6623000   -17.5861100  164.5456000    -0.8702238  -98.6542400
 		      -0.8379570  -98.2467700   -17.6682900  164.5754000   -24.0175200  153.8841000   -25.9899700  148.9245000
 		     -17.5589700  165.1396000    -0.8578186  -98.6376000   -26.0340900  148.6043000   -24.0242200  152.5471000
   33255250000   -22.9468400  170.5499000   -23.7553300  131.7736000    -0.8742704  -98.3759100   -17.5058300  164.8945000 
 		     -23.8561600  130.7050000   -23.3927900  166.7278000   -17.5098500  164.8990000    -0.8795530  -98.7157600
 		      -0.8633158  -98.3867100   -17.5876000  164.8853000   -24.0075700  152.1376000   -25.9006400  149.2040000
 		     -17.5449200  164.8171000    -0.8860310  -98.6670900   -25.8375200  149.6453000   -24.5868300  147.1368000
   33325240000   -23.1018300  173.2037000   -23.6543800  131.1820000    -0.8645456  -98.6758900   -17.4822000  164.5969000 
 		     -23.4599000  130.8542000   -23.2876500  172.2926000   -17.5354200  164.5897000    -0.8639755  -98.9133100
 		      -0.8539590  -98.6629800   -17.6351600  165.4768000   -24.0603500  151.5730000   -25.6838700  150.2244000
 		     -17.4719800  164.3316000    -0.8854019  -98.8629800   -25.6773800  150.1572000   -24.8544800  150.7158000
   33395230000   -22.9315600  176.4753000   -23.4593000  130.5527000    -0.8638185  -98.9355500   -17.4644000  163.9278000 
 		     -23.4033300  130.0526000   -22.9237600  167.8427000   -17.5399000  164.1501000    -0.8839437  -99.0985600
 		      -0.8637968  -99.0078700   -17.5224300  163.4656000   -23.9693500  152.3165000   -25.5206400  149.1964000
 		     -17.5185200  164.0283000    -0.8716135  -99.1046100   -25.6050200  149.5077000   -24.1872300  150.3829000
   33465220000   -22.6757300  170.6809000   -23.5692800  131.6693000    -0.8648407  -99.1547500   -17.4266000  163.7928000 
 		     -23.3948600  132.1541000   -23.8357700  171.7379000   -17.4481800  163.9002000    -0.8435775  -99.2315400
 		      -0.8733982  -99.1414700   -17.4770500  164.6748000   -23.9968400  152.2985000   -25.2604900  149.4147000
 		     -17.4155500  163.7010000    -0.8706666  -99.2133900   -25.3662900  149.3110000   -24.4933900  149.4677000
   33535210000   -23.0455700  172.2321000   -23.2751900  132.3458000    -0.8789856  -99.2957400   -17.3751100  163.8675000 
 		     -23.0649800  133.2048000   -23.7352200  166.6611000   -17.4204400  164.0365000    -0.8763860  -99.4070700
 		      -0.8614880  -99.2291500   -17.5389100  163.9934000   -23.9669600  151.6226000   -25.3097200  148.7843000
 		     -17.4625900  163.5369000    -0.8751854  -99.3573200   -25.2318000  148.4587000   -24.2621300  148.7422000
   33605200000   -22.6793200  177.4025000   -23.1233100  131.6789000    -0.8539773  -99.5211800   -17.4141900  163.6346000 
 		     -23.1158600  131.4704000   -22.7092600  166.1032000   -17.4487500  163.5496000    -0.8911372  -99.6928600
 		      -0.8485163  -99.4370400   -17.4440000  163.8178000   -23.6853100  152.2923000   -25.0130900  149.0971000
 		     -17.4043900  162.9855000    -0.8862298  -99.6493000   -25.0215800  149.7415000   -24.1392500  147.1169000
   33675190000   -23.0704300  172.1395000   -22.9577600  130.4159000    -0.8610734  -99.6672700   -17.3679800  163.4177000 
 		     -23.0338800  132.8784000   -23.4280100  166.4584000   -17.4706900  163.1283000    -0.8853587 -100.0794000
 		      -0.8592393  -99.5621400   -17.4830000  163.5642000   -24.1017900  151.5824000   -25.0668100  149.3993000
 		     -17.4006300  163.4777000    -0.8903158 -100.0085000   -24.9694300  149.3663000   -24.3029700  147.0054000
   33745180000   -22.9108500  173.6543000   -23.0288800  133.4958000    -0.8804358  -99.8833400   -17.3714800  163.1291000 
 		     -23.2250700  131.7279000   -23.2709400  167.5932000   -17.3698200  163.0117000    -0.8861891 -100.0874000
 		      -0.8776687  -99.7317200   -17.4793100  163.2837000   -23.5349100  149.2964000   -24.9337700  149.2318000
 		     -17.4097900  163.0134000    -0.8663803 -100.0338000   -24.8898200  149.0062000   -24.1028400  147.8119000
   33815170000   -22.7528000  173.3948000   -23.1040900  132.2542000    -0.8717454 -100.2537000   -17.3403000  163.0127000 
 		     -22.7715400  132.6456000   -23.4401100  163.6404000   -17.3830200  162.9529000    -0.9150776 -100.2538000
 		      -0.8878472 -100.0820000   -17.6267200  163.8691000   -23.6381600  150.5722000   -24.7373400  150.1480000
 		     -17.3441800  163.0535000    -0.9047844 -100.3602000   -24.7199900  149.4675000   -24.1599600  145.9530000
   33885160000   -22.8682200  173.5938000   -22.5423100  133.3378000    -0.8582017 -100.3834000   -17.2640500  162.3419000 
 		     -22.5948300  132.4922000   -23.2692500  170.7759000   -17.3701600  162.2624000    -0.8762359 -100.6020000
 		      -0.8654232 -100.2253000   -17.4234100  161.9552000   -24.0180900  152.8125000   -24.6580300  149.6791000
 		     -17.2525700  161.9523000    -0.8853818 -100.6613000   -24.4363200  149.6285000   -24.1165400  149.8220000
   33955150000   -22.9793600  169.5125000   -22.6057000  133.8448000    -0.8836385 -100.4444000   -17.3003100  162.6976000 
 		     -22.6834800  132.6063000   -22.7512100  170.4115000   -17.3170200  162.1760000    -0.8570106 -100.7664000
 		      -0.8987748 -100.3597000   -17.3840600  161.4857000   -23.4626000  147.9677000   -24.5033000  148.9100000
 		     -17.3805300  162.3540000    -0.8785731 -100.4819000   -24.5007300  149.6675000   -24.3160200  148.9716000
   34025140000   -22.5036400  171.2550000   -22.7984000  131.8762000    -0.8936694 -100.7514000   -17.3457100  162.0851000 
 		     -22.7443700  132.4776000   -23.0119800  166.9774000   -17.3447800  162.3262000    -0.9124541 -100.9401000
 		      -0.8842058 -100.5465000   -17.3184400  162.7558000   -23.5545400  148.5262000   -24.3968300  149.7038000
 		     -17.3318100  161.9391000    -0.9244903 -101.0158000   -24.4170800  149.1030000   -23.6375700  143.3998000
   34095130000   -23.1213700  172.2339000   -22.5825800  132.6905000    -0.8699881 -101.0550000   -17.2681400  161.7924000 
 		     -22.4014700  134.6349000   -22.1735300  167.3281000   -17.3344100  161.3274000    -0.8965387 -101.4751000
 		      -0.8374410 -100.9277000   -17.3620800  161.3645000   -24.0921000  151.8358000   -24.2086600  149.4263000
 		     -17.3291700  161.7922000    -0.9040251 -101.4225000   -24.2658600  149.4273000   -23.3267000  146.4919000
   34165120000   -22.6432000  171.1971000   -22.3098100  133.8817000    -0.9078596 -101.1389000   -17.2520500  161.6680000 
 		     -22.2490400  132.1284000   -23.0851300  171.4671000   -17.3232400  161.2258000    -0.8706831 -101.4247000
 		      -0.8838561 -101.2141000   -17.3663700  161.5296000   -23.5880100  147.4885000   -24.1748900  149.4004000
 		     -17.3229900  161.3921000    -0.8870336 -101.4239000   -24.2228300  149.6017000   -23.6377400  145.1774000
   34235110000   -22.4612300  168.7143000   -22.1441400  133.1585000    -0.9075928 -101.4555000   -17.2763100  161.3834000 
 		     -22.1573100  132.3693000   -22.8133200  168.2586000   -17.2073300  161.5632000    -0.8933467 -101.5498000
 		      -0.8835674 -101.3355000   -17.3166700  161.5571000   -23.6346500  146.3115000   -24.0804500  150.0125000
 		     -17.3497900  160.9196000    -0.9039757 -101.4455000   -24.1361900  149.8285000   -23.9949100  141.1839000
   34305100000   -22.6511600  169.2439000   -22.2306100  134.4656000    -0.8818111 -101.6704000   -17.1880600  161.4863000 
 		     -22.2239600  133.4624000   -22.2733200  166.3233000   -17.2287400  160.9570000    -0.8898064 -101.9590000
 		      -0.8805554 -101.5783000   -17.3005100  161.1778000   -24.0556800  150.8619000   -23.9111400  149.5023000
 		     -17.2999400  161.0364000    -0.9058099 -101.9215000   -23.7935700  149.6880000   -23.2337600  146.8005000
   34375090000   -22.6415300  168.3461000   -22.2700400  133.1557000    -0.8889331 -101.7344000   -17.2086400  161.2388000 
 		     -22.1567400  133.7852000   -22.7272200  170.8825000   -17.2633600  160.4627000    -0.8867835 -102.0881000
 		      -0.8983663 -101.7865000   -17.2879900  161.1784000   -23.3768300  147.1237000   -23.7554900  150.2083000
 		     -17.3128300  161.2978000    -0.9139570 -102.0542000   -23.7877600  149.8257000   -23.4868500  146.6507000
   34445080000   -22.0145500  170.2035000   -21.8340900  132.7787000    -0.9061939 -102.1150000   -17.1737800  160.6515000 
 		     -21.7549700  134.7511000   -22.4718100  167.8493000   -17.2070900  160.3243000    -0.9097973 -102.1630000
 		      -0.8958731 -102.0626000   -17.1460200  160.6864000   -23.1484200  146.2047000   -23.6782900  149.5976000
 		     -17.2047800  160.7894000    -0.9052452 -102.1540000   -23.6817100  149.2280000   -23.8311600  143.3754000
   34515070000   -22.2272700  170.0185000   -22.1230000  133.1180000    -0.8982384 -102.2523000   -17.1544400  160.3266000 
 		     -21.8770200  132.3450000   -22.6880300  162.1714000   -17.2201700  160.0328000    -0.9088293 -102.5323000
 		      -0.9069718 -102.1979000   -17.3283800  160.6745000   -23.4303200  149.9044000   -23.5827000  149.4033000
 		     -17.1355700  160.2177000    -0.9218460 -102.3280000   -23.5014300  149.2813000   -22.9922700  145.1219000
   34585060000   -22.4201200  170.1066000   -21.8719800  133.1888000    -0.9053976 -102.4915000   -17.1458200  160.4156000 
 		     -21.5761000  133.5201000   -22.3945900  166.6232000   -17.2550200  159.9129000    -0.9061470 -102.6353000
 		      -0.8910906 -102.4647000   -17.3695900  160.3163000   -22.9629000  146.0960000   -23.3112500  149.0069000
 		     -17.1662900  160.0042000    -0.9322079 -102.6067000   -23.4078400  149.2825000   -23.4503200  145.8631000
   34655050000   -22.2063100  170.2753000   -21.6900800  132.2766000    -0.9077799 -102.5920000   -17.1503100  159.8202000 
 		     -21.6563800  134.0945000   -22.7286500  166.3847000   -17.1491600  159.6267000    -0.9290219 -102.8034000
 		      -0.9277675 -102.6922000   -17.2611000  160.5720000   -23.3439900  144.7463000   -23.3979800  149.3810000
 		     -17.1167900  160.3521000    -0.9291286 -102.7405000   -23.3395800  149.3947000   -23.7737900  143.7700000
   34725040000   -22.2652000  165.9790000   -21.6487100  133.4155000    -0.9106633 -102.9482000   -17.1319200  159.5364000 
 		     -21.5402100  134.8186000   -22.3561200  162.1538000   -17.1539800  159.5144000    -0.9304132 -103.2204000
 		      -0.8945459 -102.8842000   -17.3084000  160.0458000   -22.9431400  147.8775000   -23.1998800  149.1850000
 		     -17.1164200  159.5207000    -0.9576635 -103.0347000   -23.2786500  149.0927000   -23.0090000  142.9817000
   34795030000   -22.2415700  169.6346000   -21.5650600  132.9717000    -0.8994606 -103.0325000   -17.0861800  159.6567000 
 		     -21.5333500  133.2638000   -22.8696900  169.0610000   -17.1018000  159.2498000    -0.9221181 -103.2766000
 		      -0.8961859 -103.1942000   -17.1892200  159.2316000   -22.9879400  145.4448000   -22.9096700  148.9308000
 		     -17.1460800  159.3249000    -0.9214994 -103.2860000   -23.0670900  149.3249000   -23.5919600  145.7603000
   34865020000   -22.2333100  166.4782000   -21.3495300  133.2707000    -0.9191729 -103.2322000   -17.1584700  159.4342000 
 		     -21.4503300  131.9763000   -22.0889300  166.6722000   -17.0804700  158.7859000    -0.9223751 -103.5808000
 		      -0.9175799 -103.1326000   -17.1293600  159.4590000   -23.2059500  143.3528000   -23.0225000  149.4211000
 		     -17.1595100  158.7656000    -0.9207851 -103.3658000   -23.0522700  149.3500000   -23.4925100  143.4986000
   34935010000   -21.7619500  166.9022000   -21.3913600  133.8526000    -0.9277650 -103.6301000   -17.0914600  159.2157000 
 		     -21.3950000  132.1795000   -22.5448500  161.9036000   -17.1650000  159.0632000    -0.9372978 -103.6775000
 		      -0.9351032 -103.5413000   -17.2019500  158.5924000   -22.7482300  146.6852000   -22.9480100  149.6874000
 		     -17.1383800  158.7813000    -0.9656134 -103.5569000   -22.9686100  149.5938000   -23.4779500  143.9317000
   35005000000   -22.1318500  167.6117000   -21.1547500  134.7979000    -0.9060249 -103.7630000   -17.0725100  158.8539000 
 		     -21.2888000  133.4648000   -22.3682900  168.5851000   -17.0872600  158.9829000    -0.9354139 -103.9075000
 		      -0.8902761 -103.7093000   -16.9985500  159.3312000   -22.9691000  144.9529000   -22.6913300  148.9276000
 		     -17.0405800  158.1954000    -0.9404163 -103.8245000   -22.7731900  149.6156000   -23.3272200  141.8300000
   35074990000   -22.4055800  167.6481000   -21.3468400  133.8006000    -0.9159942 -103.7951000   -17.0199900  158.7794000 
 		     -21.1704800  132.8161000   -21.9631300  164.4010000   -17.1421900  158.5055000    -0.9432906 -104.2468000
 		      -0.9432559 -103.8270000   -17.1661600  158.6824000   -23.2761500  144.2657000   -22.6285600  149.1167000
 		     -17.0523300  158.1218000    -0.9225368 -104.2061000   -22.6942400  149.0201000   -23.0519500  145.9902000
   35144980000   -22.0487500  164.7492000   -21.0618600  133.6344000    -0.9383290 -104.1543000   -17.0483600  157.9532000 
 		     -21.3133000  132.5509000   -22.2651400  165.0791000   -17.0906100  158.6383000    -0.9355748 -104.5290000
 		      -0.9368818 -104.2134000   -17.2075500  158.3879000   -22.4461900  145.0276000   -22.4952800  148.4997000
 		     -17.0262700  157.9382000    -0.9513060 -104.4194000   -22.5619700  148.4161000   -22.7717200  142.7827000
   35214970000   -21.9428400  167.5287000   -21.1116400  133.3954000    -0.9206456 -104.3587000   -16.9784100  157.9761000 
 		     -20.8570900  133.4122000   -21.9829800  166.1546000   -17.0054100  157.9811000    -0.9481507 -104.5514000
 		      -0.9018478 -104.2179000   -17.0657400  157.6138000   -22.8966000  145.1916000   -22.4811800  149.1281000
 		     -17.0173800  157.8166000    -0.9498209 -104.6568000   -22.3890700  149.0878000   -23.3045800  139.6268000
   35284960000   -21.9564800  166.7469000   -20.8094200  134.2148000    -0.9363689 -104.4275000   -16.9686500  157.7859000 
 		     -20.8605300  134.1777000   -22.3986400  163.0526000   -17.0340400  157.8811000    -0.9412788 -104.8372000
 		      -0.9368137 -104.4108000   -17.0135700  157.4840000   -23.1680000  142.6198000   -22.4486500  149.0161000
 		     -16.9139100  158.5919000    -0.9683335 -104.6719000   -22.3679700  149.2498000   -23.0528600  142.3808000
   35354950000   -21.6081400  165.2368000   -20.9652700  133.3453000    -0.9484792 -104.7789000   -16.9684900  157.6131000 
 		     -20.8683400  133.5991000   -22.2242100  165.1197000   -16.9906600  157.6682000    -0.9433144 -104.9098000
 		      -0.9272378 -104.8302000   -17.0680000  157.6372000   -22.3908300  143.8024000   -22.2854200  148.9733000
 		     -16.9398800  158.3685000    -0.9437510 -104.8095000   -22.2422800  148.9774000   -23.4483700  140.5490000
   35424940000   -22.1585900  166.1801000   -20.6632200  134.6497000    -0.9406323 -105.0063000   -16.9423200  157.3903000 
 		     -20.7108500  133.3606000   -21.8367100  164.6293000   -16.9739200  156.8789000    -0.9572650 -105.1304000
 		      -0.9600168 -105.0483000   -17.0254900  157.4721000   -22.2274300  142.5288000   -22.3199800  148.4684000
 		     -16.9841200  156.9950000    -0.9275092 -104.9503000   -22.2214300  148.0979000   -22.8883400  140.8823000
   35494930000   -21.9708600  164.0358000   -20.5141400  133.5863000    -0.9362540 -105.0652000   -16.9514400  157.2602000 
 		     -20.6761000  134.2446000   -21.9964000  162.3496000   -16.9261100  157.0838000    -0.9362854 -105.2053000
 		      -0.9207246 -104.9855000   -17.0254900  157.5446000   -22.9515100  145.0780000   -21.9880700  148.2580000
 		     -16.9322800  157.1552000    -0.9522045 -105.3596000   -22.0886300  148.7649000   -22.5849600  139.8898000
   35564920000   -21.8617200  163.6354000   -20.5754600  132.9305000    -0.9377041 -105.2676000   -16.9001800  156.8740000 
 		     -20.5863200  133.8567000   -22.5232900  161.7377000   -16.9360400  157.2653000    -0.9542679 -105.4729000
 		      -0.9594557 -105.1978000   -17.0459400  156.9753000   -22.8351900  142.0946000   -22.0098600  149.0061000
 		     -16.9383300  157.1201000    -0.9315618 -105.3485000   -22.0181100  148.6746000   -22.7642700  140.0497000
   35634910000   -21.8477400  166.0851000   -20.4102200  134.8949000    -0.9472904 -105.5740000   -16.9238000  156.6685000 
 		     -20.6186800  133.6288000   -21.6886000  160.4446000   -16.9049100  156.8006000    -0.9608015 -105.8676000
 		      -0.9161173 -105.4889000   -16.8345400  156.3686000   -22.7099200  142.8128000   -21.8230900  148.9427000
 		     -16.9353000  156.4577000    -0.9436779 -105.7123000   -21.8927600  148.7732000   -22.7013700  140.9583000
   35704900000   -21.4202900  161.0863000   -20.4581600  133.5193000    -0.9634196 -105.6219000   -16.9257900  156.3428000 
 		     -20.4744700  134.2359000   -22.2363500  165.0580000   -16.8447200  156.8536000    -0.9342723 -105.8940000
 		      -0.9673812 -105.7566000   -16.9582900  156.3216000   -22.5489700  139.8176000   -21.7815900  148.8346000
 		     -16.8735300  156.8088000    -0.9601850 -105.7232000   -21.8326700  148.6745000   -22.8127100  138.9044000
   35774890000   -21.8275200  161.9591000   -20.1797100  133.5532000    -0.9479492 -105.9138000   -16.8829200  156.1695000 
 		     -20.5048000  133.1273000   -21.6233200  158.8943000   -16.9083400  156.2994000    -0.9575118 -106.0553000
 		      -0.9455065 -105.9023000   -17.0714500  155.0009000   -22.7145700  141.9378000   -21.7545300  148.4055000
 		     -16.8046800  156.0913000    -0.9426100 -106.0657000   -21.6476700  148.2043000   -22.6880500  140.8095000
   35844880000   -21.6157600  163.7435000   -20.2294700  132.2979000    -0.9532296 -106.1388000   -16.8456800  156.0051000 
 		     -20.3141800  134.7273000   -21.7540400  159.7558000   -16.8402600  156.0657000    -0.9431413 -106.2424000
 		      -0.9770498 -106.1295000   -16.9052700  155.8292000   -22.3212200  139.5204000   -21.6660500  147.8234000
 		     -16.9408800  156.0300000    -0.9209822 -106.2253000   -21.6235200  148.1881000   -22.5071000  138.9643000
   35914870000   -21.4953600  160.6574000   -20.3838300  132.5144000    -0.9685915 -106.3717000   -16.8516000  155.6153000 
 		     -20.2506400  134.3252000   -21.7658400  161.7410000   -16.8589000  155.9459000    -0.9787714 -106.5391000
 		      -0.9522909 -106.5031000   -16.9229700  154.8727000   -22.3405600  142.4410000   -21.3810400  148.0795000
 		     -16.8399200  155.8443000    -0.9999969 -106.5102000   -21.4684100  148.0523000   -22.3847900  138.9567000
   35984860000   -21.7940400  164.2276000   -20.0850100  133.7544000    -0.9459673 -106.4653000   -16.7579200  155.2222000 
 		     -20.1664700  132.3362000   -21.6741100  163.7996000   -16.8788400  155.2839000    -0.9356040 -106.8115000
 		      -0.9248183 -106.3801000   -16.8993000  156.3277000   -22.5647200  142.8682000   -21.2697900  148.3660000
 		     -16.8338600  154.9695000    -0.9312446 -106.7598000   -21.3508000  148.4345000   -22.4294500  142.2343000
   36054850000   -21.5001700  164.8768000   -20.0258200  133.9527000    -0.9420360 -106.5948000   -16.7747400  155.3499000 
 		     -20.1363000  134.3452000   -21.7186900  161.0269000   -16.7398100  155.4314000    -0.9709448 -106.9402000
 		      -0.9646257 -106.5467000   -16.7390400  155.4967000   -22.2368400  139.9753000   -21.3410800  148.3141000
 		     -16.8071800  155.4206000    -0.9592710 -106.9188000   -21.2601500  148.5000000   -22.7994500  136.5101000
   36124840000   -21.9983400  162.3871000   -20.1605800  134.3624000    -0.9654908 -106.9683000   -16.8426900  154.6128000 
 		     -20.0153800  133.7505000   -21.7025500  157.8167000   -16.8047100  155.6121000    -0.9821639 -107.2083000
 		      -0.9501560 -106.9596000   -16.8899600  155.7825000   -22.5940700  140.0216000   -21.3019900  147.5952000
 		     -16.7935000  155.3346000    -0.9976788 -107.1771000   -21.2563400  147.7767000   -21.8878100  137.9401000
   36194830000   -21.6975600  163.9428000   -19.9137600  134.2697000    -0.9459657 -107.0645000   -16.6785600  154.7944000 
 		     -19.8354900  132.8117000   -21.3933100  161.6378000   -16.7772400  154.9326000    -0.9686813 -107.5021000
 		      -0.9631591 -107.2025000   -16.9349300  154.5340000   -22.3815800  141.2207000   -21.1250300  148.3972000
 		     -16.7776100  154.7126000    -0.9745859 -107.5621000   -21.0684200  148.0514000   -22.5862700  140.1639000
   36264820000   -21.6415100  163.8088000   -19.6584500  133.7082000    -0.9543936 -107.2561000   -16.6505300  154.8574000 
 		     -19.5355300  133.4038000   -21.5866700  160.3194000   -16.6428800  154.4883000    -0.9694299 -107.4632000
 		      -0.9599852 -107.1026000   -16.6468000  154.3714000   -22.4660800  137.9500000   -21.0969700  148.2407000
 		     -16.8481900  154.4632000    -0.9888792 -107.3172000   -21.1023200  148.3499000   -22.8313300  135.9149000
   36334810000   -21.6047000  162.9143000   -19.6258500  132.5050000    -0.9754831 -107.5782000   -16.7083100  154.1313000 
 		     -19.7519700  134.4287000   -21.3921300  158.3500000   -16.7272100  154.8938000    -1.0045180 -107.8118000
 		      -0.9679668 -107.5431000   -16.7865700  154.5779000   -22.4371500  140.9634000   -20.9343600  147.6750000
 		     -16.7386400  154.5954000    -0.9758978 -107.8206000   -20.9952500  147.9905000   -22.0507300  137.6771000
   36404800000   -21.5425100  162.2634000   -19.6038500  134.1232000    -0.9482089 -107.8234000   -16.6781000  154.1407000 
 		     -19.7912500  134.1332000   -21.7778200  161.7094000   -16.7615200  154.2459000    -0.9802712 -108.0095000
 		      -0.9650567 -107.7092000   -16.9067300  154.0950000   -22.4466600  140.4845000   -20.9070900  147.8020000
 		     -16.7243000  154.3602000    -1.0042100 -107.8855000   -20.8071900  147.7713000   -22.5410600  137.4687000
   36474790000   -21.3739100  162.3437000   -19.6332100  131.6753000    -0.9595431 -107.9246000   -16.7145400  153.8269000 
 		     -19.5946800  132.9003000   -21.5520500  158.9931000   -16.6581500  153.7437000    -0.9740137 -108.0727000
 		      -0.9382982 -107.7730000   -16.7759100  153.1182000   -22.1917000  138.1455000   -20.8254200  147.7964000
 		     -16.6544100  153.5142000    -0.9607143 -108.0769000   -20.7812600  147.9335000   -22.7929900  135.8294000
   36544780000   -21.7322300  159.6521000   -19.3093800  133.5673000    -0.9824097 -108.1957000   -16.6907300  153.9108000 
 		     -19.3900800  133.2048000   -21.7375800  158.3594000   -16.6585300  153.5321000    -0.9845539 -108.3457000
 		      -0.9737203 -108.1686000   -16.5656500  154.2374000   -22.4223500  140.3167000   -20.7361600  147.7491000
 		     -16.7056000  153.5399000    -0.9683038 -108.1581000   -20.7497100  147.4757000   -22.1688000  135.7638000
   36614770000   -21.0020200  162.2437000   -19.4499600  133.9686000    -0.9812868 -108.4221000   -16.6223800  153.3666000 
 		     -19.5125500  134.2670000   -21.2043700  157.8716000   -16.7443900  153.8386000    -0.9973205 -108.5274000
 		      -0.9677047 -108.4638000   -16.8028500  152.9254000   -21.9471200  141.2837000   -20.5801800  147.0587000
 		     -16.6308000  153.4634000    -0.9911886 -108.5444000   -20.5915700  147.7108000   -22.3472800  135.3931000
   36684760000   -21.4475900  161.6282000   -19.3360100  133.4207000    -0.9650308 -108.6323000   -16.5542100  153.1134000 
 		     -19.2921000  132.9934000   -21.6329900  156.1573000   -16.6696400  153.0805000    -0.9926898 -108.9389000
 		      -0.9689363 -108.5860000   -16.6877100  153.1563000   -22.2194300  137.8811000   -20.4418500  147.2575000
 		     -16.6009000  153.2930000    -1.0025040 -108.8270000   -20.4090400  147.5022000   -22.5105200  137.1641000
   36754750000   -21.3706600  161.0149000   -19.3752900  133.3287000    -0.9759585 -108.7669000   -16.6019100  153.1290000 
 		     -19.2953900  132.8392000   -21.7022300  157.0993000   -16.6156100  153.1016000    -0.9837422 -108.9846000
 		      -0.9781365 -108.8320000   -16.5494100  153.4774000   -22.2741900  138.6333000   -20.4158600  147.2729000
 		     -16.5866400  152.6215000    -0.9782695 -108.9816000   -20.4706800  147.4491000   -22.1398700  136.7686000
   36824740000   -21.4798000  162.5262000   -19.2880000  132.8244000    -0.9953971 -108.9533000   -16.6012300  152.6654000 
 		     -19.2379900  133.3859000   -21.4108300  156.0642000   -16.6461300  152.8452000    -1.0243860 -109.1168000
 		      -0.9787277 -109.0665000   -16.6500500  150.9405000   -21.8718600  139.6150000   -20.2752200  146.9235000
 		     -16.5723100  152.3713000    -1.0047220 -109.0923000   -20.2939900  146.9718000   -21.9817300  134.1144000
   36894730000   -21.3865000  157.9220000   -19.0291500  133.3839000    -0.9854159 -109.3916000   -16.5786400  152.4391000 
 		     -19.1550600  133.0983000   -21.1618500  158.0542000   -16.6681300  152.1092000    -1.0050590 -109.3581000
 		      -0.9849404 -109.6083000   -16.5913300  151.3199000   -21.8915200  137.6609000   -20.2510500  146.5628000
 		     -16.6065200  152.3316000    -1.0011410 -109.3699000   -20.2617900  146.5625000   -22.0342900  136.3893000
   36964720000   -21.6712500  161.0573000   -19.0800300  133.8562000    -0.9799677 -109.3535000   -16.5675200  152.4703000 
 		     -19.1072400  133.6949000   -20.5823500  160.8771000   -16.5467500  151.8850000    -1.0096720 -109.7675000
 		      -0.9863495 -109.2876000   -16.7779100  151.8198000   -22.4844400  137.3701000   -20.3229500  147.2419000
 		     -16.5621000  152.6198000    -0.9904447 -109.7052000   -20.2721900  147.5735000   -22.0950700  133.2154000
   37034710000   -21.0743000  160.0428000   -19.0518800  135.6284000    -1.0037010 -109.6395000   -16.5619100  152.4615000 
 		     -19.0624900  134.3487000   -21.5671600  153.2627000   -16.6194300  152.3925000    -0.9984323 -109.7234000
 		      -0.9944838 -109.5782000   -16.6799800  151.9628000   -21.4262200  137.0990000   -20.2381100  146.8637000
 		     -16.5336200  152.5535000    -1.0449930 -109.7892000   -20.1434800  146.8408000   -22.2522500  129.7902000
   37104700000   -21.1618600  159.5909000   -19.0880200  132.4814000    -0.9891243 -109.8398000   -16.4951900  151.3897000 
 		     -19.0304100  133.5064000   -21.0786600  155.9749000   -16.6508800  151.7832000    -1.0053300 -110.1323000
 		      -1.0008610 -109.8534000   -16.6743300  151.5265000   -22.1197700  136.7495000   -19.9557200  146.6986000
 		     -16.4940300  151.6785000    -1.0521800 -110.0035000   -19.9429800  146.5691000   -21.9087600  136.5212000
   37174690000   -21.4562600  158.7185000   -18.8559600  133.1507000    -1.0020960 -109.8714000   -16.5612800  151.8522000 
 		     -19.0840500  133.6836000   -20.5059100  160.5862000   -16.5336200  151.1879000    -1.0078020 -110.4040000
 		      -1.0117900 -109.8116000   -16.4834800  151.0968000   -21.9955200  136.3956000   -20.0635100  146.1590000
 		     -16.5768500  151.4238000    -0.9879077 -110.3600000   -20.0676400  146.2558000   -21.2894000  132.3303000
   37244680000   -20.9624900  159.3146000   -18.8525200  133.3918000    -1.0239350 -110.2674000   -16.5388300  151.4462000 
 		     -18.7131500  133.0508000   -20.9792200  151.9114000   -16.5522400  151.5090000    -1.0190560 -110.4294000
 		      -0.9987506 -110.1154000   -16.6072800  151.4174000   -21.3248600  136.2479000   -19.8915700  146.3322000
 		     -16.5683200  151.2176000    -1.0053670 -110.4290000   -19.8864500  146.1928000   -21.9235300  130.7924000
   37314670000   -21.2184800  158.7732000   -18.7524800  132.6688000    -0.9882694 -110.5557000   -16.5032400  150.7946000 
 		     -18.7530500  132.7991000   -20.4071800  157.5792000   -16.5713400  150.6460000    -1.0310740 -110.6741000
 		      -1.0006750 -110.4645000   -16.5086300  150.6962000   -22.3760000  137.4221000   -19.7743100  146.5298000
 		     -16.5202000  151.0552000    -1.0355290 -110.6099000   -19.7460000  146.1476000   -21.5742200  135.7309000
   37384660000   -21.2079700  158.1511000   -18.7008800  133.7906000    -0.9933064 -110.5583000   -16.4549200  151.0238000 
 		     -18.7212000  132.7597000   -20.9628000  158.9646000   -16.5386700  150.6925000    -1.0175640 -110.9052000
 		      -0.9869059 -110.3271000   -16.3494800  151.3985000   -22.1521600  136.9911000   -19.6680900  146.8598000
 		     -16.4492000  151.4139000    -0.9652215 -110.8681000   -19.7656300  146.0928000   -21.3976600  132.3781000
   37454650000   -21.0797800  157.4674000   -18.6306200  133.1425000    -1.0139110 -110.8749000   -16.4290500  150.4595000 
 		     -18.6394000  133.4440000   -21.2606800  150.8352000   -16.4689300  151.1463000    -1.0326860 -111.0356000
 		      -1.0149790 -110.7214000   -16.5715300  151.2303000   -21.1814100  132.9461000   -19.7463800  145.7784000
 		     -16.4992900  150.6081000    -1.0353530 -111.0882000   -19.7328100  146.1437000   -21.8151600  132.1700000
   37524640000   -21.1379800  159.9902000   -18.6687800  132.6479000    -1.0033110 -111.0888000   -16.4013200  150.1141000 
 		     -18.6353100  132.6253000   -20.5392000  154.5233000   -16.5230500  150.4611000    -1.0362490 -111.4192000
 		      -0.9837990 -110.9899000   -16.5723400  149.7192000   -21.9093900  138.4064000   -19.4977000  146.0001000
 		     -16.3744800  149.9168000    -1.0210000 -111.3004000   -19.5002600  145.8030000   -21.4571700  136.3676000
   37594630000   -20.6205000  158.1782000   -18.3605900  132.6475000    -1.0141150 -111.1818000   -16.4107700  150.2210000 
 		     -18.5665300  132.8104000   -21.7250700  154.3833000   -16.4633100  149.6499000    -1.0091300 -111.4087000
 		      -1.0099020 -111.1017000   -16.3438600  150.3107000   -21.5242900  136.2502000   -19.5590100  145.7877000
 		     -16.4697000  150.6344000    -1.0094700 -111.3555000   -19.5882400  145.8275000   -22.0029700  128.9137000
   37664620000   -21.1430000  158.3194000   -18.4992200  134.1770000    -1.0163670 -111.4390000   -16.3998000  149.8088000 
 		     -18.4408800  133.9918000   -21.5892400  151.2596000   -16.3997800  150.5443000    -1.0293510 -111.6697000
 		      -1.0199070 -111.3218000   -16.4778400  151.0873000   -21.3832900  133.5270000   -19.4464100  145.9706000
 		     -16.4393500  149.6881000    -1.0264690 -111.5381000   -19.4139800  145.6900000   -21.9091000  132.6316000
   37734610000   -20.9938400  159.1620000   -18.2975200  133.9396000    -1.0106300 -111.5867000   -16.3382100  149.6637000 
 		     -18.4164600  132.3663000   -20.6572900  155.8834000   -16.4617000  149.5266000    -1.0447190 -111.9783000
 		      -0.9906335 -111.6177000   -16.5269900  149.5440000   -21.8819300  135.9339000   -19.3045100  146.1273000
 		     -16.4099600  148.9559000    -1.0522760 -111.6851000   -19.3147600  145.4673000   -21.4843500  133.7878000
   37804600000   -20.8409700  155.2666000   -18.2603600  133.4021000    -1.0288230 -111.7596000   -16.3956500  149.4016000 
 		     -18.2964500  132.4969000   -21.1553000  151.0656000   -16.3788500  149.5232000    -1.0440260 -111.9517000
 		      -1.0306790 -111.7085000   -16.3533000  148.4654000   -21.4389200  134.0997000   -19.3737000  145.8035000
 		     -16.4281500  149.3880000    -1.0464240 -111.7761000   -19.4082500  145.8081000   -21.7950800  128.2893000
   37874590000   -21.2543600  158.9627000   -18.1904700  133.2963000    -1.0494090 -112.1373000   -16.3391200  149.0433000 
 		     -18.3936600  132.7651000   -21.3018700  153.4958000   -16.4449000  149.5911000    -1.0278220 -112.2145000
 		      -1.0391510 -112.0991000   -16.4270000  150.0281000   -21.3131200  133.6502000   -19.1822700  144.9894000
 		     -16.4035900  149.4214000    -1.0309590 -111.9969000   -19.2878100  145.6111000   -22.0395200  131.6054000
   37944580000   -20.4686200  158.5372000   -18.2055700  132.3683000    -1.0257720 -112.3816000   -16.4284600  148.4718000 
 		     -18.2786400  132.7577000   -20.9157400  153.8612000   -16.3662100  148.9050000    -1.0596440 -112.4837000
 		      -1.0274460 -112.2089000   -16.5695700  149.4167000   -21.5474000  134.7921000   -19.2021700  144.8268000
 		     -16.4300700  148.5484000    -1.0697920 -112.2016000   -19.1455600  144.7276000   -21.4458500  130.5443000
   38014570000   -20.8296100  154.3827000   -18.0008400  133.0219000    -1.0374460 -112.4380000   -16.3372200  148.6798000 
 		     -18.2383600  132.5045000   -20.7741200  152.1664000   -16.3912300  149.0914000    -1.0500770 -112.6315000
 		      -1.0373080 -112.4557000   -16.3649400  148.8721000   -21.1262200  135.8682000   -19.1292600  145.2258000
 		     -16.4605400  148.7004000    -1.0393130 -112.6551000   -19.1592100  144.8660000   -21.8330900  127.5714000
   38084560000   -20.7223900  154.1561000   -18.0606500  132.2596000    -1.0353550 -112.6270000   -16.3921400  148.2858000 
 		     -17.9914500  133.1834000   -21.2268300  153.3355000   -16.3513200  148.5425000    -1.0464450 -112.7860000
 		      -1.0261310 -112.5344000   -16.3914700  149.6695000   -21.1764600  130.8680000   -19.1187400  145.2621000
 		     -16.3149800  148.5245000    -1.0311490 -112.8571000   -19.1336000  144.9429000   -21.4745000  129.6854000
   38154550000   -20.3413000  155.0623000   -17.9491800  131.0983000    -1.0476710 -112.8205000   -16.3379000  148.2493000 
 		     -17.9422800  132.1790000   -21.0262500  153.1641000   -16.2744000  148.4778000    -1.0236110 -112.9317000
 		      -1.0321970 -112.8842000   -16.3063400  148.6143000   -21.2170300  133.2798000   -18.9583000  144.9118000
 		     -16.3191900  148.1094000    -1.0352680 -112.9779000   -18.9959000  145.1318000   -21.5569400  126.1493000
   38224540000   -20.7221600  153.8527000   -18.0166400  133.2429000    -1.0360660 -113.0943000   -16.3225300  147.4982000 
 		     -18.0082400  132.8415000   -20.4659100  147.3627000   -16.3944800  148.2375000    -1.0648230 -113.2699000
 		      -1.0541630 -113.0605000   -16.3810400  148.6478000   -21.0052900  134.3629000   -18.9090600  144.3402000
 		     -16.3256400  147.8433000    -1.0755960 -113.2734000   -18.8765000  144.4409000   -21.3282700  128.6151000
   38294530000   -20.6525700  157.1780000   -17.7395600  132.0770000    -1.0371700 -113.2024000   -16.3008700  147.1841000 
 		     -17.8515700  132.6603000   -20.3652600  154.4666000   -16.3222800  147.8397000    -1.0548470 -113.5681000
 		      -1.0385150 -113.1608000   -16.1640100  147.4752000   -21.3557900  131.5448000   -18.8020200  143.9793000
 		     -16.3007100  148.3026000    -1.0492170 -113.3032000   -18.8213800  144.6254000   -21.1241300  129.9387000
   38364520000   -20.1856200  155.4886000   -17.9449600  132.8274000    -1.0534310 -113.5655000   -16.2971800  147.2032000 
 		     -17.8249000  131.6244000   -20.6362300  151.1868000   -16.2439300  147.6664000    -1.0418040 -113.6236000
 		      -1.0553420 -113.3694000   -16.1384900  148.4779000   -21.0977600  132.7124000   -18.8805300  144.1697000
 		     -16.2926900  147.3369000    -1.0546230 -113.5817000   -18.8166800  144.3265000   -21.3084600  124.1191000
   38434510000   -20.8731000  150.9596000   -17.6891500  132.1770000    -1.0496130 -113.6104000   -16.1991900  147.5759000 
 		     -17.7753600  133.1579000   -20.6077700  147.1324000   -16.2148400  147.8028000    -1.0618930 -113.8213000
 		      -1.0794750 -113.6728000   -16.3872200  148.1302000   -21.0728800  131.0064000   -18.7294300  144.0215000
 		     -16.3298700  148.0610000    -1.0783800 -113.7543000   -18.6699000  144.1537000   -21.3041000  128.8461000
   38504500000   -20.4277800  155.9973000   -17.7070300  132.8324000    -1.0553050 -113.7878000   -16.2071700  147.2384000 
 		     -17.6656800  132.6691000   -20.7649800  152.7260000   -16.2342000  147.2771000    -1.0550200 -114.0667000
 		      -1.0647280 -113.7376000   -16.3038600  147.5707000   -21.3538200  130.2633000   -18.7165700  144.1881000
 		     -16.3262200  147.0744000    -1.0679300 -113.8560000   -18.6786500  144.0246000   -21.0489100  125.9319000
   38574490000   -20.3802800  153.2933000   -17.6700100  132.5867000    -1.0394440 -114.0534000   -16.2379200  147.1888000 
 		     -17.6927900  132.0151000   -20.7484500  143.7758000   -16.2459000  146.8475000    -1.0735790 -114.0926000
 		      -1.0428690 -113.8548000   -16.2431700  147.4183000   -21.1047400  131.3652000   -18.6589900  144.9787000
 		     -16.2428300  147.3320000    -1.0640180 -114.1479000   -18.6052700  144.5923000   -21.7479200  124.0899000
   38644480000   -20.8904700  152.3640000   -17.5145900  131.2929000    -1.0380470 -114.1652000   -16.2744400  146.6739000 
 		     -17.6206800  131.2254000   -20.3460500  151.1832000   -16.1779200  146.5927000    -1.0657920 -114.5497000
 		      -1.0638240 -114.0369000   -16.2265800  146.3622000   -21.1064100  132.2292000   -18.4805000  142.9544000
 		     -16.2756400  146.1365000    -1.0738340 -114.4172000   -18.5310300  143.3513000   -20.5833100  128.8080000
   38714470000   -20.3861800  154.5852000   -17.5023800  132.2068000    -1.0686950 -114.3696000   -16.2408800  146.4825000 
 		     -17.4164900  131.5573000   -20.6770000  151.3125000   -16.2368900  146.6148000    -1.0583490 -114.6851000
 		      -1.0764520 -114.1852000   -16.3391300  147.0557000   -21.1995900  128.0163000   -18.5980600  143.8377000
 		     -16.1996300  146.5480000    -1.0388610 -114.2942000   -18.5158100  143.9707000   -20.7977500  124.1728000
   38784460000   -20.4051900  153.8161000   -17.5651000  131.4868000    -1.0618650 -114.8160000   -16.1670100  146.1025000 
 		     -17.5370500  131.7274000   -20.4393000  147.3169000   -16.2748600  146.2136000    -1.0443890 -114.9290000
 		      -1.0624480 -114.5007000   -16.2998700  145.9024000   -21.0452400  130.2969000   -18.4904500  143.5608000
 		     -16.2948000  146.5861000    -1.0229010 -114.8065000   -18.4575800  143.7266000   -21.4505800  129.1001000
   38854450000   -20.6718800  151.5382000   -17.4712100  131.8377000    -1.0668620 -114.9063000   -16.1798400  146.3207000 
 		     -17.4933100  131.8367000   -20.5324700  154.0996000   -16.1718300  146.0002000    -1.0629020 -115.1227000
 		      -1.0692210 -114.7845000   -16.3577700  145.0876000   -20.9835900  129.2876000   -18.2813700  143.3729000
 		     -16.2168300  146.4068000    -1.0422100 -115.0204000   -18.3256500  143.2558000   -21.0269000  128.8893000
   38924440000   -20.3829700  153.9661000   -17.3609400  129.9226000    -1.0580620 -115.1949000   -16.2056400  145.7010000 
 		     -17.4478700  131.0280000   -20.1897800  152.4233000   -16.0780300  145.4109000    -1.0649380 -115.4120000
 		      -1.0539650 -114.9767000   -16.2225900  146.2975000   -21.1935400  131.4320000   -18.2217300  143.8685000
 		     -16.2081500  145.8211000    -1.0758430 -115.0315000   -18.2177200  143.2579000   -21.0104100  125.0676000
   38994430000   -20.3053200  152.1450000   -17.2985300  131.7880000    -1.0714810 -115.2143000   -16.0944300  145.5869000 
 		     -17.2982800  131.3459000   -20.3402100  148.9384000   -16.1186600  145.7710000    -1.0854740 -115.4558000
 		      -1.0970430 -115.1700000   -16.2527800  145.5695000   -21.1140600  128.7211000   -18.1556300  144.1124000
 		     -16.1680600  146.0137000    -1.0651980 -115.2170000   -18.2555200  143.5775000   -21.6104600  131.0401000
   39064420000   -20.8159400  152.6969000   -17.0683500  131.3528000    -1.0588420 -115.5181000   -16.0319000  145.2463000 
 		     -17.2296400  130.5702000   -20.3815800  150.7015000   -16.1784200  145.5182000    -1.0778780 -115.7655000
 		      -1.0487970 -115.4545000   -16.1365200  144.6821000   -21.2520000  131.5143000   -18.1052800  143.0319000
 		     -16.0968300  145.2538000    -1.0629320 -115.6684000   -18.1127700  143.4864000   -20.7578900  126.3675000
   39134410000   -20.5523900  153.3908000   -17.2137100  129.7478000    -1.0791380 -115.6627000   -16.1520000  144.7800000 
 		     -17.2646300  130.7869000   -20.1632300  150.3001000   -16.0933700  145.5392000    -1.0998700 -116.1885000
 		      -1.0790690 -115.5883000   -16.2059200  144.9033000   -20.9303100  129.2184000   -18.1064900  142.9086000
 		     -16.1403600  145.3196000    -1.0876640 -115.9267000   -18.1325500  143.2446000   -21.0281400  125.5671000
   39204400000   -20.4283800  150.9901000   -17.2101000  131.6614000    -1.0914920 -115.8978000   -16.0096500  144.5220000 
 		     -17.1673200  131.4633000   -20.6739900  147.3299000   -16.2170600  144.3898000    -1.0812820 -116.0567000
 		      -1.0606570 -115.7413000   -16.1901700  145.1103000   -20.7377200  127.4515000   -17.9800100  143.2355000
 		     -16.0444400  145.1282000    -1.0930910 -116.1080000   -18.0201500  142.8958000   -21.1289400  131.0477000
   39274390000   -20.1222700  152.9898000   -17.2668200  131.3009000    -1.0891970 -116.1851000   -16.0500900  144.1282000 
 		     -17.1334100  130.7846000   -20.1894600  151.6557000   -16.0660700  144.5354000    -1.0815680 -116.2638000
 		      -1.0577400 -116.1969000   -15.9655600  144.8218000   -21.1396300  131.2373000   -17.9046100  143.2397000
 		     -16.1050000  144.5333000    -1.0832180 -116.2459000   -17.9125200  142.9303000   -20.9459100  125.7211000
   39344380000   -20.1862800  153.5110000   -17.0624800  131.3125000    -1.0680160 -116.3286000   -16.0336700  144.6883000 
 		     -16.9258300  130.4636000   -20.2889000  150.0679000   -16.0477100  143.6179000    -1.0911130 -116.6446000
 		      -1.0658430 -116.3854000   -16.3085700  144.4699000   -20.5350700  127.7891000   -17.8993500  142.6106000
 		     -16.0983100  144.2467000    -1.0892590 -116.4230000   -17.9418500  142.6427000   -21.2305100  125.4426000
   39414370000   -20.0919900  150.8892000   -17.0446800  131.3262000    -1.0838960 -116.4694000   -16.0291700  144.3181000 
 		     -17.1516200  131.0927000   -20.6397300  149.3256000   -16.1786200  144.2986000    -1.1217350 -116.9591000
 		      -1.0833760 -116.3161000   -16.1532800  145.7002000   -20.9479100  127.6163000   -17.7792900  143.1662000
 		     -16.0594300  144.6798000    -1.1441920 -116.7091000   -17.8598700  142.7802000   -20.8268500  125.1747000
   39484360000   -20.2441300  151.4835000   -16.8568500  131.1412000    -1.0903200 -116.7629000   -16.0087700  143.5199000 
 		     -16.9761900  131.5862000   -19.8033000  145.8727000   -16.0742100  144.1044000    -1.1196990 -117.0612000
 		      -1.0990140 -116.7238000   -16.0430600  144.3517000   -20.7351300  128.5275000   -17.8264700  142.1614000
 		     -16.0470600  144.4344000    -1.1272230 -117.0993000   -17.8232700  142.0423000   -20.5266100  121.6497000
   39554350000   -20.1423100  152.2991000   -16.9527500  131.7095000    -1.0835570 -116.9553000   -16.0340700  143.6131000 
 		     -16.9523000  130.8195000   -20.2435400  146.4684000   -16.0478400  144.2778000    -1.1034610 -117.2904000
 		      -1.0728730 -116.9009000   -16.1488500  143.1513000   -20.3712600  127.4700000   -17.7747900  142.6968000
 		     -15.9886900  143.6017000    -1.1289670 -117.1794000   -17.6575500  142.0412000   -20.9048200  125.1103000
   39624340000   -19.7038400  150.7081000   -16.9626800  129.4147000    -1.0919320 -117.1851000   -15.9705400  143.1114000 
 		     -16.8967400  130.0840000   -20.1389500  145.8820000   -16.0478400  143.9615000    -1.1181460 -117.5034000
 		      -1.0827310 -117.1706000   -16.1137700  143.8587000   -20.8151300  127.3750000   -17.5386100  142.2516000
 		     -15.9872900  142.8227000    -1.1276680 -117.3743000   -17.5897900  142.3333000   -20.8200000  123.4280000
   39694330000   -19.9099800  150.0382000   -16.7892300  130.6591000    -1.0921880 -117.4376000   -15.9684800  143.4301000 
 		     -16.7772100  131.1840000   -20.1694300  145.9462000   -16.0071400  143.6753000    -1.0895420 -117.6808000
 		      -1.0913320 -117.3306000   -16.0971300  142.8111000   -20.7395000  127.7873000   -17.6217900  142.4923000
 		     -15.9884000  143.0286000    -1.0986400 -117.5382000   -17.5165300  142.1808000   -20.7383100  122.3677000
   39764320000   -20.2008300  150.3605000   -16.6826400  130.6524000    -1.1074810 -117.4232000   -15.9737700  142.4386000 
 		     -16.6219500  130.7302000   -19.8808500  149.1688000   -16.0595500  143.3362000    -1.1090650 -117.8269000
 		      -1.1074510 -117.4220000   -16.0022800  143.8567000   -20.4555100  124.9020000   -17.5471300  141.6210000
 		     -16.0375000  143.1470000    -1.0950540 -117.7852000   -17.5366500  141.8478000   -20.1953700  124.3016000
   39834310000   -19.5313900  148.3702000   -16.8105400  130.5120000    -1.1149800 -117.8941000   -15.9342000  142.2389000 
 		     -16.6204500  130.9286000   -20.0886100  147.6964000   -15.9982300  143.0889000    -1.1150900 -118.0402000
 		      -1.1193690 -117.5470000   -16.1815600  142.9481000   -20.6587400  126.2768000   -17.5223200  141.7542000
 		     -15.9011800  141.7427000    -1.1490010 -118.0131000   -17.4646500  141.5569000   -20.1794500  120.5989000
   39904300000   -19.8088600  148.5748000   -16.5697000  130.7660000    -1.1202530 -118.1184000   -15.9761500  142.3474000 
 		     -16.6949900  130.1130000   -19.8596500  148.2715000   -15.9633800  142.6839000    -1.1208460 -118.1684000
 		      -1.1130400 -118.0966000   -16.0182000  143.5608000   -20.0832200  127.5342000   -17.4550900  141.7064000
 		     -16.0205400  142.2126000    -1.1436450 -118.4941000   -17.4711300  141.1195000   -20.7531500  121.1969000
   39974290000   -20.0506700  149.4046000   -16.6561800  130.3149000    -1.0961600 -118.2332000   -15.9452200  142.0680000 
 		     -16.6706100  129.4716000   -19.4552900  146.0757000   -15.9585400  142.6351000    -1.1233130 -118.4243000
 		      -1.1138900 -118.2403000   -15.9455200  142.0042000   -20.5067800  123.7935000   -17.3881800  141.3236000
 		     -16.0529400  142.0941000    -1.1509970 -118.4346000   -17.3957000  141.3312000   -19.8606600  122.4514000
   40044280000   -19.5940700  147.5708000   -16.5229700  129.3130000    -1.1245580 -118.3981000   -15.9455100  142.3709000 
 		     -16.4416000  129.5437000   -19.5032800  149.1261000   -15.8439300  142.9959000    -1.1342170 -118.5258000
 		      -1.1476920 -118.6032000   -15.8142500  141.2742000   -20.4471800  126.8641000   -17.3912300  140.4686000
 		     -15.8678600  142.8464000    -1.1279800 -118.2276000   -17.3388000  141.2928000   -20.2657700  121.7657000
   40114270000   -20.2698200  150.7044000   -16.4984000  129.3215000    -1.0916170 -118.4531000   -15.9000400  141.5569000 
 		     -16.3633000  130.6525000   -19.8772000  137.8602000   -15.9776200  141.5774000    -1.1693520 -118.8648000
 		      -1.0676750 -118.4638000   -15.9081000  142.2295000   -20.3899800  124.5328000   -17.2533000  141.6465000
 		     -15.8586100  141.4366000    -1.1585810 -118.5848000   -17.3182200  141.0712000   -20.4603900  120.5690000
   40184260000   -19.8604900  148.3970000   -16.3868500  130.6800000    -1.1294080 -118.6471000   -15.8039700  140.9464000 
 		     -16.6399600  128.6890000   -19.4404400  147.4543000   -16.0816900  142.5746000    -1.1388400 -118.8979000
 		      -1.0904530 -118.5577000   -16.2557200  141.3665000   -20.2840700  121.3875000   -17.2570900  140.8221000
 		     -15.8891500  141.8710000    -1.1046440 -118.7493000   -17.2178500  141.2825000   -19.8426400  126.2091000
   40254250000   -19.3119500  145.0686000   -16.2557400  129.5619000    -1.1567610 -118.9850000   -15.9012400  141.5446000 
 		     -16.2324500  130.6876000   -19.0200500  148.8755000   -15.8054200  142.3287000    -1.1211000 -119.2130000
 		      -1.1069000 -119.0822000   -15.8952200  141.0976000   -20.1852100  124.3385000   -17.2304800  141.0285000
 		     -15.8867700  141.4061000    -1.1177510 -118.9527000   -17.1274400  140.8031000   -20.3584400  121.1849000
   40324240000   -19.7884600  147.3752000   -16.2369600  128.3089000    -1.1277180 -119.2825000   -15.8538300  141.0230000 
 		     -16.3310600  129.9076000   -19.5079300  142.0528000   -15.9474400  141.8282000    -1.1656680 -119.5206000
 		      -1.1491290 -119.3135000   -15.8665400  142.1031000   -20.0134100  125.1068000   -17.1807200  140.2914000
 		     -15.6968800  141.0006000    -1.0707760 -119.5337000   -16.9801800  139.6820000   -20.0235000  123.7766000
   40394230000   -19.8613200  150.5642000   -16.1901000  130.2777000    -1.1354150 -119.2327000   -15.7983000  141.1997000 
 		     -16.2809200  128.0999000   -19.7796600  142.7484000   -16.0036800  141.1887000    -1.1343800 -119.4609000
 		      -1.1660830 -119.3795000   -15.8305100  141.2227000   -20.3991200  120.5697000   -17.1518400  140.3430000
 		     -15.8599700  141.4389000    -1.1354080 -119.3538000   -17.0916700  140.6332000   -19.9516800  120.5442000
   40464220000   -19.2914300  145.3386000   -16.2273800  130.2407000    -1.1437020 -119.6308000   -15.8269200  140.9155000 
 		     -16.0849400  129.2181000   -20.1812900  144.4676000   -15.8279900  141.0548000    -1.1180280 -119.6349000
 		      -1.1454400 -119.5039000   -15.7130200  141.7092000   -20.0455800  124.0350000   -16.9489700  140.5900000
 		     -15.8899700  141.2385000    -1.1386010 -119.7655000   -17.0289700  141.0965000   -20.8206400  117.3609000
   40534210000   -19.4078000  145.3890000   -16.2725200  131.2533000    -1.1250540 -119.8219000   -15.8376900  139.9291000 
 		     -16.3217800  129.6546000   -19.8186100  138.8696000   -16.0003900  141.1144000    -1.1258700 -119.9969000
 		      -1.1412220 -120.1237000   -15.9925400  141.8302000   -19.6863400  123.9866000   -16.9202300  139.7561000
 		     -15.8574100  140.1329000    -1.1494010 -119.8271000   -16.9315400  139.8961000   -20.4424700  125.2303000
   40604200000   -19.6137900  146.9418000   -16.1207000  129.0666000    -1.1507090 -119.9502000   -15.7889900  140.2551000 
 		     -16.2068400  129.4910000   -19.6039600  143.4479000   -15.8427600  140.2051000    -1.1616680 -120.2951000
 		      -1.1436140 -119.8237000   -15.7843900  140.0174000   -20.5580700  123.0454000   -16.8558700  140.0805000
 		     -15.8615900  140.3174000    -1.1724220 -119.9445000   -16.9203700  139.9357000   -20.1215700  117.3337000
   40674190000   -19.2850700  143.2673000   -15.8824600  130.5649000    -1.1247750 -120.1303000   -15.8106600  140.3166000 
 		     -16.1070400  129.4130000   -20.3830000  140.7987000   -15.7831000  140.5076000    -1.1288350 -120.3172000
 		      -1.1234220 -120.0301000   -15.6118900  141.9914000   -20.2780900  120.8617000   -16.8904900  140.6689000
 		     -15.9566600  140.6471000    -1.1616430 -120.4434000   -16.8661500  140.3229000   -20.5824300  117.1724000
   40744180000   -19.9390000  147.8248000   -16.0144300  128.2295000    -1.1298380 -120.3792000   -15.8033700  138.8751000 
 		     -16.0179800  127.4591000   -19.1741700  139.8670000   -15.8946000  139.8158000    -1.1594450 -120.6263000
 		      -1.1237370 -120.1324000   -15.9458500  139.7563000   -19.8076400  121.7514000   -16.7623500  139.1736000
 		     -15.8288500  138.8355000    -1.1541380 -120.3585000   -16.8048400  139.7052000   -19.5629900  123.1267000
   40814170000   -18.9438800  149.0788000   -15.9038000  128.1350000    -1.1540380 -120.6504000   -15.8014100  139.1650000 
 		     -15.9651300  128.4400000   -19.7940700  147.7069000   -15.8333600  139.3383000    -1.1457700 -120.6862000
 		      -1.2014580 -120.8186000   -15.8658100  139.6046000   -19.9841900  120.7595000   -16.7178700  139.8367000
 		     -15.8086400  139.5680000    -1.1718250 -120.6575000   -16.7609800  139.5468000   -20.2854500  116.0640000
   40884160000   -20.3858900  142.5520000   -15.9847700  129.3424000    -1.1528990 -120.6989000   -15.7784900  139.5621000 
 		     -15.8876800  129.5463000   -20.1495700  145.1204000   -15.6884100  140.0205000    -1.1284790 -121.0200000
 		      -1.1991690 -120.6422000   -15.6457900  139.9033000   -19.9869500  121.7755000   -16.7521400  139.9669000
 		     -15.7576100  139.2237000    -1.1084250 -120.9495000   -16.7325200  139.6663000   -20.6242300  120.1635000
   40954150000   -20.0521200  141.9540000   -15.8382400  128.8072000    -1.1763120 -120.8772000   -15.7882200  139.7217000 
 		     -15.8995000  128.9523000   -20.8659800  141.5629000   -15.7158200  139.8334000    -1.1415440 -120.8890000
 		      -1.1726180 -120.8605000   -15.7567900  140.7668000   -19.9744800  119.5115000   -16.7298500  140.0310000
 		     -15.7404500  139.2307000    -1.1417820 -120.7070000   -16.6432100  139.8582000   -20.2572900  118.4526000
   41024140000   -18.8899900  147.6507000   -15.7964200  128.5675000    -1.1504630 -121.3427000   -15.7869200  138.6590000 
 		     -15.8651200  128.8203000   -19.6176700  141.1868000   -15.7718500  138.5159000    -1.1790650 -121.1165000
 		      -1.1460310 -121.1278000   -15.8356100  139.2464000   -20.1179400  122.3766000   -16.6512000  139.1306000
 		     -15.8188600  138.9750000    -1.1665550 -121.0832000   -16.6262500  139.3061000   -19.9919000  113.5822000
   41094130000   -19.2913800  140.1884000   -15.8867800  129.2816000    -1.1483700 -121.2590000   -15.6891000  138.7421000 
 		     -15.8435900  128.9287000   -20.0668800  140.1700000   -15.7478700  138.3304000    -1.1583320 -121.5341000
 		      -1.1511090 -121.3373000   -15.8405000  139.3093000   -19.7798300  123.0468000   -16.4873600  139.4128000
 		     -15.6260400  138.5193000    -1.2025160 -121.7630000   -16.5577500  138.7333000   -20.3657600  116.6059000
   41164120000   -19.7512200  145.8034000   -15.7517300  128.7026000    -1.1450890 -121.6172000   -15.5774300  138.3033000 
 		     -15.6434700  127.9903000   -20.6759400  139.3116000   -15.8475900  138.7666000    -1.1424250 -121.6306000
 		      -1.1308430 -121.4271000   -15.7422000  137.9916000   -19.8281700  118.7666000   -16.3830200  139.3624000
 		     -15.5905500  138.5216000    -1.1586680 -121.1710000   -16.4735000  139.5952000   -20.6524900  117.5906000
   41234110000   -19.4764400  144.5358000   -15.4570700  127.5534000    -1.1534140 -121.6629000   -15.6961000  137.9529000 
 		     -15.6410300  128.0282000   -19.3369600  142.1691000   -15.5988600  138.3050000    -1.1366000 -121.8135000
 		      -1.1815420 -121.5457000   -15.5984500  137.9744000   -20.1630400  120.5561000   -16.4224100  139.0239000
 		     -15.6994200  138.4180000    -1.1947800 -122.1474000   -16.4693800  139.0095000   -20.1021300  114.3540000
   41304100000   -19.8221300  147.0738000   -15.6313200  126.7932000    -1.1364780 -121.9333000   -15.5993400  137.7497000 
 		     -15.5976300  128.1657000   -19.6467200  142.8103000   -15.6819400  138.5203000    -1.1704920 -122.0009000
 		      -1.1649120 -121.8748000   -15.6247000  137.5173000   -19.9489600  122.0434000   -16.3582400  139.0011000
 		     -15.6741600  138.2222000    -1.1687170 -121.7768000   -16.3216600  139.0158000   -20.4064100  115.5919000
   41374090000   -19.4143700  145.0594000   -15.7181700  127.0487000    -1.1610980 -122.1181000   -15.6136500  137.8810000 
 		     -15.6709100  127.6449000   -19.1687600  140.9448000   -15.7357900  137.2242000    -1.1250630 -122.4111000
 		      -1.1710760 -122.1930000   -15.7934900  136.7415000   -19.9286300  120.0902000   -16.3932200  138.3295000
 		     -15.7288600  138.4540000    -1.1647440 -122.3444000   -16.4320800  139.0924000   -20.0202100  118.3541000
   41444080000   -19.2646300  141.7101000   -15.4767400  126.2474000    -1.1604870 -122.2832000   -15.6049100  137.3931000 
 		     -15.5511200  127.1071000   -19.4005100  143.3201000   -15.6292200  137.7092000    -1.1942300 -122.4101000
 		      -1.1430850 -122.4182000   -15.6763300  136.4780000   -19.9611900  119.8054000   -16.2604500  138.7424000
 		     -15.7607900  137.2344000    -1.2087560 -122.3835000   -16.2554700  138.1355000   -20.0612700  118.5717000
   41514070000   -19.6494500  142.4174000   -15.5102300  128.8368000    -1.1574240 -122.5192000   -15.6295900  137.5065000 
 		     -15.3276900  127.9237000   -19.3639200  141.9171000   -15.6572900  137.1994000    -1.1585230 -122.8658000
 		      -1.1531440 -122.5113000   -15.8094800  139.4703000   -19.8440000  117.7574000   -16.2430300  138.6369000
 		     -15.4943900  138.1761000    -1.1789920 -122.7669000   -16.2346700  138.0958000   -19.8737200  115.3857000
   41584060000   -19.0870900  141.3367000   -15.4701600  130.5056000    -1.1879940 -122.8679000   -15.5440800  137.3661000 
 		     -15.5763800  126.6663000   -19.6807900  140.6087000   -15.7074600  136.9889000    -1.1705910 -123.0828000
 		      -1.1945760 -122.8944000   -15.6002700  137.6813000   -19.4078300  118.6245000   -16.2363700  137.6974000
 		     -15.5823900  137.1348000    -1.1795800 -123.0219000   -16.2348000  137.8748000   -19.8899200  116.7608000
   41654050000   -19.8059400  141.1178000   -15.3453100  128.7786000    -1.1660310 -122.9199000   -15.5598700  136.8360000 
 		     -15.5235200  126.0051000   -19.6155600  143.0399000   -15.7004900  137.2491000    -1.1829280 -123.0703000
 		      -1.1395710 -122.6073000   -15.7273400  135.4571000   -20.0883600  120.7138000   -16.0545500  138.0394000
 		     -15.6682300  137.4833000    -1.1994520 -122.7212000   -16.0746400  138.5798000   -20.0289200  117.7291000
   41724040000   -19.3278400  143.9930000   -15.4134300  127.9789000    -1.1812670 -123.2504000   -15.5544600  136.7238000 
 		     -15.2450800  126.9031000   -19.3376200  142.0046000   -15.4645500  135.7253000    -1.1632470 -123.2233000
 		      -1.1532750 -123.1125000   -15.5698200  136.7406000   -20.0671600  120.4089000   -16.0933300  137.7866000
 		     -15.4916200  135.7091000    -1.1555670 -123.5599000   -15.9810000  138.2220000   -20.6040900  117.0508000
   41794030000   -19.7500900  145.0408000   -15.3453100  128.2408000    -1.1635650 -123.2893000   -15.5315600  136.7056000 
 		     -15.1773400  127.5140000   -19.7697000  136.4524000   -15.5281700  136.6400000    -1.1707420 -123.4471000
 		      -1.1680590 -123.2425000   -15.5837200  136.4001000   -19.9271200  122.2347000   -15.9443500  137.7177000
 		     -15.5997800  137.0359000    -1.2290660 -123.1584000   -16.0402000  138.4240000   -20.3480100  118.4767000
   41864020000   -19.7233100  141.4029000   -15.4772100  126.5014000    -1.1741260 -123.5873000   -15.5326700  136.4487000 
 		     -15.3867300  127.0941000   -19.8583400  141.8801000   -15.5576300  135.8850000    -1.1668670 -123.8831000
 		      -1.1696960 -123.6055000   -15.6195900  136.4911000   -20.0564200  117.4905000   -15.9064400  138.1444000
 		     -15.5932700  136.9767000    -1.1668120 -123.8367000   -15.8934800  137.7976000   -19.5145300  117.1287000
   41934010000   -19.2992500  144.7294000   -15.2551600  126.3680000    -1.1635460 -123.8312000   -15.3937200  135.5690000 
 		     -15.1766000  127.7177000   -19.1620700  145.4623000   -15.5360800  135.7353000    -1.1700770 -124.1466000
 		      -1.1695820 -123.9945000   -15.6212100  136.3250000   -20.1196900  121.0026000   -15.8409400  137.0986000
 		     -15.3772300  135.0482000    -1.2129990 -123.9847000   -15.9181500  137.0667000   -19.8965000  117.0767000
   42004000000   -19.8272900  142.8819000   -15.2158000  127.1353000    -1.1813090 -124.0196000   -15.5817800  135.5207000 
 		     -15.2176800  126.2612000   -18.8545300  137.3236000   -15.5482900  135.9565000    -1.2463010 -124.6078000
 		      -1.1836730 -124.1841000   -15.3812200  135.7850000   -19.7248800  120.9078000   -15.8356700  136.7491000
 		     -15.6134700  135.3575000    -1.2294770 -124.2168000   -15.8871500  137.2303000   -19.7157100  115.8351000
   42073990000   -19.2663100  145.1423000   -15.2943700  127.2872000    -1.2009680 -124.3382000   -15.4736100  134.4477000 
 		     -15.2344700  126.6599000   -19.5582500  143.3221000   -15.5845900  135.5005000    -1.1808020 -124.5815000
 		      -1.1726850 -124.2252000   -15.5712900  134.2069000   -20.1451800  118.6744000   -15.7989900  137.1477000
 		     -15.4897700  135.5160000    -1.2082140 -124.4432000   -15.7978100  136.9931000   -19.4681600  117.4865000
   42143980000   -19.1714200  143.5916000   -15.2035100  125.2586000    -1.1946940 -124.5636000   -15.5286500  134.9539000 
 		     -15.0784000  126.9027000   -19.2070900  142.4363000   -15.5560900  134.9514000    -1.2469080 -124.7805000
 		      -1.2189560 -124.3524000   -15.6250600  135.5990000   -20.1435300  120.5614000   -15.7438700  137.2341000
 		     -15.4417700  134.4008000    -1.2195620 -124.8743000   -15.7666200  136.5795000   -20.1872000  117.0870000
   42213970000   -19.8618900  142.9583000   -15.1534500  126.6251000    -1.1708700 -124.7398000   -15.4188400  135.2000000 
 		     -15.0496300  127.4458000   -19.8453200  142.2727000   -15.5527600  135.5168000    -1.1922890 -124.9315000
 		      -1.2002110 -124.7508000   -15.5944500  135.6915000   -19.4975000  119.2441000   -15.6242200  136.7034000
 		     -15.4625300  134.7562000    -1.2299860 -125.3696000   -15.6367600  136.9163000   -19.9464400  120.0416000
   42283960000   -19.4442900  140.1055000   -15.1480800  126.6188000    -1.2220850 -124.7891000   -15.4570600  133.7628000 
 		     -15.0768400  126.4443000   -19.0343500  143.8039000   -15.4484200  134.0061000    -1.2156950 -125.3580000
 		      -1.2394780 -125.0965000   -15.6060900  134.1191000   -20.1308200  117.4471000   -15.6562900  136.3751000
 		     -15.5047700  135.4247000    -1.1929120 -125.1252000   -15.6555400  136.5217000   -19.4414500  115.2507000
   42353950000   -18.9943100  140.6787000   -15.0893900  125.9025000    -1.1921780 -125.2368000   -15.4912600  134.0211000 
 		     -15.2139300  126.9043000   -18.9967200  140.4121000   -15.5715100  134.7116000    -1.2167160 -125.4893000
 		      -1.2431140 -124.8903000   -15.7320900  134.6226000   -19.8360600  122.1987000   -15.6255200  136.2801000
 		     -15.5340900  134.0533000    -1.2548300 -125.2779000   -15.6755200  136.1978000   -19.8152600  113.2813000
   42423940000   -18.8932600  146.3834000   -15.1587700  125.6248000    -1.1941270 -125.3814000   -15.4307700  133.4821000 
 		     -14.9802800  127.2094000   -19.1354400  137.8454000   -15.5307400  134.7587000    -1.2371460 -125.4702000
 		      -1.2040400 -125.4389000   -15.6586200  135.1785000   -19.4495500  119.6748000   -15.5817600  136.1403000
 		     -15.3998600  133.8676000    -1.2404250 -125.4826000   -15.5907900  135.4700000   -18.9371700  114.2454000
   42493930000   -19.0734700  143.7067000   -14.7897900  125.5691000    -1.2224710 -125.7240000   -15.4356500  133.7892000 
 		     -14.9206300  126.1040000   -19.4388000  133.8969000   -15.5311100  133.6470000    -1.2298070 -125.5557000
 		      -1.2463640 -125.6020000   -15.5590200  135.1379000   -19.5699100  118.7804000   -15.5172800  135.8162000
 		     -15.4574800  133.6777000    -1.2182480 -125.3625000   -15.6452200  136.2739000   -19.4115800  110.0389000
   42563920000   -19.0380300  140.7976000   -14.9761000  125.9227000    -1.2298980 -125.7856000   -15.4390900  132.9030000 
 		     -15.0059200  124.3730000   -18.5152100  136.0494000   -15.4866700  133.6806000    -1.2264360 -125.9550000
 		      -1.2341380 -125.7887000   -15.4568900  133.9079000   -19.6086700  119.6846000   -15.5830200  135.4622000
 		     -15.4800900  134.1739000    -1.2091050 -125.9658000   -15.4502800  135.4480000   -19.4824000  115.0582000
   42633910000   -18.6427500  139.6900000   -14.9035600  125.9675000    -1.2316800 -125.9079000   -15.4291700  132.8449000 
 		     -15.0239700  126.8957000   -18.6840800  134.4666000   -15.5154000  133.8120000    -1.2536110 -126.0436000
 		      -1.2191730 -125.9584000   -15.4823700  133.3808000   -19.2046000  116.0786000   -15.4835500  135.2504000
 		     -15.3700500  132.7194000    -1.2390110 -126.0944000   -15.4820700  135.7755000   -18.9293100  114.6343000
   42703900000   -18.6432400  138.4438000   -14.7908500  125.9381000    -1.2428040 -126.0746000   -15.4133100  132.8351000 
 		     -14.9956800  125.8571000   -19.0713800  132.0854000   -15.5957800  133.6834000    -1.2065190 -126.5086000
 		      -1.2320020 -125.8022000   -15.5547000  134.7472000   -19.6622700  117.7896000   -15.5042000  135.3393000
 		     -15.4793300  132.1588000    -1.1998610 -126.5666000   -15.4732200  135.6493000   -19.6044900  111.6104000
   42773890000   -18.8647900  140.7092000   -14.6653800  124.5586000    -1.2227620 -126.4264000   -15.4397900  132.9896000 
 		     -14.5973200  126.4316000   -19.0220800  139.1345000   -15.3047600  133.0387000    -1.2887580 -126.2368000
 		      -1.2339660 -126.7124000   -15.2936000  132.2843000   -19.0627600  117.4851000   -15.3894200  135.2628000
 		     -15.4507900  133.4317000    -1.3275630 -126.2658000   -15.4295500  135.2735000   -19.7270800  110.6965000
   42843880000   -18.5139000  137.6518000   -14.6378500  127.4590000    -1.2612990 -126.4134000   -15.3018800  132.2502000 
 		     -14.6707900  125.2099000   -19.1743900  138.5695000   -15.4512800  133.9216000    -1.2405570 -126.6389000
 		      -1.2364620 -126.3444000   -15.5082600  134.6253000   -19.2235700  113.1264000   -15.3027100  134.8004000
 		     -15.2939800  131.8060000    -1.1971240 -126.9450000   -15.3978000  134.8851000   -19.0706100  114.7719000
   42913870000   -19.1139000  137.8996000   -14.9568400  123.5659000    -1.2612130 -126.6123000   -15.4125900  131.9322000 
 		     -14.8979300  126.5346000   -18.0368800  135.2732000   -15.5382200  132.6897000    -1.2036620 -126.9820000
 		      -1.2477910 -126.5616000   -15.5126600  133.1190000   -19.3903100  115.7181000   -15.3552600  134.6956000
 		     -15.4401000  132.6049000    -1.2501220 -126.7240000   -15.3839400  134.8420000   -18.9748100  112.8696000
   42983860000   -19.1892200  140.3048000   -14.8645300  124.3361000    -1.2615620 -126.9092000   -15.3156000  131.3887000 
 		     -14.7913400  123.9957000   -18.4057300  134.8120000   -15.5047000  132.9001000    -1.2777810 -127.1603000
 		      -1.2725320 -126.8780000   -15.3035300  132.2142000   -19.5132200  117.8803000   -15.3177900  134.6112000
 		     -15.3867300  132.7050000    -1.3913320 -127.4291000   -15.1645800  135.1879000   -18.9913800  111.7902000
   43053850000   -18.5947500  142.0204000   -14.7768800  125.8425000    -1.2628420 -127.0297000   -15.3456300  131.2365000 
 		     -14.7284000  123.8054000   -19.2326200  132.3649000   -15.3653300  131.8185000    -1.2871580 -126.8468000
 		      -1.3000250 -127.0091000   -15.4199300  132.2038000   -18.9039900  115.7151000   -15.3754300  134.7741000
 		     -15.3024100  131.0019000    -1.3467590 -126.7833000   -15.3303400  134.6197000   -19.0851300  110.7104000
   43123840000   -18.7264000  138.4633000   -14.4889100  127.0699000    -1.2490060 -127.0277000   -15.4006300  131.2224000 
 		     -14.5873100  125.0297000   -18.2458800  134.8018000   -15.4525200  131.7376000    -1.2746480 -127.5484000
 		      -1.2380760 -127.1209000   -15.3131100  131.8048000   -18.9439200  114.1889000   -15.2743300  134.3077000
 		     -15.4059100  131.1009000    -1.2831600 -127.2842000   -15.2792500  134.2261000   -18.7979200  112.9015000
   43193830000   -18.6838700  140.2543000   -14.7496600  123.7634000    -1.2434680 -127.3484000   -15.2916000  131.0513000 
 		     -14.5756400  123.4388000   -18.6154100  141.3797000   -15.3249300  130.8292000    -1.2813780 -127.5267000
 		      -1.2465410 -127.5712000   -15.2689700  132.6468000   -19.2324500  116.1419000   -15.0492600  133.8585000
 		     -15.2894800  131.4114000    -1.2238110 -127.7091000   -15.0696700  134.5736000   -19.3550800  112.8842000
   43263820000   -18.5247500  139.7461000   -14.3955800  124.3678000    -1.2682170 -127.6585000   -15.3503300  129.9004000 
 		     -14.3960400  124.2870000   -18.4840000  142.1411000   -15.3475800  131.9226000    -1.2791190 -127.9033000
 		      -1.2885870 -127.5525000   -15.2721200  131.6480000   -19.0129900  115.3237000   -15.1711900  133.5983000
 		     -15.3442300  130.6108000    -1.2678070 -127.7907000   -15.2033600  133.0765000   -18.8662300  112.8141000
   43333810000   -19.1899800  136.7961000   -14.6215000  126.7461000    -1.2835930 -127.7273000   -15.3842600  131.2338000 
 		     -14.4652800  125.2331000   -19.0178000  134.9916000   -15.3570700  132.1655000    -1.2787830 -128.0820000
 		      -1.2772600 -127.7566000   -15.7254400  131.6741000   -18.9137500  113.1992000   -15.2113900  134.1784000
 		     -15.4573300  130.8757000    -1.2906530 -127.9446000   -15.2105600  134.1062000   -18.8836900  113.1516000
   43403800000   -18.2489000  137.4454000   -14.5419600  124.4502000    -1.2897930 -128.0468000   -15.3912300  130.5310000 
 		     -14.4793500  124.4511000   -19.0254300  135.3393000   -15.4005500  131.4917000    -1.2765090 -128.3087000
 		      -1.3047900 -127.9819000   -15.2826700  131.4590000   -19.0145000  112.4987000   -15.1611100  134.2571000
 		     -15.3731500  131.6321000    -1.2697370 -128.2099000   -15.1422500  134.1428000   -19.2993500  107.5365000
   43473790000   -18.8047400  135.4550000   -14.3076100  123.1427000    -1.2877730 -128.2406000   -15.4336900  130.4112000 
 		     -14.4236100  124.3243000   -19.2077700  130.9104000   -15.2673000  130.3768000    -1.2751800 -128.2336000
 		      -1.2577290 -128.2055000   -15.3487400  131.5526000   -19.1889100  113.4491000   -15.0651400  133.8947000
 		     -15.3916100  130.9779000    -1.2698690 -128.1931000   -15.1040300  133.7471000   -19.4149100  107.8010000
   43543780000   -18.7033600  135.4606000   -14.4278200  125.5842000    -1.2586880 -128.3504000   -15.3380500  129.9718000 
 		     -14.3320400  125.0153000   -18.7213700  133.7173000   -15.2748500  130.7104000    -1.2787930 -128.5422000
 		      -1.2317310 -128.2549000   -15.3855500  130.7606000   -18.9352300  111.7182000   -15.0155000  134.1172000
 		     -15.3846200  130.5535000    -1.2555050 -128.4469000   -15.0385200  134.2633000   -18.9607100  110.7588000
   43613770000   -18.1534200  138.5767000   -14.4472400  123.3178000    -1.2787880 -128.7652000   -15.2643200  129.3265000 
 		     -14.2447700  124.4593000   -19.0882000  138.9025000   -15.3579600  130.5923000    -1.2785190 -128.6952000
 		      -1.3007860 -128.6007000   -15.3184600  131.4989000   -18.8773100  111.9919000   -14.9549600  132.9671000
 		     -15.4574800  129.2244000    -1.2800420 -128.6503000   -14.9741300  133.2676000   -19.1240700  109.9777000
   43683760000   -18.7890000  136.6152000   -14.1441700  123.6677000    -1.3135820 -128.6726000   -15.3748900  130.7922000 
 		     -14.2783600  123.8074000   -18.0451100  124.9883000   -15.2162700  130.1816000    -1.3033550 -128.7243000
 		      -1.2744260 -128.9277000   -15.3112500  130.6835000   -18.7822700  114.6464000   -14.8751400  134.0476000
 		     -15.2978800  130.9673000    -1.3751510 -128.6206000   -14.8755300  134.3901000   -19.9507300  108.2834000
   43753750000   -19.3935600  135.5823000   -14.0984000  123.5657000    -1.2877830 -128.8649000   -15.2007700  129.5204000 
 		     -14.0881100  124.7820000   -18.6196900  130.5372000   -15.2950700  130.3676000    -1.2942290 -129.1198000
 		      -1.3003780 -128.7127000   -15.4306900  131.1030000   -18.8666000  108.4429000   -14.9006900  133.3247000
 		     -15.1721000  129.2460000    -1.2132480 -128.7877000   -14.8296700  132.9167000   -18.6991200  112.8854000
   43823740000   -18.7578500  135.2132000   -14.4731300  124.2100000    -1.2656980 -129.1881000   -15.2994800  129.9125000 
 		     -14.3116000  124.1910000   -18.3303900  132.0902000   -15.2280300  130.9850000    -1.3007090 -129.5537000
 		      -1.2473740 -128.8617000   -15.3830500  130.3233000   -19.1374900  112.7129000   -14.8824000  133.3916000
 		     -15.3530400  129.5347000    -1.3100200 -129.4370000   -14.8500000  133.5185000   -19.0543800  105.6164000
   43893730000   -19.0633400  133.5126000   -14.0786000  123.6238000    -1.3001370 -129.3494000   -15.2222700  129.5830000 
 		     -14.1509200  124.4445000   -18.4179700  130.9354000   -15.2419400  130.5054000    -1.3054030 -129.5356000
 		      -1.2978810 -129.1428000   -15.4692400  131.6248000   -18.8790600  111.3991000   -14.8057900  133.2364000
 		     -15.2392300  129.1187000    -1.3464600 -129.7062000   -14.8330100  133.4572000   -19.1602400  108.5055000
   43963720000   -18.9297600  137.5045000   -14.1241100  123.9612000    -1.2666460 -129.4030000   -15.1171700  129.6393000 
 		     -14.0256500  124.0587000   -19.4504900  130.3160000   -15.1205700  129.5868000    -1.2598600 -129.7229000
 		      -1.3102550 -129.6969000   -15.3306200  130.9954000   -18.8361400  107.8313000   -14.6772100  133.4126000
 		     -15.1343400  129.0388000    -1.2745330 -129.7665000   -14.8037000  133.2605000   -19.1525100  108.1130000
   44033710000   -18.8372500  136.8017000   -14.1847600  124.0349000    -1.2866730 -129.6032000   -15.1369900  128.0292000 
 		     -14.1419900  123.4014000   -18.3127000  136.2449000   -15.1899100  130.5729000    -1.2705070 -130.0886000
 		      -1.2768250 -129.4958000   -15.0847200  131.2526000   -19.3404300  111.7037000   -14.6184700  131.9644000
 		     -15.2574000  128.6093000    -1.3432940 -129.7021000   -14.6864500  132.1617000   -18.7776200  106.9635000
   44103700000   -19.2965900  134.2174000   -14.0328300  121.5446000    -1.2842290 -129.6091000   -15.1789600  129.1710000 
 		     -14.0628400  122.1579000   -17.9667900  130.5941000   -15.2262100  128.0736000    -1.2875890 -130.1592000
 		      -1.2671540 -129.6663000   -15.3426700  127.6949000   -18.8658700  112.9356000   -14.6951000  133.6819000
 		     -15.1928000  128.7861000    -1.3789860 -130.2937000   -14.6564100  132.9730000   -19.3649300  109.7052000
   44173690000   -18.8912700  135.3783000   -14.0753500  122.0179000    -1.3055720 -129.9952000   -15.1868700  128.6616000 
 		     -14.1121000  123.0159000   -19.1832600  128.7577000   -15.1595100  128.6478000    -1.2665330 -130.0660000
 		      -1.2879220 -129.9111000   -15.1530500  128.9909000   -19.0223900  108.9402000   -14.5651100  132.7743000
 		     -15.1680200  128.6744000    -1.2476780 -130.3023000   -14.6548300  132.6121000   -18.9031700  107.1556000
   44243680000   -18.7379800  135.6741000   -14.1693400  123.7596000    -1.2553240 -130.2950000   -15.0836400  128.1510000 
 		     -13.9662100  123.9123000   -17.8496400  138.7369000   -15.2747700  128.8207000    -1.2234990 -130.6019000
 		      -1.2934120 -130.1567000   -15.4441700  128.0766000   -19.0150300  111.5762000   -14.7264700  131.8738000
 		     -15.0757100  128.5013000    -1.2640810 -129.9217000   -14.6414400  131.7421000   -18.8655300  110.7394000
   44313670000   -18.8214500  135.6804000   -13.8421100  119.9375000    -1.2934490 -130.7114000   -15.1426400  127.3698000 
 		     -13.8595200  124.1491000   -18.1928200  135.3932000   -15.1699100  128.2312000    -1.3433890 -131.1146000
 		      -1.3131460 -130.5296000   -15.2772900  127.0698000   -18.6417700  109.6095000   -14.5524100  131.5858000
 		     -15.2504000  127.5653000    -1.2692780 -131.0312000   -14.5615800  131.6857000   -18.1831900  111.5584000
   44383660000   -18.4536500  137.2688000   -13.7696900  122.1812000    -1.3116040 -130.9200000   -15.0603400  126.7571000 
 		     -13.9982200  122.1115000   -17.3518000  135.4772000   -15.1468000  127.3063000    -1.3132280 -130.7072000
 		      -1.3395590 -130.6682000   -15.2967400  129.0165000   -19.3656600  108.0357000   -14.5724100  132.0683000
 		     -14.9945400  126.1223000    -1.3055150 -131.1190000   -14.5498200  131.8596000   -18.1904500  107.5943000
   44453650000   -18.9145200  139.5663000   -13.7594300  123.6716000    -1.2779470 -130.7610000   -15.0189000  127.5200000 
 		     -13.7966400  121.7947000   -18.6097400  133.0823000   -15.0947900  127.5057000    -1.2832390 -131.4388000
 		      -1.2577940 -130.7190000   -15.1904000  126.0619000   -19.0719700  112.5380000   -14.5871100  131.8461000
 		     -15.1019200  127.9740000    -1.3593900 -130.9063000   -14.5251300  131.4261000   -18.6696100  107.2984000
   44523640000   -18.8724600  134.4852000   -13.7020600  122.0124000    -1.3092610 -131.1281000   -15.0695000  127.3124000 
 		     -13.8000100  122.8964000   -18.6946200  132.1168000   -15.2620600  127.0053000    -1.2825240 -131.4299000
 		      -1.2671120 -130.8976000   -15.3377700  126.6298000   -18.5886500  109.9232000   -14.3681200  131.6978000
 		     -15.1523700  126.9909000    -1.2716020 -131.3732000   -14.4155900  132.3615000   -18.7003400  108.8596000
   44593630000   -18.3944500  134.5964000   -13.9425400  122.0850000    -1.3059300 -131.4211000   -15.1404100  126.4756000 
 		     -13.8199400  121.8339000   -17.9056800  133.2520000   -15.0150300  126.5075000    -1.2891100 -131.7340000
 		      -1.2723940 -131.3108000   -15.1714000  127.1351000   -19.2035200  111.3132000   -14.4411600  130.7852000
 		     -15.1140700  126.0057000    -1.3636430 -131.5416000   -14.5509600  131.4476000   -18.3495600  105.3099000
   44663620000   -18.7158000  137.6500000   -13.7596700  121.3049000    -1.2970470 -131.5661000   -14.9942700  125.4993000 
 		     -13.6531400  121.2003000   -18.0228900  135.4452000   -15.1251200  127.7565000    -1.3168570 -131.9141000
 		      -1.2705500 -131.0903000   -14.8787800  127.7859000   -19.0586400  111.1340000   -14.3322400  130.1826000
 		     -14.9824000  125.8043000    -1.2971450 -131.7943000   -14.2896800  130.8332000   -18.0058100  110.5692000
   44733610000   -18.8000500  134.2995000   -13.8751400  121.4515000    -1.2911240 -131.7802000   -15.0041200  126.5926000 
 		     -13.8344600  122.6215000   -19.2501400  133.9102000   -15.0342400  126.9543000    -1.3298740 -132.4496000
 		      -1.3408090 -131.5963000   -15.5932000  126.4071000   -18.7057500  109.7031000   -14.3680800  130.8501000
 		     -14.8983200  125.6987000    -1.3936460 -132.4303000   -14.3628300  130.9150000   -18.5805200  107.0889000
   44803600000   -18.7282300  133.1181000   -13.6331300  121.8959000    -1.2983690 -132.0124000   -14.9599900  126.0222000 
 		     -13.6128100  122.3941000   -18.4677600  132.2101000   -15.1505700  126.1227000    -1.3645990 -132.1784000
 		      -1.3116900 -131.8486000   -15.2690600  123.7472000   -18.9869900  108.9953000   -14.3611100  131.0545000
 		     -15.0457100  125.4398000    -1.3508650 -132.3455000   -14.2699300  131.5614000   -18.7395100  111.0308000
   44873590000   -18.5961300  137.9764000   -13.7858600  121.3648000    -1.3256750 -132.2756000   -14.9428900  125.7102000 
 		     -13.5378900  121.6487000   -17.6646600  130.3956000   -15.1617400  126.2692000    -1.2927580 -132.4477000
 		      -1.3602310 -132.3298000   -15.5608200  127.8749000   -18.8720700  108.2084000   -14.2171900  131.1223000
 		     -14.9775100  124.6902000    -1.2319460 -131.9044000   -14.2614500  130.8144000   -18.4617500  108.7432000
   44943580000   -18.1163900  132.9693000   -13.7925700  123.4197000    -1.3152670 -132.4052000   -15.0020700  125.2124000 
 		     -13.5409600  122.9001000   -18.1228100  125.0854000   -15.3262400  126.4088000    -1.3551750 -132.6956000
 		      -1.3314810 -132.3669000   -15.2284700  126.3443000   -18.8896100  109.4820000   -14.2257700  130.7387000
 		     -14.9420300  125.7015000    -1.3330340 -133.0007000   -14.2467500  130.6918000   -18.5485800  105.1729000
   45013570000   -18.5679300  134.0430000   -13.9194600  122.1527000    -1.2876020 -132.4347000   -14.8692300  125.0352000 
 		     -13.6154900  122.5494000   -18.1658900  133.9857000   -15.1066300  126.0548000    -1.3816980 -132.7041000
 		      -1.3421980 -132.3233000   -15.3283300  126.3503000   -18.9029300  111.2866000   -14.2028900  130.7341000
 		     -14.9767800  125.4116000    -1.4067050 -132.9563000   -14.1483500  131.0803000   -18.4672100  109.3553000
   45083560000   -17.9904500  136.6187000   -13.5878100  120.0355000    -1.3144620 -132.9648000   -14.9098700  124.4175000 
 		     -13.6720600  119.9842000   -18.2789900  135.7489000   -14.9955600  124.5713000    -1.3616100 -132.8338000
 		      -1.3055690 -132.9067000   -15.1122700  125.5644000   -18.6149600  108.0857000   -14.1270200  129.6789000
 		     -15.1989200  125.5646000    -1.3817520 -133.0953000   -14.1373000  130.5639000   -18.6692500  107.1902000
   45153550000   -18.0581500  131.5995000   -13.2959900  120.0184000    -1.3385660 -132.9640000   -15.0751400  124.5341000 
 		     -13.4713000  121.8901000   -18.9158800  136.7774000   -14.9940500  125.1392000    -1.3637600 -133.1021000
 		      -1.3260000 -132.9848000   -14.8704900  125.8668000   -18.8531300  106.9342000   -14.1917300  129.2292000
 		     -14.8935000  125.3646000    -1.3822950 -133.0668000   -14.2087100  129.8762000   -18.3824100  106.5340000
   45223540000   -18.5038200  132.1922000   -13.7350300  120.1242000    -1.3368010 -133.5217000   -14.9262200  124.2826000 
 		     -13.5341700  121.7020000   -17.8898900  136.8413000   -15.1168000  125.7143000    -1.4302130 -133.4758000
 		      -1.3261980 -133.1638000   -14.9074500  126.2523000   -18.4513200  108.9455000   -14.1750900  129.6853000
 		     -14.9589700  124.2594000    -1.4869330 -133.4060000   -14.1282800  129.5342000   -18.4368600  106.8939000
   45293530000   -18.2134200  135.4368000   -13.3941400  120.2331000    -1.3651310 -133.7486000   -14.9507500  124.7170000 
 		     -13.4043200  120.8896000   -18.2451800  123.7668000   -14.9055900  124.8816000    -1.4092720 -133.5032000
 		      -1.2944760 -133.7542000   -15.0527400  127.0908000   -18.4792900  107.2175000   -14.0563000  129.2926000
 		     -15.0482600  124.4763000    -1.3132070 -133.8211000   -14.1573200  129.3179000   -18.2551000   99.5245100
   45363520000   -18.7055300  133.3712000   -13.3985000  121.4231000    -1.2995400 -133.4458000   -14.9449500  124.7650000 
 		     -13.2481400  121.0978000   -18.0103000  129.5041000   -14.9738900  125.3552000    -1.4289670 -133.8084000
 		      -1.3181690 -133.5777000   -15.1529400  125.3853000   -18.8025800  107.9375000   -14.0595600  129.6889000
 		     -15.0093200  125.1963000    -1.4775640 -133.6440000   -13.9587400  130.0078000   -18.5328300  102.8395000
   45433510000   -19.0107400  130.4865000   -13.3607600  121.8570000    -1.3536380 -133.7354000   -14.9045600  123.8187000 
 		     -13.4395800  120.4718000   -17.9955400  131.3094000   -15.0152800  125.5783000    -1.3974900 -134.2240000
 		      -1.3186570 -133.5993000   -14.6841000  125.4000000   -18.6134300  109.1175000   -13.9312800  129.3170000
 		     -14.9782700  123.5387000    -1.3482160 -134.3641000   -14.0241800  129.5958000   -18.2221700  105.8653000
   45503500000   -17.2022500  133.8666000   -13.5864500  120.2985000    -1.4076810 -134.0888000   -14.8878100  122.9575000 
 		     -13.4742100  120.5125000   -18.1191500  128.4692000   -15.0285000  124.2022000    -1.3816890 -134.1097000
 		      -1.4219750 -134.1467000   -15.0838900  123.9310000   -18.1962000  107.3643000   -14.0975000  128.7859000
 		     -15.0654100  123.0840000    -1.2912290 -133.5702000   -14.0464100  128.6911000   -18.4729900  101.1802000
   45573490000   -17.4511100  128.2706000   -13.4554500  120.9704000    -1.3621890 -134.5053000   -15.0058200  122.7086000 
 		     -13.5792700  120.3370000   -17.8837000  122.9997000   -15.0370800  124.7552000    -1.3877640 -134.3574000
 		      -1.3596610 -134.1614000   -14.7358600  124.0554000   -18.3802900  106.7787000   -14.0458200  129.0062000
 		     -15.1208900  123.8398000    -1.3978300 -134.3549000   -14.0461200  128.8712000   -18.5571300  102.7084000
   45643480000   -17.9312200  130.6099000   -13.4019600  122.3899000    -1.3886200 -134.1989000   -14.9812800  123.3208000 
 		     -13.1962200  122.1790000   -17.5969400  124.7188000   -14.9814300  125.1459000    -1.4152300 -134.4359000
 		      -1.3825760 -134.3219000   -14.5031600  122.8785000   -18.3986100  109.3094000   -13.9271500  129.0098000
 		     -15.0111300  122.4845000    -1.4035950 -134.2260000   -13.8468600  129.4155000   -18.3177200  101.9937000
   45713470000   -18.3422000  131.9280000   -13.4109200  120.1277000    -1.3560520 -134.5531000   -14.8695500  123.8692000 
 		     -13.4071400  119.3602000   -18.7258500  122.1478000   -15.1083300  122.9864000    -1.3964170 -134.3815000
 		      -1.3982830 -134.6792000   -14.7220900  123.5127000   -18.3960500  106.4774000   -13.7995100  129.2549000
 		     -14.7854000  123.1053000    -1.3830530 -134.5608000   -13.7917200  129.2872000   -18.8695900  103.2474000
   45783460000   -18.1687500  127.4288000   -13.2063500  119.5694000    -1.3855380 -134.5339000   -15.0196300  122.4986000 
 		     -13.1529400  120.0527000   -17.9687600  132.3133000   -14.9181800  123.8730000    -1.3896880 -134.7615000
 		      -1.4550600 -134.5927000   -14.8835600  126.3292000   -18.6662000  105.8395000   -13.9072400  128.8144000
 		     -15.0847900  122.5347000    -1.3822770 -134.6976000   -13.9162200  128.7960000   -18.0544800  101.0791000
   45853450000   -17.9396200  129.0782000   -13.5650300  121.7226000    -1.4091990 -134.8195000   -14.9863400  122.2620000 
 		     -13.3993300  120.0231000   -17.6325000  123.3153000   -15.1659400  123.7587000    -1.4230440 -134.9592000
 		      -1.4056210 -135.0350000   -15.0216400  122.5502000   -18.0236500  104.5802000   -13.8973600  128.1167000
 		     -15.1090500  121.8503000    -1.3604860 -135.0771000   -13.8930200  127.9086000   -17.9585200  105.2633000
   45923440000   -17.4265300  131.4660000   -13.4217400  120.8232000    -1.3949130 -135.1043000   -14.8658100  121.8252000 
 		     -13.3401200  121.0942000   -18.1409700  128.1753000   -14.9546200  124.1937000    -1.4184340 -134.8200000
 		      -1.3557090 -134.9551000   -15.0463300  124.4802000   -17.9271400  105.5711000   -13.8017100  128.3452000
 		     -14.9092500  121.2593000    -1.3773570 -135.0331000   -13.8485300  128.2672000   -17.8457700  104.1013000
   45993430000   -18.1085200  130.8059000   -13.4684900  120.4404000    -1.3993420 -135.3514000   -14.8113300  121.8257000 
 		     -13.1596900  119.4421000   -18.1487900  128.6159000   -14.9297600  123.1465000    -1.4228280 -135.4084000
 		      -1.3878200 -135.0183000   -15.0751000  122.7180000   -18.2960600  106.0726000   -13.7322200  128.2385000
 		     -14.7117400  121.6954000    -1.4528360 -135.1258000   -13.7320700  127.6445000   -18.0669100  104.1171000
   46063420000   -18.4837900  128.7972000   -13.0123900  120.4858000    -1.3921370 -135.4943000   -14.7768900  121.0148000 
 		     -13.0581600  119.2764000   -18.0418400  126.2023000   -14.8716800  122.7546000    -1.4084710 -135.2286000
 		      -1.3759950 -135.3997000   -14.8871500  122.9762000   -18.4207000  104.5663000   -13.6701200  127.8011000
 		     -14.7188300  121.0806000    -1.3580850 -135.4608000   -13.6577200  127.4907000   -18.2386500  107.5225000
   46133410000   -18.1843500  129.5376000   -13.2232100  119.6188000    -1.3811710 -135.5459000   -14.9707600  122.2706000 
 		     -13.0154200  119.6969000   -17.8928200  128.7428000   -14.7123800  122.4146000    -1.3507690 -135.6032000
 		      -1.4344850 -135.1940000   -14.5443600  121.3968000   -18.1067100  103.8927000   -13.7982600  128.2661000
 		     -15.0845100  122.6598000    -1.3674690 -135.3226000   -13.7885200  128.4174000   -18.1902000   99.7070900
   46203400000   -17.6328200  128.6584000   -13.0241800  118.7220000    -1.3869840 -136.0014000   -14.8706200  121.9343000 
 		     -13.1046800  119.7665000   -17.9276200  127.1978000   -14.7474100  123.0920000    -1.3916750 -136.1466000
 		      -1.4337270 -136.0158000   -15.0270200  120.8999000   -18.0701700  103.5662000   -13.7354800  128.0355000
 		     -15.0163800  121.6169000    -1.4213470 -136.1691000   -13.6525700  127.7370000   -18.6263400  100.8226000
   46273390000   -18.2586500  127.3078000   -13.0261700  119.8966000    -1.3752160 -135.9305000   -14.8744400  121.6618000 
 		     -13.0958900  118.2696000   -17.9347500  128.6877000   -14.7769600  122.3793000    -1.3896590 -136.1228000
 		      -1.3904800 -135.9056000   -15.0252000  120.5387000   -18.0733000  105.0009000   -13.6870100  128.0218000
 		     -14.9864800  121.6914000    -1.4646300 -136.1807000   -13.6866100  127.2577000   -18.3172500  103.4105000
   46343380000   -17.8593400  129.0210000   -13.0205900  118.1155000    -1.4287480 -136.2084000   -14.7192100  120.9036000 
 		     -13.0044600  119.3189000   -18.7513500  123.9891000   -14.8963700  121.8728000    -1.3991660 -136.3567000
 		      -1.4459110 -136.3784000   -14.9628900  120.1186000   -17.9750900  104.2907000   -13.6331300  127.4842000
 		     -14.9194100  121.1485000    -1.3801570 -136.1953000   -13.6320900  127.5106000   -18.1560900  102.0261000
   46413370000   -17.4590000  126.3173000   -13.0266200  118.2552000    -1.4235970 -136.5269000   -14.8570100  119.8970000 
 		     -12.9743200  118.0391000   -18.0127500  127.4056000   -14.8068400  121.8504000    -1.4102700 -136.4614000
 		      -1.4197360 -136.4762000   -14.9246400  121.2340000   -18.1293100   99.9642900   -13.6514100  127.5536000
 		     -14.8260700  119.0489000    -1.4022310 -137.0937000   -13.6041000  127.3328000   -18.4755800  100.2043000
   46483360000   -17.8644100  126.6002000   -12.7610600  118.9051000    -1.4224230 -136.6714000   -14.8686700  120.1963000 
 		     -12.7675300  118.6233000   -18.5078100  126.7543000   -14.7445400  121.8589000    -1.4149780 -136.8743000
 		      -1.3982300 -136.8404000   -14.9112900  124.4610000   -18.4016900  104.6790000   -13.5274600  127.3359000
 		     -14.9569700  121.0185000    -1.4727960 -137.1107000   -13.5506000  127.3768000   -18.3318700  103.4213000
   46553350000   -18.2614600  124.3114000   -13.1127700  118.9917000    -1.4320860 -136.5785000   -14.7551000  120.6744000 
 		     -12.8099900  118.5253000   -18.6899600  125.1590000   -14.7690000  120.9046000    -1.4290120 -137.1128000
 		      -1.4281960 -136.7296000   -15.1456700  121.9385000   -17.7771100  100.7896000   -13.4716000  127.1833000
 		     -14.6853000  120.4011000    -1.4623960 -136.9956000   -13.5321500  127.0508000   -18.0920300  102.4192000
   46623340000   -18.0160200  129.0171000   -12.9091400  117.0571000    -1.3867220 -137.0730000   -14.7688100  120.2775000 
 		     -13.0334200  118.6520000   -18.1828400  126.8060000   -14.8058300  121.4935000    -1.4016570 -136.8257000
 		      -1.4063540 -136.9731000   -14.9571200  123.5341000   -18.1226000  102.1767000   -13.4922400  127.2829000
 		     -14.8753000  120.8234000    -1.4190860 -136.9488000   -13.4364100  126.9502000   -18.5606900   96.1792200
   46693330000   -17.9300300  123.8718000   -13.0210600  116.9671000    -1.3995450 -137.1121000   -14.8402600  120.0116000 
 		     -13.1943200  118.1632000   -18.2942100  132.6537000   -14.7941300  121.0602000    -1.3881230 -137.6284000
 		      -1.4122680 -137.1478000   -14.7602400  122.2033000   -18.3849000  102.6531000   -13.4216300  127.0083000
 		     -14.9986100  119.8997000    -1.4257710 -137.8870000   -13.4381500  126.9237000   -18.2858500  105.8814000
   46763320000   -18.1149300  128.8700000   -13.0765000  117.6789000    -1.3708390 -137.4953000   -14.8019000  120.4375000 
 		     -12.8964300  118.7202000   -17.4433400  121.8225000   -14.7908900  120.7399000    -1.4435790 -137.4969000
 		      -1.3644190 -137.3199000   -14.8878400  120.2115000   -17.5780200  100.8037000   -13.4501000  126.9121000
 		     -14.6769200  120.1320000    -1.4220790 -137.3529000   -13.4110700  126.3585000   -17.7863500   97.5128800
   46833310000   -18.4349300  128.0087000   -12.9191200  118.4304000    -1.4163860 -137.6751000   -14.6717300  119.7592000 
 		     -12.8564700  118.5117000   -17.3659900  126.8971000   -14.7095100  120.1708000    -1.3832460 -137.8843000
 		      -1.3972990 -138.0105000   -14.7674100  119.9850000   -18.0036300   98.8298200   -13.3825900  126.4431000
 		     -14.8444700  119.3922000    -1.3664510 -137.9023000   -13.4235900  126.3615000   -18.5552400   98.0744900
   46903300000   -17.9417700  122.9633000   -12.8594200  118.7384000    -1.4050630 -137.8828000   -14.8741900  118.6129000 
 		     -12.9345900  119.2690000   -18.3323100  131.3395000   -14.7021800  121.2057000    -1.4370140 -138.0657000
 		      -1.3843080 -137.5973000   -14.8972900  120.9960000   -18.4317200  103.5340000   -13.3854600  126.5775000
 		     -14.9393400  118.7191000    -1.4874550 -137.9528000   -13.4742700  126.5070000   -17.7114500  101.5773000
   46973290000   -18.1567900  128.6702000   -12.8398100  118.1024000    -1.4210690 -137.9175000   -14.7584600  118.4163000 
 		     -12.6302300  118.4472000   -18.0939800  127.0790000   -14.7433200  120.4873000    -1.4004980 -138.3795000
 		      -1.4312400 -138.0575000   -15.0170900  119.8995000   -17.9736700  100.4320000   -13.4761700  126.1352000
 		     -14.8431900  118.7956000    -1.3586900 -138.6124000   -13.3990000  126.1354000   -17.0964100   96.5422700
   47043280000   -17.9639800  127.1958000   -12.7655800  116.3097000    -1.3949620 -138.0016000   -14.7323900  117.1811000 
 		     -12.8862400  116.6281000   -17.1442000  130.8295000   -14.7063000  119.1470000    -1.4193450 -138.5685000
 		      -1.3692310 -137.9870000   -14.7158300  119.5299000   -18.3149400   99.7383100   -13.2717600  125.7103000
 		     -14.6988100  117.9520000    -1.3911350 -138.2875000   -13.3150200  125.4022000   -18.0262200  100.3890000
   47113270000   -17.9720300  131.2412000   -12.6571600  118.9437000    -1.4444750 -138.5084000   -14.6528300  118.2584000 
 		     -12.9247300  117.4558000   -17.2258600  125.4541000   -14.7944400  118.5238000    -1.4397760 -138.8845000
 		      -1.4437290 -138.3444000   -14.8335800  118.3750000   -18.1968900  105.7055000   -13.3825500  125.1025000
 		     -14.8074900  119.0196000    -1.4671400 -138.6890000   -13.3133700  125.1363000   -17.3979400  102.3100000
   47183260000   -17.9078800  128.8931000   -12.6817600  117.9747000    -1.4214150 -138.6927000   -14.5453100  117.7182000 
 		     -12.8090800  117.1074000   -17.8227300  123.9892000   -14.8359500  118.5974000    -1.4477970 -138.6940000
 		      -1.4045050 -138.2014000   -14.9521500  120.1496000   -17.7134500  102.9692000   -13.1787100  125.6381000
 		     -14.5998700  118.8571000    -1.4402610 -139.1085000   -13.1429000  125.3302000   -17.6562000   99.9889000
   47253250000   -17.7074800  126.4171000   -12.6037000  116.3787000    -1.4186930 -138.8522000   -14.7293900  117.8469000 
 		     -12.8216300  117.7533000   -18.3054100  121.6521000   -14.7754300  119.3992000    -1.4219370 -138.9454000
 		      -1.4639260 -138.5591000   -14.7898200  120.1954000   -18.5141100   98.7823900   -13.2661200  125.1306000
 		     -14.7210900  118.3649000    -1.3658810 -139.0293000   -13.2661200  125.0973000   -18.1529800   96.8438300
   47323240000   -17.8572100  130.4284000   -12.5092100  117.1768000    -1.4491420 -138.9778000   -14.6228300  117.4533000 
 		     -12.7035100  117.6986000   -16.9824700  122.8417000   -14.6716700  117.6581000    -1.4800530 -139.1368000
 		      -1.4527900 -138.7960000   -14.7579300  118.5106000   -18.3478400  104.5201000   -13.2429300  125.2670000
 		     -14.7774100  117.3506000    -1.4862780 -139.5160000   -13.2678300  125.2958000   -17.3774300   96.8692100
   47393230000   -18.2616600  128.4274000   -12.6217900  118.2202000    -1.3969110 -139.0746000   -14.4880500  117.2887000 
 		     -12.5963700  116.9155000   -17.6411100  125.5407000   -14.7753500  117.8859000    -1.4044650 -139.5892000
 		      -1.4591270 -139.3164000   -14.8201600  118.3540000   -18.0912700  100.1368000   -13.0746200  124.9188000
 		     -14.6292600  117.2620000    -1.4420840 -139.1739000   -13.0774700  125.1601000   -17.6591300  101.9863000
   47463220000   -18.3945100  124.2653000   -12.7024600  115.7725000    -1.4155080 -139.2830000   -14.6244600  116.6189000 
 		     -12.6015300  115.5255000   -16.9933200  125.4394000   -14.7367700  118.1632000    -1.4183060 -139.6364000
 		      -1.4246480 -139.2173000   -14.9108300  118.2478000   -18.6325100   98.6631200   -13.0636200  125.0776000
 		     -14.5777800  116.0545000    -1.4435020 -139.4120000   -13.0937300  124.5192000   -17.9095200  104.5099000
   47533210000   -17.6110700  125.2623000   -12.5559300  115.5720000    -1.4707570 -139.8148000   -14.5505100  115.9866000 
 		     -12.5652200  116.5781000   -18.1175500  126.6419000   -14.6778500  118.4157000    -1.4481240 -139.9475000
 		      -1.4505570 -139.6535000   -14.5310700  117.6510000   -17.9214500  100.5073000   -13.0934800  123.9090000
 		     -14.4990600  115.1755000    -1.4458300 -139.8571000   -13.0445300  124.0460000   -17.5280500  104.6807000
   47603200000   -17.6093100  130.0314000   -12.6023800  115.2359000    -1.4207910 -139.9181000   -14.5737900  115.9499000 
 		     -12.8692400  115.2422000   -17.2256300  121.2119000   -14.8003700  117.0449000    -1.5090610 -140.0798000
 		      -1.4322450 -139.9565000   -14.9234300  118.2800000   -18.1255500  103.0290000   -12.9763700  124.2059000
 		     -14.5336400  116.0635000    -1.4752710 -140.4971000   -13.1489300  123.8127000   -17.4072100   98.1892500
   47673190000   -18.2455700  126.4096000   -12.6639600  116.7651000    -1.3979730 -140.2193000   -14.4741400  116.8880000 
 		     -12.6342000  115.1289000   -18.1448500  118.9197000   -14.7511100  117.3605000    -1.4489920 -140.2454000
 		      -1.4413990 -139.6753000   -14.7322300  116.7242000   -18.5794100  100.4347000   -13.0668200  125.0132000
 		     -14.4586300  116.1331000    -1.4272400 -140.4758000   -13.0609600  124.6128000   -18.2001800   99.1459700
   47743180000   -17.7043700  127.8792000   -12.5503600  114.5167000    -1.4708220 -140.1908000   -14.5764800  115.6655000 
 		     -12.6367200  114.0344000   -17.9763000  127.6503000   -14.8747100  116.8805000    -1.4797230 -140.3885000
 		      -1.4956550 -140.2313000   -14.4551200  114.5157000   -17.9798000   99.6887500   -13.1642700  123.3819000
 		     -14.5379500  117.0083000    -1.4588260 -140.5484000   -13.0455700  124.1229000   -17.6320500  101.2121000
   47813170000   -17.8085400  124.9456000   -12.3566400  114.8499000    -1.4417640 -140.5728000   -14.5893600  115.5888000 
 		     -12.4121200  115.8377000   -16.7460000  126.3089000   -14.5536100  115.9223000    -1.5428470 -140.6310000
 		      -1.4392820 -140.2432000   -14.6890600  117.8283000   -17.8208900  100.4261000   -12.9059900  123.8990000
 		     -14.7039700  115.0565000    -1.5177790 -140.0157000   -13.0443500  123.6627000   -17.8274700   98.9761600
   47883160000   -17.7942500  126.0185000   -12.3831300  115.6014000    -1.4692790 -140.7099000   -14.5058800  115.9347000 
 		     -12.4026800  114.0989000   -17.0672900  122.6502000   -14.6682400  116.1923000    -1.4911120 -140.9231000
 		      -1.4917930 -140.5024000   -14.4021300  116.4046000   -18.2172400   99.1115800   -12.9395200  123.5630000
 		     -14.5784100  116.1859000    -1.5159840 -140.3200000   -12.9350900  123.6221000   -18.1193600   98.4357600
   47953150000   -17.0563500  125.8792000   -12.4223500  115.1826000    -1.4827220 -140.9332000   -14.5342100  114.8483000 
 		     -12.5724700  116.0634000   -18.6025600  123.5944000   -14.6479600  116.8390000    -1.4549510 -141.0857000
 		      -1.4787740 -140.9888000   -14.4145900  116.6655000   -17.6581100  101.1369000   -12.9476800  123.2265000
 		     -14.6386500  115.8339000    -1.4471060 -141.0798000   -12.8891400  123.6068000   -18.0818900   98.0969200
   48023140000   -18.1119400  125.5130000   -12.5110200  114.2548000    -1.4449770 -141.0917000   -14.5248700  115.0491000 
 		     -12.4260200  115.5564000   -17.0055400  126.3572000   -14.5774900  115.1137000    -1.5586090 -141.5429000
 		      -1.4211310 -141.0197000   -14.5358300  114.3412000   -17.9482500  100.7556000   -12.9532700  123.3722000
 		     -14.6012900  115.3244000    -1.5698750 -140.9304000   -12.9289900  123.2963000   -17.5982900   97.7084400
   48093130000   -17.4006000  126.9789000   -12.5138700  114.4084000    -1.4661600 -141.1606000   -14.6491100  114.4959000 
 		     -12.4791400  114.2856000   -16.9910900  116.7617000   -14.8019900  116.5124000    -1.5219580 -141.3931000
 		      -1.4390220 -141.2331000   -15.0597000  115.9887000   -17.8183100   97.1530000   -12.9159700  123.8994000
 		     -14.7608600  115.0295000    -1.5120390 -141.3064000   -12.9206500  123.0845000   -17.5124800   95.1463500
   48163120000   -17.1835000  123.5319000   -12.1225500  114.3836000    -1.4882330 -141.6542000   -14.5587600  115.4180000 
 		     -12.4304800  115.4186000   -18.7118600  118.8701000   -14.4743600  115.9702000    -1.4857540 -141.5127000
 		      -1.4660780 -141.2726000   -14.5942900  117.1674000   -17.7827600  100.0740000   -12.8162600  123.8129000
 		     -14.5692900  115.4268000    -1.4885530 -141.6042000   -12.8493300  123.2424000   -18.4694800   97.4873700
   48233110000   -18.0464700  125.0240000   -12.4531400  116.0219000    -1.4977590 -141.8883000   -14.5438800  114.7021000 
 		     -12.4735600  114.4206000   -16.8688600  117.6668000   -14.6962100  115.0135000    -1.5304130 -141.4551000
 		      -1.4659590 -141.7076000   -14.6364100  114.4973000   -17.6925200  101.2946000   -12.8219400  123.1623000
 		     -14.4533100  115.3183000    -1.5990560 -141.1636000   -12.8200200  122.6525000   -17.7951200   98.3737600
   48303100000   -18.0524000  123.2378000   -12.4467400  115.5568000    -1.4840100 -141.7872000   -14.4909600  113.4986000 
 		     -12.4577900  113.9868000   -17.2711500  121.9188000   -14.6039100  115.0844000    -1.4970320 -141.7831000
 		      -1.5339540 -141.7101000   -14.6021600  116.1148000   -17.9906500   99.7150500   -12.8008100  122.6160000
 		     -14.6425800  113.7742000    -1.4563410 -141.4623000   -12.7643600  122.4028000   -17.8873700   95.4210500
   48373090000   -17.4340100  125.6234000   -12.3268000  114.7816000    -1.4807960 -141.9405000   -14.5793200  113.9655000 
 		     -12.4384300  114.9373000   -17.3445900  116.3747000   -14.6144400  114.9832000    -1.4664680 -142.1042000
 		      -1.4900440 -141.9572000   -14.5417700  115.2451000   -17.4966800   99.0957000   -12.9164100  122.0952000
 		     -14.5748700  114.0077000    -1.4585480 -142.2618000   -12.8564700  122.0833000   -17.4291700   93.9713000
   48443080000   -17.9364600  124.4559000   -12.4512800  115.2060000    -1.4886970 -142.2894000   -14.5718000  113.1069000 
 		     -12.4414300  115.1364000   -16.7916800  121.8652000   -14.6461200  115.4548000    -1.5275490 -142.2437000
 		      -1.5260080 -142.1226000   -14.9214500  114.8150000   -17.6536000   98.5671900   -12.8884600  122.5363000
 		     -14.7833300  113.5260000    -1.5114310 -142.4881000   -12.8642800  122.5304000   -16.7900500   94.0376200
   48513070000   -17.2082100  127.4613000   -12.3509000  114.7589000    -1.5146070 -142.4753000   -14.5943200  113.3021000 
 		     -12.3887800  113.9504000   -17.8870800  119.2198000   -14.6794900  115.1650000    -1.5197800 -142.4190000
 		      -1.5028390 -142.4424000   -14.5771000  114.8252000   -17.6717700   98.9230000   -12.7603700  121.8670000
 		     -14.6679000  113.0413000    -1.5820680 -142.1661000   -12.8564100  121.8650000   -17.6837700   93.6103300
   48583060000   -17.8662300  118.2278000   -12.5290100  115.5504000    -1.4975350 -142.3560000   -14.5176400  113.2776000 
 		     -12.1886200  113.5747000   -17.2076300  122.3734000   -14.6325900  114.8324000    -1.5407900 -142.7785000
 		      -1.5160720 -142.1094000   -14.6434800  115.2481000   -17.7950500   96.7909600   -12.8640800  122.2299000
 		     -14.6749400  114.1422000    -1.6223180 -142.7337000   -12.8358300  122.4803000   -17.3625400   94.7259700
   48653050000   -17.7111900  123.5442000   -12.0169900  114.0523000    -1.5445970 -142.7051000   -14.4418300  112.0692000 
 		     -12.1092700  113.1782000   -16.6850900  129.2435000   -14.4839400  114.4352000    -1.5112800 -142.9440000
 		      -1.5283700 -142.8517000   -14.4254200  114.8660000   -17.4999700   98.5484500   -12.7317800  121.4285000
 		     -14.4707700  112.6012000    -1.5685030 -142.7571000   -12.7119200  121.4754000   -17.1092900   95.5539600
   48723040000   -17.3084700  123.3635000   -12.4267400  113.4713000    -1.5186540 -143.0892000   -14.4848300  112.5327000 
 		     -12.3716000  113.5822000   -17.0191000  117.3436000   -14.7797600  114.3132000    -1.5406830 -143.0719000
 		      -1.4915580 -142.8631000   -14.7541000  113.4615000   -17.7830000   96.1735100   -12.6858700  121.1389000
 		     -14.6030100  111.5698000    -1.4552190 -143.0024000   -12.7304300  121.6598000   -17.2995500   95.6893600
   48793030000   -17.4694300  123.7587000   -11.9776800  113.3517000    -1.4815210 -143.1027000   -14.5270900  112.7607000 
 		     -12.2919900  114.2714000   -17.2461300  119.8690000   -14.5501700  113.5629000    -1.5798090 -143.1846000
 		      -1.4511040 -143.1910000   -14.6390400  112.4555000   -17.4835700   98.4852100   -12.7280000  121.8641000
 		     -14.5418200  112.2364000    -1.5164850 -143.4177000   -12.7019600  122.1853000   -17.4331300   91.2718100
   48863020000   -17.4467400  124.5743000   -12.4641500  113.9790000    -1.5391830 -143.4776000   -14.4461900  112.3207000 
 		     -12.1992900  114.3596000   -16.9138900  120.3777000   -14.6697700  113.7394000    -1.4861060 -143.2245000
 		      -1.5055740 -143.5930000   -14.7168100  114.7700000   -16.9951000   96.0118000   -12.7153700  121.1607000
 		     -14.4223400  111.8589000    -1.6039190 -143.3067000   -12.7504000  120.5767000   -17.2656900   94.6471200
   48933010000   -17.8493700  121.5036000   -12.1917900  115.4762000    -1.4734220 -143.5095000   -14.5948600  112.5189000 
 		     -12.5698900  114.7456000   -17.6321000  115.9606000   -14.6623200  114.4478000    -1.5339470 -144.2512000
 		      -1.5632410 -143.4075000   -14.7416600  116.4962000   -17.9043800   97.5132300   -12.6715400  121.2206000
 		     -14.4963400  111.5213000    -1.4283050 -144.4090000   -12.6539300  120.5741000   -17.1312100   90.1255500
   49003000000   -17.9994500  118.2562000   -12.2979500  114.7602000    -1.4909030 -143.4897000   -14.4744600  112.1704000 
 		     -12.3092100  113.6043000   -17.2166600  117.0494000   -14.6412600  113.9746000    -1.5508180 -143.6278000
 		      -1.4633440 -143.3245000   -14.7541300  113.0670000   -17.9086400   98.8576000   -12.6015200  121.7152000
 		     -14.3494400  111.0464000    -1.5108850 -143.2553000   -12.6050100  121.1886000   -17.4158800   94.4659300
   49072990000   -17.1595200  121.4487000   -12.4357600  112.4063000    -1.5444530 -144.1929000   -14.4053300  112.2277000 
 		     -11.9241900  112.3088000   -16.7606300  121.3176000   -14.6839900  112.9733000    -1.5257910 -143.9966000
 		      -1.5632400 -143.7833000   -14.3247000  113.3714000   -17.2459100   94.1931500   -12.5919100  121.5162000
 		     -14.3807500  112.9256000    -1.5161230 -144.2335000   -12.5808500  121.5914000   -17.9530500   96.2009000
   49142980000   -17.7614300  123.4428000   -12.2883500  111.9121000    -1.4677640 -144.1553000   -14.4536600  112.0433000 
 		     -12.2927200  112.4631000   -16.9830200  119.5535000   -14.6562200  111.8912000    -1.5985050 -144.0413000
 		      -1.5205640 -144.0496000   -14.9575400  113.4457000   -17.7180300   96.4087100   -12.5388300  121.0490000
 		     -14.5380500  111.9136000    -1.5557550 -143.4584000   -12.5427900  120.4717000   -17.3157000   94.5887100
   49212970000   -17.4121100  118.5428000   -12.2240000  112.9924000    -1.5552860 -144.3967000   -14.4212200  111.6360000 
 		     -12.2369700  112.6836000   -18.1369500  120.7184000   -14.5314000  113.5921000    -1.5031170 -144.3450000
 		      -1.5037030 -144.3696000   -14.4503200  113.6133000   -17.2502700   95.1842700   -12.4358100  120.9676000
 		     -14.3929500  112.2874000    -1.5792600 -144.6782000   -12.4995500  120.7919000   -18.0040000   94.0394400
   49282960000   -17.4518500  122.4326000   -12.1424100  112.9713000    -1.5153600 -144.4897000   -14.4089500  112.3211000 
 		     -12.1945000  113.6757000   -18.1548400  115.9408000   -14.6321700  112.9391000    -1.5512020 -144.7651000
 		      -1.5227660 -144.8669000   -14.6342600  112.9741000   -17.1833200   95.9591000   -12.4903200  120.2371000
 		     -14.4375000  113.5689000    -1.5835450 -144.8353000   -12.4989900  120.9887000   -17.9774600   93.7636300
   49352950000   -17.5576400  120.1252000   -11.8295200  113.0878000    -1.5320620 -144.8812000   -14.4241400  109.7549000 
 		     -12.2650300  113.4016000   -17.2271300  119.6447000   -14.5117800  111.8529000    -1.5967270 -144.6707000
 		      -1.5619990 -144.6268000   -14.4066000  113.4874000   -17.9079900   97.0457200   -12.4321400  119.7249000
 		     -14.3748000  110.2754000    -1.5719630 -144.2396000   -12.4728400  119.8198000   -17.1230900   95.4856900
   49422940000   -18.0798800  125.1164000   -12.0500400  112.6692000    -1.5223690 -144.9232000   -14.3937900  113.2249000 
 		     -12.0844000  112.5614000   -16.3973800  120.6639000   -14.5128700  112.5630000    -1.5557370 -144.6708000
 		      -1.5364890 -144.8288000   -14.5506000  113.3702000   -17.2190900   94.7731800   -12.4868600  121.2452000
 		     -14.3788800  112.4146000    -1.4909130 -144.4235000   -12.4953400  120.4597000   -18.2135400   87.7891400
   49492930000   -16.8548900  116.6005000   -12.0221500  112.8613000    -1.5669920 -145.1264000   -14.6062100  111.0850000 
 		     -12.2119300  113.7982000   -16.7730600  115.3311000   -14.4444200  112.4555000    -1.5336590 -144.9168000
 		      -1.6059490 -145.0678000   -14.3243600  112.9771000   -17.0195300   93.6760100   -12.5643400  120.5427000
 		     -14.6829400  110.8835000    -1.5407100 -145.2653000   -12.6085800  120.2450000   -17.9604000   89.4317300
   49562920000   -17.6056100  122.3556000   -12.1107200  113.6221000    -1.5217590 -145.3200000   -14.4127600  110.3049000 
 		     -11.8967000  111.1471000   -17.1785300  117.4566000   -14.4486800  111.4119000    -1.5658660 -145.5901000
 		      -1.5410150 -145.3488000   -14.6069000  111.3276000   -17.6511900   95.8096400   -12.5151200  120.1164000
 		     -14.6039900  109.0803000    -1.5239760 -145.2230000   -12.4312500  119.7267000   -17.0538700   90.1532400
   49632910000   -17.2560600  122.8649000   -11.8979800  112.5508000    -1.5370620 -145.5945000   -14.4618800  110.1377000 
 		     -12.0693100  112.6990000   -16.7606400  112.2320000   -14.4636300  111.9330000    -1.5604370 -145.7748000
 		      -1.5257930 -145.3421000   -14.5906700  111.4083000   -17.1971100   97.1695400   -12.3840500  120.2122000
 		     -14.5177600  109.3077000    -1.6247510 -146.1903000   -12.3555900  119.7463000   -17.8044600   86.7454500
   49702900000   -16.9699700  121.3954000   -11.8199600  112.2768000    -1.5631950 -145.7811000   -14.5301000  109.7469000 
 		     -12.1393600  111.6474000   -18.1440300  106.5955000   -14.5616600  112.2298000    -1.5486200 -146.1551000
 		      -1.6043790 -145.6549000   -14.6566400  111.1661000   -17.3159500   94.0717300   -12.5066100  119.2928000
 		     -14.6898800  109.7616000    -1.5646700 -146.0533000   -12.5239700  119.6060000   -17.3135500   89.5783700
   49772890000   -17.3325800  118.0232000   -11.8770700  111.0995000    -1.5438990 -146.0725000   -14.4706900  110.0497000 
 		     -11.8740300  113.2607000   -17.3853000  117.1917000   -14.3439000  111.2702000    -1.5507600 -145.8641000
 		      -1.5423090 -146.1152000   -14.4676300  111.7803000   -17.6206400   94.6106000   -12.3422900  119.1362000
 		     -14.4332900  109.1662000    -1.5064930 -145.7448000   -12.4023700  119.0957000   -17.0728300   90.6378900
   49842880000   -17.5987600  125.9124000   -11.8452500  113.2653000    -1.5603400 -146.1950000   -14.2541900  110.2369000 
 		     -11.7863600  111.6349000   -17.3311700  108.4879000   -14.6047100  111.6453000    -1.5763520 -146.8699000
 		      -1.5751830 -146.1993000   -14.6166800  111.1860000   -17.0394500   92.8865200   -12.4461500  119.3215000
 		     -14.4331700  111.2172000    -1.4483540 -146.7243000   -12.3052000  119.4491000   -17.6070200   89.2155800
   49912870000   -16.8807400  119.0164000   -12.1051100  109.9295000    -1.5850100 -146.2172000   -14.3244000  109.6877000 
 		     -11.8251900  111.5907000   -17.7255100  118.6958000   -14.4499900  111.5075000    -1.5481900 -146.2971000
 		      -1.5841520 -146.1087000   -14.5125300  110.6151000   -17.2045700   90.0392600   -12.4063100  119.7381000
 		     -14.3525800  110.1648000    -1.5904350 -146.7987000   -12.3182400  119.5091000   -17.6105300   91.1510100
   49982860000   -17.6277500  121.2751000   -11.8426100  110.2178000    -1.5820120 -146.6840000   -14.2542900  107.9227000 
 		     -11.9795900  110.2017000   -16.7072000  121.9210000   -14.2109500  109.9431000    -1.5630110 -147.3567000
 		      -1.5605440 -146.6404000   -14.2582500  108.7310000   -17.3373600   95.9411500   -12.2926400  118.5684000
 		     -14.2910200  108.5257000    -1.4818580 -147.6264000   -12.3791300  118.0292000   -16.7168400   90.1451000
   50052850000   -17.1423700  121.9113000   -11.9443000  109.8091000    -1.5586350 -147.0269000   -14.2517000  108.2734000 
 		     -11.8748700  110.3745000   -17.3845400  115.6992000   -14.6168600  110.3207000    -1.5108340 -147.0710000
 		      -1.5196920 -146.7822000   -14.4561000  109.2724000   -17.4104800   94.2597600   -12.2155600  117.9306000
 		     -14.2022700  107.1710000    -1.4450930 -146.9999000   -12.2138300  118.0320000   -16.9951100   92.2091100
   50122840000   -17.0250200  116.9097000   -11.6811400  112.0400000    -1.5899020 -146.7338000   -14.3481500  108.4305000 
 		     -11.7752200  111.9053000   -17.3271000  119.1091000   -14.3947800  110.0053000    -1.6007010 -147.3303000
 		      -1.5581970 -146.6547000   -14.4887900  109.8243000   -17.3708400   90.8681900   -12.3624700  118.7468000
 		     -14.3614300  109.2002000    -1.5299960 -146.9154000   -12.3032700  118.4890000   -16.7680600   91.2560300
   50192830000   -17.3427900  116.6047000   -11.8788500  110.4550000    -1.5838420 -147.1873000   -14.2611700  107.7724000 
 		     -11.7144200  110.6495000   -16.4613000  106.5974000   -14.4071300  108.7272000    -1.5951460 -146.8195000
 		      -1.4953630 -147.2164000   -14.5659100  109.7411000   -17.1904600   94.1374100   -12.2404000  118.0214000
 		     -14.3043500  107.4780000    -1.6072940 -147.7000000   -12.3451600  118.2195000   -16.9952600   89.9155300
   50262820000   -16.8082800  119.5872000   -12.1394800  110.5297000    -1.5712290 -147.3244000   -14.2172800  106.4295000 
 		     -11.9616100  111.5583000   -16.2797800  114.3940000   -14.4081000  109.2341000    -1.5592090 -147.6405000
 		      -1.5610280 -147.4747000   -14.5154300  109.0844000   -16.9465500   93.0806600   -12.2091600  116.9725000
 		     -14.3006800  106.2575000    -1.6131830 -147.7585000   -12.2435200  117.4307000   -17.0975100   93.8946600
   50332810000   -17.7961400  115.9800000   -11.7683800  109.7864000    -1.5667530 -147.4984000   -14.2789400  107.1719000 
 		     -11.8256600  110.5108000   -17.1073300  121.6522000   -14.3457400  106.8344000    -1.5420830 -147.9783000
 		      -1.5902260 -147.5598000   -14.2828700  107.7530000   -17.3437900   92.5995600   -12.2182600  117.2457000
 		     -14.2525100  106.4576000    -1.5232480 -148.3738000   -12.1931300  116.9170000   -16.6130900   95.6203900
   50402800000   -17.1569900  123.1949000   -11.8023600  107.5463000    -1.6356010 -147.7399000   -14.2859000  108.2600000 
 		     -11.7272100  109.7314000   -17.0576600  113.3227000   -14.3780000  108.6577000    -1.6012530 -147.6669000
 		      -1.6299550 -147.9012000   -14.4767700  108.3818000   -17.2049600   93.5243800   -12.2136900  118.5014000
 		     -14.3950800  105.3926000    -1.6474980 -147.6532000   -12.1176400  118.6295000   -17.6211900   89.9649200
   50472790000   -17.0983900  118.7836000   -11.7269800  109.5696000    -1.5779740 -147.7070000   -14.2356100  106.6360000 
 		     -11.6907700  110.0040000   -17.5278300  115.4468000   -14.5719900  108.9529000    -1.5856900 -148.3325000
 		      -1.5640230 -147.5109000   -14.3873400  109.3480000   -17.3702300   92.2648400   -12.1918900  117.2314000
 		     -14.2838900  105.6825000    -1.6345610 -148.7092000   -12.1773100  117.5740000   -17.0898600   93.5401300
   50542780000   -17.4695600  116.0704000   -11.9147800  110.2351000    -1.5599220 -147.9581000   -14.3237500  106.6969000 
 		     -11.7365100  110.2029000   -16.5478600  118.7863000   -14.2905300  108.1112000    -1.6329090 -148.2687000
 		      -1.5344030 -147.7979000   -14.3444700  108.1306000   -17.2415000   92.6773800   -12.2332700  117.2833000
 		     -14.1687200  106.0945000    -1.5733020 -148.2841000   -12.1248400  117.2238000   -16.6531500   90.8240700
   50612770000   -16.8152400  121.3527000   -11.7837200  107.6828000    -1.6351430 -148.2913000   -14.2893000  104.4176000 
 		     -11.8136800  109.8526000   -17.1429800  120.4584000   -14.4512700  107.1991000    -1.6659330 -148.7558000
 		      -1.5904270 -148.1952000   -14.3374500  106.8056000   -16.8424000   91.4960100   -12.2133600  116.4546000
 		     -14.2956200  105.3755000    -1.6934430 -148.3592000   -12.2116500  116.7626000   -17.1492100   95.4050400
   50682760000   -16.6554300  117.0958000   -11.6302400  110.8691000    -1.6209710 -148.3830000   -14.2962700  106.2476000 
 		     -11.6603400  110.1389000   -17.0794300  106.7335000   -14.4545100  108.4515000    -1.6379220 -148.6593000
 		      -1.6156710 -148.6128000   -14.1986000  108.7903000   -16.8195900   92.2053600   -12.1814600  116.8725000
 		     -14.3200100  106.0434000    -1.6578500 -148.6176000   -12.1516200  117.3622000   -17.4832300   90.2695900
   50752750000   -17.2742300  121.0406000   -11.3627500  110.1710000    -1.6084550 -148.6418000   -14.0700400  106.0566000 
 		     -11.7455500  109.9640000   -16.7599100  111.5915000   -14.4408700  106.4910000    -1.6813090 -148.7908000
 		      -1.6526320 -148.9566000   -14.2959100  105.5889000   -17.2432100   90.5956400   -12.2008200  116.9372000
 		     -13.9650800  106.6628000    -1.5861610 -148.5632000   -12.0002700  117.0683000   -17.4045700   90.8189500
   50822740000   -16.8962100  118.9404000   -11.6892700  107.3082000    -1.6617360 -148.8253000   -14.2387000  106.0912000 
 		     -11.8311100  109.3572000   -17.2471600  111.7039000   -14.4396800  108.3956000    -1.6106700 -148.6285000
 		      -1.6444870 -148.9959000   -14.8054100  107.2674000   -17.3008100   90.2167000   -12.1184000  117.2150000
 		     -14.1036100  106.1141000    -1.6412820 -148.8579000   -12.0977900  117.2106000   -17.3836900   89.3314200
   50892730000   -17.5180800  116.2013000   -11.5854100  110.9228000    -1.6469630 -149.1505000   -14.2094300  104.8113000 
 		     -11.7266300  108.9196000   -17.9178200  118.0949000   -14.2915100  107.7632000    -1.6504900 -149.1130000
 		      -1.5973360 -149.1300000   -13.9905700  108.4202000   -17.2743700   93.1253000   -12.0498200  116.1497000
 		     -14.2595700  105.5241000    -1.6154650 -148.7854000   -11.9744600  116.2518000   -16.6974500   90.6322800
   50962720000   -17.2054300  122.5668000   -11.5991200  108.7486000    -1.6045070 -149.1834000   -14.1189400  104.7812000 
 		     -11.5304700  110.1782000   -16.6044800  112.6710000   -14.4523400  106.9478000    -1.6326420 -149.5438000
 		      -1.6062060 -148.9218000   -14.3951700  106.1158000   -17.0759500   91.8993500   -12.1476700  115.9243000
 		     -14.1428800  105.3451000    -1.7081370 -149.9774000   -12.0994300  115.7727000   -16.8362900   88.5607900
   51032710000   -16.7617600  117.3934000   -11.6905400  110.0882000    -1.6402580 -149.2222000   -14.2023200  105.0521000 
 		     -11.4385700  109.7408000   -16.7766100  112.7100000   -14.2753200  106.5646000    -1.6031590 -149.5088000
 		      -1.6942590 -149.3272000   -14.4650700  106.4356000   -17.0773600   88.6986300   -12.2209300  116.1946000
 		     -14.1511400  104.7191000    -1.5422010 -149.0679000   -12.1524600  116.1377000   -16.8038000   87.2038300
   51102700000   -17.0812100  116.7467000   -11.6536100  108.3248000    -1.6348610 -149.4357000   -14.2205000  105.9810000 
 		     -11.7032900  109.3779000   -16.9541700  111.9404000   -14.4413700  106.2363000    -1.6818790 -149.8180000
 		      -1.6443130 -149.5696000   -14.6758700  105.2639000   -16.5896400   90.8717700   -12.1188400  116.4096000
 		     -14.0457800  105.8258000    -1.6699570 -149.9484000   -12.1230800  115.7401000   -16.8674400   86.6011800
   51172690000   -16.7869100  119.3781000   -11.1862600  108.9795000    -1.6352240 -150.0194000   -14.2602200  104.8163000 
 		     -11.5181500  108.7444000   -15.9666400  107.1804000   -14.4306000  106.1324000    -1.6536930 -149.7267000
 		      -1.6654770 -149.7311000   -14.2403000  106.5275000   -16.9888700   87.5039900   -12.1912100  116.5985000
 		     -14.4084900  105.3997000    -1.6619700 -149.2339000   -12.1087000  116.4336000   -17.0563100   86.0738100
   51242680000   -17.3285600  115.2371000   -11.6684400  109.5248000    -1.6071080 -149.7644000   -14.2311200  104.8862000 
 		     -11.7582200  109.2188000   -17.2084600  110.6197000   -14.2912800  106.3316000    -1.6483190 -150.1927000
 		      -1.5989400 -149.9882000   -14.6426800  106.7812000   -17.4347800   90.1142000   -11.9890400  116.1397000
 		     -14.3278800  104.2838000    -1.6376230 -150.2777000   -11.9815400  116.1231000   -16.5352700   90.0981400
   51312670000   -17.0502500  117.2496000   -11.6811500  110.2008000    -1.6664160 -150.1752000   -14.1318300  104.0180000 
 		     -11.6186600  109.8276000   -16.9616800  108.8680000   -14.3537900  105.7890000    -1.6418130 -150.1895000
 		      -1.6805740 -149.8750000   -14.5931700  105.7118000   -16.7352300   90.7037900   -11.9676400  115.4910000
 		     -14.1158700  102.4971000    -1.6273670 -150.0389000   -12.0130400  115.5228000   -16.9017500   87.2428400
   51382660000   -16.7686300  116.3446000   -11.5269400  109.0188000    -1.6671870 -150.4689000   -14.1010400  105.0835000 
 		     -11.5685300  108.9363000   -16.8200600  114.9172000   -14.1270300  107.0602000    -1.6426610 -150.2939000
 		      -1.6878170 -150.0418000   -14.2104600  104.1900000   -17.0206600   87.2816500   -11.9954600  116.1059000
 		     -14.1417500  104.8843000    -1.6586040 -149.9163000   -12.0444000  115.5043000   -17.4656300   85.6584700
   51452650000   -17.5894500  115.6983000   -11.4985500  109.3857000    -1.6144480 -150.3391000   -14.2338200  102.4743000 
 		     -11.5482000  107.8538000   -16.1989100  112.3704000   -14.4341700  104.2644000    -1.7041960 -150.4268000
 		      -1.5971590 -150.1598000   -14.4767000  105.5825000   -17.2599400   91.2841900   -12.0248800  114.4598000
 		     -14.2874400  102.1173000    -1.6756530 -150.8819000   -11.9739900  114.9207000   -16.1655100   87.9206800
   51522640000   -17.2958700  113.6390000   -11.4290100  108.1691000    -1.6548720 -150.6197000   -14.2771500  102.7989000 
 		     -11.6020000  107.3860000   -17.4293400  112.4032000   -14.2587100  106.8451000    -1.6029020 -150.6655000
 		      -1.6512810 -150.4575000   -14.3109600  106.6233000   -16.9541900   87.9657300   -11.9306700  115.7510000
 		     -14.2828000  102.1451000    -1.6705840 -150.7832000   -11.9542600  115.4462000   -16.6327500   85.9844700
   51592630000   -16.5212000  114.2421000   -11.5888800  107.8680000    -1.7107130 -150.6633000   -14.2462300  103.0752000 
 		     -11.5162000  107.7972000   -17.2074500  115.9728000   -14.4315200  106.1835000    -1.6623330 -151.0231000
 		      -1.7066800 -150.6920000   -14.5354300  106.4367000   -16.7781700   86.9698300   -11.9906900  114.8832000
 		     -14.1365900  103.3325000    -1.6635480 -150.8792000   -11.9502700  114.6375000   -16.8062600   88.8958300
   51662620000   -16.9796900  115.3628000   -11.4756200  107.4450000    -1.6530740 -151.1751000   -14.0569500  102.5099000 
 		     -11.6956600  107.2790000   -16.4171800  113.2500000   -14.4926600  104.5114000    -1.6728300 -151.3985000
 		      -1.6221750 -151.0595000   -14.7506400  103.1702000   -16.9687100   88.8696400   -11.8502000  115.1773000
 		     -14.1029600  102.5606000    -1.7319820 -151.7263000   -11.8659200  114.7521000   -16.6835700   87.5334000
   51732610000   -18.0594000  115.9616000   -11.9015700  107.9822000    -1.6494820 -151.2574000   -14.0873200  102.7727000 
 		     -11.4198900  108.6020000   -16.7782800  115.0393000   -14.3759300  105.4312000    -1.6486720 -151.5715000
 		      -1.5932010 -151.2654000   -14.4775000  105.5962000   -16.9472700   88.4618700   -11.7996800  114.0216000
 		     -14.0343900  101.5518000    -1.6768840 -151.6104000   -11.8347300  114.1661000   -15.9291900   90.4688700
   51802600000   -16.5152300  115.0783000   -11.5934900  108.7738000    -1.6632060 -151.1899000   -14.2888700  101.7548000 
 		     -11.4128500  108.8702000   -16.8717500  111.1192000   -14.3424300  104.8446000    -1.7023900 -151.4968000
 		      -1.6813930 -151.2022000   -14.3408900  104.8742000   -16.7109100   86.2584500   -11.9227700  114.4551000
 		     -14.0799300  102.6900000    -1.7320440 -151.0651000   -11.9189600  114.2247000   -16.6696800   86.9257400
   51872590000   -16.8373100  116.5574000   -11.5223900  108.1397000    -1.6323470 -151.4452000   -14.2577400  101.2955000 
 		     -11.5129400  108.6893000   -16.7418300  114.7271000   -14.2091000  106.2466000    -1.7232660 -151.6761000
 		      -1.6801760 -151.6114000   -14.2948700  106.2737000   -16.9430400   90.3272200   -12.0087000  114.3988000
 		     -14.1517500  101.9932000    -1.7812570 -151.6547000   -11.8818600  114.0209000   -15.9964800   83.2025800
   51942580000   -17.1595900  113.8360000   -11.5410900  107.3058000    -1.6607330 -151.7401000   -14.0523800  102.4798000 
 		     -11.7346800  107.4558000   -17.1940800  114.7641000   -14.3791100  104.7247000    -1.7236220 -151.9975000
 		      -1.7007370 -151.9995000   -14.5147800  104.3179000   -17.1445500   86.8190200   -11.7977500  114.9106000
 		     -14.0127800  100.7838000    -1.7359740 -152.3010000   -11.7378800  114.3508000   -16.8171200   87.8218400
   52012570000   -16.7872300  113.0348000   -11.3569700  107.1985000    -1.6790210 -151.9073000   -13.9871500  101.2068000 
 		     -11.3119700  107.7061000   -17.7099100  112.7942000   -14.2799500  104.9140000    -1.6545220 -152.2025000
 		      -1.6488290 -151.4330000   -14.2183500  105.6313000   -16.6811800   86.5361000   -11.8337200  113.7798000
 		     -13.9885400  101.0189000    -1.6629500 -152.1557000   -11.8010100  113.3230000   -16.7989700   88.8452500
   52082560000   -16.9455800  111.4598000   -11.1064100  107.4679000    -1.6888290 -152.3422000   -14.2913300  102.4687000 
 		     -11.3712200  108.6685000   -18.1067900  103.0419000   -14.1792100  105.2372000    -1.7129470 -151.9786000
 		      -1.6780680 -152.1625000   -14.2827500  104.0240000   -16.7413100   88.8401000   -11.8268300  114.3897000
 		     -14.2845700  102.0322000    -1.6777530 -151.7336000   -11.8636800  113.5961000   -17.1056900   85.7944100
   52152550000   -17.2244300  114.4421000   -11.4134400  105.2633000    -1.6669890 -152.3334000   -13.9290500  101.9419000 
 		     -11.3768400  108.1105000   -17.5958300  110.5693000   -14.2650100  104.1128000    -1.6650770 -152.4564000
 		      -1.6268650 -152.2963000   -14.2724100  103.2859000   -17.0542900   87.7115400   -11.6101900  114.0653000
 		     -13.8731000  102.7189000    -1.6541290 -152.0031000   -11.6719400  113.7877000   -16.9271600   88.2499900
   52222540000   -16.5356900  111.9196000   -11.3803300  107.4103000    -1.7106660 -152.5547000   -14.1399400  101.3532000 
 		     -11.3810400  107.8321000   -17.0410100  108.4880000   -14.1741800  103.9902000    -1.7153080 -152.8167000
 		      -1.6961660 -152.4175000   -14.1554500  104.8809000   -16.8988000   83.8599100   -11.7712100  113.9206000
 		     -14.2094300  101.1623000    -1.7272720 -152.8779000   -11.7703600  113.9865000   -17.0492600   85.3073200
   52292530000   -17.3867100  111.7424000   -11.3246000  107.3199000    -1.7088070 -152.5236000   -14.2251000  100.3026000 
 		     -11.3187700  106.8749000   -17.0032800  111.3633000   -14.1749900  103.6073000    -1.7008590 -152.6175000
 		      -1.6804460 -152.8476000   -14.1286600  104.0132000   -16.8551800   88.5031100   -11.8407800  113.3151000
 		     -14.2578100  100.0976000    -1.7324530 -152.3547000   -11.8323100  113.4522000   -16.3658200   86.4819400
   52362520000   -17.0900800  113.9201000   -11.4516400  104.8662000    -1.6661940 -153.0966000   -14.0220400  101.3289000 
 		     -11.3527900  105.4930000   -17.2622200  113.9723000   -14.1883800  101.8572000    -1.6845900 -153.1981000
 		      -1.6553080 -152.8852000   -14.0877900  103.3701000   -16.8401200   88.5210800   -11.6488900  113.7731000
 		     -13.9279200  101.0830000    -1.7625850 -153.3926000   -11.7167100  113.6266000   -17.4108100   81.0009300
   52432510000   -17.1767800  116.0444000   -11.1427200  106.0068000    -1.6762160 -152.9906000   -14.0355600  101.3027000 
 		     -11.0818400  106.9647000   -17.2700200  112.7168000   -14.1003800  102.4344000    -1.7248840 -153.3171000
 		      -1.6790000 -152.7086000   -14.3663200  103.7203000   -16.8466900   84.9957800   -11.7652400  113.5137000
 		     -14.0341000  100.9779000    -1.7243210 -153.1538000   -11.7400000  113.4674000   -17.4160600   84.4655300
   52502500000   -17.2743000  113.7279000   -11.0759700  106.7923000    -1.6970600 -153.0427000   -14.1498300  100.3120000 
 		     -11.2027300  107.5453000   -17.2035200  118.7488000   -14.1325200  102.8862000    -1.7373790 -153.4302000
 		      -1.6636840 -153.2062000   -14.2455800  102.1615000   -16.6895600   87.4352600   -11.7590700  113.0741000
 		     -14.0196100  100.1951000    -1.6573180 -154.0042000   -11.8152300  112.8833000   -16.1764500   83.7046300
   52572490000   -16.8757000  116.9144000   -11.5074200  107.0194000    -1.6712390 -153.2851000   -14.1101700   99.7243800 
 		     -11.2698300  107.3064000   -15.9277100  109.6589000   -14.2911800  102.8571000    -1.7570980 -153.7014000
 		      -1.6939920 -153.6126000   -14.3368000  104.8377000   -16.5449000   87.0824500   -11.8472100  113.0228000
 		     -14.2487500   98.8651400    -1.7338510 -153.4597000   -11.8518200  112.9989000   -16.2487000   77.0702900
   52642480000   -16.6227700  112.2504000   -11.3415200  104.6184000    -1.6864480 -153.6389000   -14.1174500  100.0870000 
 		     -11.4264700  103.9843000   -16.9236300  110.7265000   -14.3301800  101.9726000    -1.6540210 -154.1124000
 		      -1.6700210 -153.2610000   -14.3222000  101.7089000   -17.0855300   83.9590900   -11.7413200  112.5761000
 		     -14.0543200  100.0507000    -1.7260060 -153.9661000   -11.6991200  113.0268000   -16.8583800   83.7225200
   52712470000   -17.0806900  111.4805000   -11.4487400  106.5991000    -1.7159980 -153.9444000   -14.2059600  100.8176000 
 		     -11.3484800  105.3570000   -15.8973300  105.5479000   -14.2562900  100.4674000    -1.7424480 -153.9804000
 		      -1.7308090 -153.9053000   -14.6612500  100.9639000   -16.7391400   86.6339300   -11.7364800  113.1858000
 		     -14.1811800  100.4271000    -1.6826620 -154.1135000   -11.8110900  113.2237000   -16.3660900   80.0346000
   52782460000   -16.7807400  113.5233000   -11.3285800  106.2512000    -1.7334090 -154.1954000   -14.0373200  100.2520000 
 		     -11.1662600  106.7728000   -17.0184600  101.7103000   -14.3229300  102.6262000    -1.6909830 -154.0486000
 		      -1.6796730 -155.0263000   -14.0909100  103.1673000   -16.2934100   85.7749700   -11.7185800  112.1543000
 		     -14.1764300   99.9249200    -1.7427560 -154.4139000   -11.7082000  112.5801000   -17.1404600   78.3688000
   52852450000   -17.1366800  111.4871000   -11.3159700  105.2893000    -1.6818280 -154.0393000   -14.0134400   99.3082900 
 		     -11.1593000  105.1849000   -16.6375700  113.0484000   -14.2487700  100.5862000    -1.7356680 -154.5726000
 		      -1.7017520 -154.1850000   -14.2594400  100.3920000   -17.1376700   84.4089200   -11.6230300  111.9760000
 		     -14.0500700   99.7613100    -1.8138710 -154.6321000   -11.6623500  112.2981000   -16.7953500   87.6993300
   52922440000   -17.0995500  106.3015000   -11.0915800  105.1594000    -1.7372990 -154.1923000   -14.0516400   99.8132100 
 		     -11.2939400  105.6101000   -16.6722600  109.9100000   -14.1485900  101.3933000    -1.7083720 -154.6521000
 		      -1.6762750 -154.1603000   -14.0752600  100.3643000   -16.8734800   82.1264700   -11.6600700  112.8946000
 		     -14.1204000   99.7174700    -1.6274000 -154.6005000   -11.7080400  112.6929000   -16.4090100   84.8171500
   52992430000   -17.1167300  117.5671000   -11.2808400  105.5594000    -1.7311690 -154.6131000   -13.7587000   97.7523700 
 		     -11.4219800  105.6830000   -17.1985300  111.8687000   -14.3006000  101.1938000    -1.7111020 -155.1275000
 		      -1.7601630 -154.4275000   -14.1652400  101.4854000   -16.6193200   85.0265400   -11.5792500  111.6515000
 		     -13.9630500   98.3045700    -1.6532350 -154.9551000   -11.6460400  111.2672000   -16.5125800   83.0096700
   53062420000   -16.9405500  111.9760000   -11.1774500  104.5248000    -1.7165360 -154.6718000   -14.0148500   97.9959900 
 		     -11.1851000  102.8515000   -17.2983600  114.4239000   -14.2201600  100.8900000    -1.7527970 -155.3781000
 		      -1.6896940 -154.5278000   -14.0479800  100.1793000   -17.3165100   83.8538300   -11.6387200  111.6152000
 		     -14.0259900   97.6183500    -1.7893190 -155.3716000   -11.6312900  111.2159000   -16.2574600   87.0519800
   53132410000   -17.1886600  111.7209000   -10.7897600  104.0537000    -1.7363920 -154.7321000   -13.9509400   97.6142900 
 		     -11.1049700  104.4913000   -17.6235400  115.8004000   -13.8743200  100.3890000    -1.7583340 -155.2190000
 		      -1.7790820 -154.2264000   -14.2885000  100.1051000   -16.7357100   87.1937000   -11.5728100  112.4023000
 		     -13.9112400   98.4109000    -1.7806150 -154.9311000   -11.6281000  111.7714000   -16.5309900   83.4667200
   53202400000   -17.0175600  109.8434000   -11.2758800  106.7056000    -1.7005200 -155.2068000   -14.1552500   97.3411200 
 		     -11.1831500  105.8593000   -16.0877300  108.7357000   -14.2380300  100.7759000    -1.7682920 -155.3450000
 		      -1.6952740 -155.0808000   -14.3640600  100.0864000   -16.5124600   85.3710900   -11.6290100  111.2101000
 		     -14.2674300   97.0024600    -1.7951870 -156.1568000   -11.7309700  111.3209000   -16.4523000   80.7037000
   53272390000   -17.1529800  114.1128000   -11.0534600  105.1296000    -1.6819040 -155.3978000   -14.0697100   97.6351200 
 		     -11.3239500  104.4914000   -16.5674100  108.0169000   -14.1334900  101.3071000    -1.8240740 -155.6682000
 		      -1.7331740 -155.1757000   -14.0118500  101.9966000   -17.1810500   84.8458500   -11.6064800  111.7351000
 		     -14.1232600   97.6115600    -1.8520990 -155.3986000   -11.5915100  111.5658000   -16.2119800   82.1702100
   53342380000   -17.4911800  110.9836000   -11.0668200  103.6278000    -1.7327580 -155.4243000   -14.0449200   98.8511900 
 		     -11.1969200  103.7696000   -16.5504700  108.5591000   -14.1665900  100.0244000    -1.7311210 -155.9195000
 		      -1.7034300 -155.4431000   -14.4068000  100.5208000   -16.8676200   86.8689000   -11.5886900  111.3223000
 		     -14.2437300   97.9165000    -1.7565620 -156.2454000   -11.5801600  111.6287000   -16.3033500   79.4793000
   53412370000   -17.0535600  111.9162000   -11.5379900  106.5386000    -1.7386140 -155.7085000   -13.9071500   97.7076000 
 		     -11.1901400  106.2980000   -16.9515900  105.9753000   -14.1496000  100.9604000    -1.8115420 -155.7552000
 		      -1.7663140 -155.5566000   -14.5582600  101.9016000   -16.6205800   82.6112400   -11.5692200  110.5869000
 		     -13.9501700   96.2325700    -1.7140160 -155.9674000   -11.6272600  111.3530000   -16.3130800   82.2620800
   53482360000   -16.7379600  109.0647000   -11.1911200  104.6314000    -1.7379960 -155.9037000   -13.8837600   97.1673200 
 		     -11.2524900  104.3716000   -17.4181800  113.5253000   -14.2242100  100.2276000    -1.7933040 -156.1010000
 		      -1.7197130 -155.9962000   -14.0556400  101.2278000   -17.0191400   82.7378800   -11.5132100  110.5604000
 		     -13.9084300   97.2720100    -1.7760940 -155.6157000   -11.5433700  110.7344000   -16.7191600   83.4504500
   53552350000   -17.0198600  109.3708000   -11.2089800  103.9452000    -1.7426840 -155.8837000   -13.9983700   96.4356300 
 		     -11.1975900  104.6791000   -17.1693800  106.3115000   -14.0124000  100.1061000    -1.7852510 -156.0859000
 		      -1.7764780 -155.9969000   -14.0319200   99.5686300   -16.8046300   84.9361800   -11.5128000  110.7134000
 		     -13.9654700   96.6679200    -1.7119030 -155.5692000   -11.5894400  110.6231000   -16.5444200   83.0997500
   53622340000   -17.2319100  111.0259000   -11.1399500  106.3370000    -1.7175570 -156.2254000   -14.1351700   95.0182900 
 		     -11.1096500  103.3909000   -16.4598500  114.7614000   -14.4078500   99.2062500    -1.7242200 -156.8425000
 		      -1.7629010 -156.3851000   -14.1101600  101.0894000   -16.7166100   81.1508900   -11.6842900  110.2839000
 		     -14.3007000   95.7252100    -1.7163900 -156.4826000   -11.5956400  110.5013000   -15.5888100   79.3692400
   53692330000   -16.9207000  112.0625000   -11.0205500  104.1057000    -1.7420060 -156.4046000   -14.0506000   95.9267900 
 		     -10.9532300  103.0747000   -16.3611900  114.5958000   -14.0792400   98.7830200    -1.8044220 -157.1191000
 		      -1.7709540 -155.9578000   -14.1234300   99.3408700   -16.9618800   83.2846600   -11.5866000  110.8225000
 		     -14.1281500   94.9248800    -1.7969400 -156.9792000   -11.5743400  110.9609000   -16.2401800   78.8540000
   53762320000   -16.3983000  111.5269000   -11.1874000  103.3591000    -1.7172960 -156.4550000   -13.9894800   96.1978400 
 		     -11.1057500  104.3331000   -17.0020200  101.7340000   -14.1191100   98.4348100    -1.7591890 -156.9519000
 		      -1.7645760 -156.5004000   -14.3404800   97.7003300   -16.4271100   85.6044800   -11.5547200  109.9280000
 		     -13.9315400   94.4431200    -1.8027120 -157.3132000   -11.4774400  109.9431000   -16.3821400   78.8853000
   53832310000   -17.2125600  111.0756000   -11.1078600  101.6774000    -1.7481840 -156.9433000   -13.9554400   96.1620700 
 		     -11.2715600  103.7056000   -16.8411500  107.6944000   -14.1769200   97.9851100    -1.8138960 -157.1431000
 		      -1.8025500 -157.0210000   -14.6858700   96.9954600   -16.6695200   79.9434400   -11.4730800  110.0446000
 		     -13.9677500   97.2694000    -1.7871870 -157.1312000   -11.4789600  109.7234000   -16.4647800   83.8173100
   53902300000   -16.7966800  110.3929000   -11.0832600  104.9355000    -1.7902090 -157.1385000   -14.0903100   95.6516400 
 		     -11.1135700  104.7415000   -16.5879700  110.5077000   -14.1047800   99.1505900    -1.8093980 -157.2912000
 		      -1.7536020 -157.1739000   -14.2925300   97.2891900   -16.9421600   82.1495800   -11.4792600  109.7423000
 		     -14.0080600   95.8592500    -1.8029500 -157.0263000   -11.4510700  109.7033000   -16.2800900   79.1236500
   53972290000   -16.9171900  110.0544000   -11.1498400  104.0962000    -1.7120470 -157.1998000   -13.9519000   94.4779300 
 		     -10.9126900  104.6331000   -17.7717300  108.5991000   -14.0791200   99.3720200    -1.7405080 -157.7624000
 		      -1.7501620 -157.0453000   -14.0274000   96.2086300   -16.2995500   85.2549000   -11.4749700  109.4659000
 		     -13.8286200   93.8222900    -1.6741310 -157.4969000   -11.4465300  109.1050000   -16.3787400   81.7224300
   54042280000   -17.8992900  110.0781000   -11.2734700  105.2022000    -1.7188790 -157.6296000   -13.9313000   95.3107800 
 		     -11.1425100  103.0877000   -17.4118300  109.6457000   -14.0370800   98.8350100    -1.7528590 -157.6605000
 		      -1.7884520 -157.4267000   -14.2281100   99.0593000   -16.8238700   81.0098900   -11.4227300  109.8548000
 		     -14.0145200   94.8444300    -1.8113410 -156.9631000   -11.3889400  109.2547000   -15.8714900   80.9792400
   54112270000   -17.2879200  110.3493000   -11.1067400  103.2229000    -1.7405980 -157.8907000   -13.8316800   95.6030700 
 		     -11.2159600  103.1361000   -17.7265500  100.0633000   -14.1138600   97.9954800    -1.7499790 -158.0715000
 		      -1.7534070 -158.2139000   -14.2407600   96.3992500   -17.0213300   85.3259000   -11.3152300  109.0185000
 		     -13.8598300   95.5361800    -1.6764700 -157.6994000   -11.2765600  108.3206000   -16.9387100   79.2801400
   54182260000   -16.8525000  108.8127000   -11.2364700  102.6381000    -1.7205730 -157.6704000   -13.8429600   94.2417400 
 		     -11.2778200  103.9528000   -16.1784400  112.2456000   -14.0850300   98.7739200    -1.8322600 -157.9992000
 		      -1.7225600 -157.7895000   -14.2105600   97.7428700   -16.2158400   83.4395500   -11.3957200  108.4125000
 		     -13.7659200   94.0854300    -1.8487380 -158.5535000   -11.4595100  108.4621000   -16.2206100   81.4324400
   54252250000   -16.8462200  112.2713000   -11.4150500  104.4510000    -1.7263850 -158.0246000   -13.7814800   94.4866400 
 		     -11.0091600  101.7131000   -16.3586300  104.5862000   -14.3674200   97.4509700    -1.7550940 -157.9822000
 		      -1.7539820 -158.2619000   -14.2915900   96.9295300   -16.7086700   77.6616900   -11.4119000  108.8160000
 		     -13.8731600   95.1013300    -1.8473820 -158.1316000   -11.3990900  108.9511000   -15.7378900   79.6196500
   54322240000   -16.5319600  109.1012000   -11.2042100  104.4630000    -1.7663640 -158.3909000   -13.6569800   95.0510500 
 		     -11.2419700  102.0300000   -17.3715800  102.1156000   -14.1052900   97.2273300    -1.7218060 -158.4586000
 		      -1.7987310 -158.0190000   -14.3093400   97.7117900   -17.0174000   85.0287100   -11.2380300  108.9004000
 		     -13.6030700   96.6668400    -1.7745620 -158.2751000   -11.2516800  108.7005000   -17.4924100   78.4546700
   54392230000   -17.5254400  101.8910000   -11.2241100  103.9456000    -1.7606620 -158.2433000   -13.8661100   94.1699200 
 		     -11.2883100  101.9991000   -16.4577400  110.1712000   -14.1461800   96.1367600    -1.8002950 -159.1981000
 		      -1.7257660 -158.2572000   -14.0074900   95.4344300   -16.4579500   84.1319100   -11.4124100  108.5808000
 		     -13.9250400   94.1655800    -1.7913060 -158.8067000   -11.3707500  108.0486000   -16.1639000   82.7897900
   54462220000   -17.2749000  114.2588000   -10.8666300  101.3483000    -1.7851810 -158.8831000   -13.8135600   92.8520200 
 		     -11.0762400  101.4402000   -16.3241300  105.8556000   -14.0776200   95.0572700    -1.8481750 -158.4309000
 		      -1.7745920 -159.1272000   -14.0194000   94.0792500   -16.4974900   80.7411100   -11.3679100  108.1112000
 		     -13.9918200   92.7444700    -1.8613210 -158.8916000   -11.4158800  107.8904000   -15.9443900   81.1573900
   54532210000   -16.2855400  109.2390000   -11.2086100  102.7762000    -1.7531560 -158.9709000   -13.8892300   92.2133300 
 		     -11.0647000  102.5806000   -15.8795400  106.2647000   -14.3369800   96.3607300    -1.8088100 -159.1181000
 		      -1.6894910 -158.3900000   -14.2023300   98.0275000   -17.0482400   83.2493400   -11.3254900  107.7772000
 		     -14.1381300   92.4105700    -1.8642050 -159.1598000   -11.3633400  107.3806000   -16.2139300   78.2987400
   54602200000   -17.2581300  107.7386000   -11.1072100  101.6434000    -1.7490910 -159.0823000   -13.9759100   92.4692200 
 		     -11.0731400  102.0557000   -17.2470800  103.1551000   -14.0602100   94.0423500    -1.7250600 -159.3158000
 		      -1.8116180 -158.8705000   -14.7019500   94.2262000   -16.3780900   79.6262900   -11.3917900  107.8650000
 		     -14.0050200   93.1190000    -1.6731860 -159.5268000   -11.4918700  107.9538000   -15.6465300   83.2163100
   54672190000   -17.0310000  107.0971000   -11.0996500  101.5276000    -1.8256590 -159.4320000   -13.9623800   93.4436300 
 		     -11.0170500  101.0648000   -16.3977400  110.2636000   -14.0646000   96.4998400    -1.7726800 -159.0091000
 		      -1.8115430 -159.0910000   -14.1549300   96.8571900   -16.6886900   79.6997700   -11.3592800  108.3176000
 		     -14.1036200   94.1067100    -1.7728070 -159.1918000   -11.3458800  108.4308000   -16.2044800   77.4343400
   54742180000   -16.1595800  107.8647000   -11.3281200  101.6294000    -1.7969770 -159.5461000   -13.7274500   92.0265400 
 		     -11.2042100  101.4995000   -16.6205200  101.8728000   -14.5120600   95.3122200    -1.8241690 -159.7570000
 		      -1.7763660 -159.2581000   -14.4284900   94.8458700   -16.8838500   80.8498200   -11.2920400  107.4318000
 		     -13.7970100   92.0198100    -1.7734110 -158.7492000   -11.4146700  106.7235000   -16.4662300   84.8609200
   54812170000   -17.3896100  106.7433000   -10.9305900  100.2072000    -1.7668970 -159.4339000   -13.8408200   93.6473100 
 		     -11.0235700  102.0003000   -16.7398400  109.3629000   -13.7909000   94.3529100    -1.8157330 -159.8267000
 		      -1.8422080 -159.5495000   -13.9030400   95.7311100   -16.4402900   81.4827100   -11.3650300  107.9027000
 		     -13.7022100   92.9477100    -1.8798010 -159.2376000   -11.3328600  108.0394000   -16.6402500   83.2530700
   54882160000   -16.9751600  113.2216000   -10.9346100  101.5391000    -1.7836750 -159.7871000   -13.7536100   91.5662300 
 		     -10.9936200  101.4750000   -17.1283000  105.4572000   -14.0180800   94.2263800    -1.8515040 -159.7429000
 		      -1.8705570 -159.8619000   -14.3041500   95.4268000   -16.1304200   79.5403300   -11.3287000  106.6700000
 		     -13.9479400   90.8348500    -1.8188630 -160.0385000   -11.3369900  106.5712000   -16.2447800   79.4015700
   54952150000   -16.5045300  110.7085000   -11.1214300  102.0518000    -1.7831240 -160.1266000   -13.8120100   91.2891000 
 		     -11.0830700  101.5871000   -16.5767300   99.3769400   -14.2434600   95.1897200    -1.7646600 -160.0481000
 		      -1.8325770 -159.9902000   -14.4355700   98.1809500   -16.7125500   79.6346700   -11.3745700  106.3361000
 		     -13.9729700   92.1783200    -1.8191710 -159.6281000   -11.3925200  106.2982000   -16.2638100   81.7334700
   55022140000   -16.7468500  110.3768000   -10.8926100  101.3765000    -1.8234100 -160.0326000   -13.5254600   90.8597900 
 		     -11.0496500  101.1192000   -17.3896000  107.0088000   -14.1072800   94.5196500    -1.8881240 -160.1510000
 		      -1.8216470 -159.7628000   -13.9725100   93.6020400   -16.3079800   83.7755400   -11.2582200  106.4719000
 		     -13.4324800   90.6467500    -1.8299720 -160.3550000   -11.2295000  106.6240000   -15.7855400   84.4680800
   55092130000   -16.0141000  109.9262000   -10.9004600  102.5897000    -1.8575330 -160.5829000   -13.7137900   91.2127200 
 		     -10.8153200  101.9103000   -16.8095400  100.9375000   -14.1761600   94.8491000    -1.8290310 -160.1378000
 		      -1.8576570 -160.4351000   -14.2827700   93.6144300   -16.1147400   76.6022000   -11.3605900  107.4251000
 		     -13.8265400   92.0723400    -1.8383090 -159.9668000   -11.3161700  107.0285000   -16.9335700   78.2526300
   55162120000   -16.4414400  107.6656000   -11.2798300  101.1770000    -1.7969650 -160.4451000   -14.0169000   90.1995600 
 		     -11.2915000  102.4412000   -16.4076500  101.6374000   -14.2552400   96.3644400    -1.8128820 -160.8040000
 		      -1.8125080 -159.9412000   -14.3847800   94.7650600   -16.4954300   81.5298500   -11.4191800  106.4644000
 		     -14.0920800   89.2774000    -1.8498800 -160.5382000   -11.4371700  105.6040000   -15.7817000   77.6530200
   55232110000   -16.7100700  110.0912000   -10.6495400   98.3071900    -1.8212960 -160.6688000   -14.1221100   91.3575400 
 		     -11.0320800  100.8562000   -16.3138600  113.5075000   -14.1064700   94.3686500    -1.9293310 -160.7706000
 		      -1.7506880 -160.4816000   -14.2982400   94.2089200   -16.3297800   80.9181100   -11.3635700  106.6404000
 		     -14.0450300   88.9752900    -1.9764250 -159.3896000   -11.3551000  106.4126000   -16.0395800   76.7108300
   55302100000   -16.8279000  108.8481000   -10.8205700  101.3145000    -1.8214770 -161.0435000   -14.0352800   90.0649200 
 		     -10.9247000  101.3912000   -17.6014700   94.6415600   -14.0665300   94.5690800    -1.8073260 -160.8024000
 		      -1.8553280 -161.1409000   -13.6739300   95.4953200   -15.9937300   78.1127500   -11.4744900  106.4127000
 		     -13.8582200   89.5709800    -1.8719030 -160.2940000   -11.3939300  106.0561000   -16.0237800   77.5852600
   55372090000   -16.4170300  108.4447000   -11.0571200  100.0550000    -1.8576510 -161.1166000   -13.8746400   90.4446700 
 		     -10.9936800  101.6485000   -17.8837400   98.3565500   -14.1326200   94.4417800    -1.7708490 -161.4212000
 		      -1.8284290 -160.9977000   -14.3627700   95.1606100   -16.5757900   79.2700300   -11.3028500  106.0572000
 		     -13.9866000   89.2326800    -1.9613000 -161.0170000   -11.3821100  106.2561000   -16.5391300   77.5453600
   55442080000   -16.3786200  105.2324000   -10.6568100   99.9196500    -1.8339890 -161.3331000   -14.0262000   92.6156300 
 		     -11.1053700  100.0942000   -16.3294600  105.5951000   -13.8619500   93.5553700    -1.8772870 -161.2404000
 		      -1.8481180 -160.9161000   -14.0073100   92.1562800   -16.3423500   79.2664600   -11.4417400  107.4537000
 		     -14.0111000   93.3526100    -1.9544310 -160.6444000   -11.4056100  106.7340000   -16.8705900   71.4222600
   55512070000   -17.0175000  109.9938000   -10.8205900   98.8619800    -1.8709430 -161.2831000   -13.8280100   90.2766500 
 		     -10.8434500  100.4951000   -16.0611200  106.6564000   -13.7608300   92.6125000    -1.8672070 -160.7285000
 		      -1.8625750 -160.9017000   -13.9641000   95.1097300   -15.9831600   76.5298200   -11.3677000  106.0814000
 		     -13.8864800   90.8157900    -1.8226280 -161.3728000   -11.4460100  106.1863000   -15.9238300   76.8405800
   55582060000   -17.0473100  105.4988000   -11.3108000  102.0671000    -1.8131180 -161.6488000   -13.9739200   89.4540800 
 		     -11.1005100  100.7449000   -17.0742600   97.6478800   -14.0172700   93.0163300    -1.8158410 -161.6393000
 		      -1.8980950 -161.4373000   -14.0548700   95.5058300   -16.5913400   81.3290100   -11.3858900  105.6065000
 		     -13.9986400   89.5226500    -1.8507450 -161.7644000   -11.2825700  105.7326000   -16.0553800   73.5267900
   55652050000   -16.5140300  106.8662000   -11.0777100  101.5327000    -1.8549950 -161.4277000   -13.5168800   90.5995300 
 		     -11.1704500   97.9237800   -16.9691800   95.9387800   -14.0137600   92.2489000    -1.9044310 -161.7185000
 		      -1.7998720 -161.4062000   -13.9696300   94.2283900   -16.3039700   78.6508100   -11.1684000  105.9379000
 		     -13.6872400   90.3181000    -1.8717620 -161.1710000   -11.2222300  106.2794000   -16.2621500   80.4334800
   55722040000   -17.0782800  105.1229000   -11.0122200  101.9735000    -1.8297060 -162.1563000   -13.8634800   90.5224500 
 		     -10.7994200  101.5957000   -17.0724800  100.8533000   -14.0468600   93.4894800    -1.7914750 -161.9593000
 		      -1.8266550 -161.8259000   -13.9799500   91.8518100   -15.7884200   76.5443000   -11.3849100  105.8444000
 		     -13.8841300   91.3951600    -1.8264280 -161.9367000   -11.3642200  105.6471000   -15.8876600   77.7441400
   55792030000   -16.3465400  107.4904000   -11.1466100  100.5746000    -1.8529580 -162.0479000   -13.9173400   89.9053000 
 		     -10.6087700  100.3386000   -16.3712300  106.0216000   -14.0879300   92.4243700    -1.8483340 -161.9627000
 		      -1.9412520 -161.9355000   -14.6425600   93.5714500   -16.2307100   78.5036500   -11.3538200  105.8460000
 		     -13.8617100   90.3624000    -2.0528540 -162.5198000   -11.3399000  106.3242000   -16.6461300   71.9905600
   55862020000   -16.5262900  106.9746000   -11.0959700  100.1309000    -1.8401570 -162.3962000   -13.7583300   88.9085500 
 		     -10.7659800   99.9123400   -16.1456900  105.7796000   -13.8388400   91.1028600    -1.8880890 -162.2787000
 		      -1.8959290 -162.2790000   -14.2554000   91.5340700   -16.1477800   78.2552900   -11.3283700  105.1968000
 		     -13.6689400   88.3590000    -1.8106460 -162.2615000   -11.3215600  104.8111000   -15.8286200   77.3583400
   55932010000   -17.5565000  100.9455000   -10.9100100  100.1756000    -1.8617230 -162.1298000   -13.8107800   90.3009900 
 		     -10.9279600   99.0111200   -15.8344000  102.5950000   -13.8357700   92.4841800    -1.9112730 -162.2732000
 		      -1.8501950 -162.4104000   -13.8642500   90.5218600   -16.3587900   74.7994600   -11.2561600  105.6883000
 		     -13.7806500   89.3617500    -1.8767000 -162.2744000   -11.2239000  105.5360000   -16.0589300   76.5974300
   56002000000   -16.8510900  108.3500000   -10.6850300   99.8923500    -1.8824240 -162.6936000   -13.8568400   89.7990300 
 		     -10.9559600  100.5992000   -18.2114900  108.8895000   -14.1469700   94.9684400    -1.9446230 -162.5003000
 		      -1.8701940 -162.8377000   -13.9550700   95.6321000   -16.2871700   77.4206400   -11.3075500  105.1149000
 		     -13.7786200   88.8230100    -1.8193910 -162.5602000   -11.3550000  105.3256000   -16.3151100   74.0528600
   56071990000   -16.5720700  104.7591000   -10.9654100  100.6962000    -1.8609620 -162.6290000   -13.6972400   88.6828000 
 		     -11.0922600  101.1037000   -16.6627400   96.7830900   -14.1519900   92.9531900    -1.8302300 -162.7557000
 		      -1.7936890 -162.0959000   -13.9509000   92.6951600   -16.3299100   78.3244600   -11.2339600  105.0670000
 		     -13.5832100   89.6706100    -1.8365070 -162.4022000   -11.2801400  104.5548000   -15.6768000   76.6663300
   56141980000   -16.6885000  110.1913000   -11.0232500  100.0669000    -1.8731750 -163.1473000   -13.8066600   90.3582000 
 		     -10.7331000  101.7194000   -17.1088800  104.9636000   -13.8776700   92.5576000    -1.8605980 -163.0967000
 		      -1.8779090 -162.6276000   -14.2667400   93.0945100   -16.0828100   75.9795800   -11.3108700  105.9418000
 		     -13.8165300   89.4690100    -1.8179710 -163.1282000   -11.2977000  105.7794000   -16.3586000   72.4951600
   56211970000   -16.7598900  111.9877000   -10.9470500   99.9581600    -1.8573780 -163.1299000   -13.7795700   87.6415000 
 		     -10.7757800   99.6772200   -16.6322700  101.5489000   -13.9778200   91.2442200    -1.8278720 -162.7981000
 		      -1.9034830 -163.0094000   -14.3211600   93.3988400   -16.0766200   77.8388800   -11.3202400  104.7826000
 		     -13.9404800   87.1507800    -1.8509850 -163.6178000   -11.3070100  104.4540000   -15.8564400   75.8032300
   56281960000   -16.6020900  107.8391000   -10.8225800  100.5835000    -1.8500530 -163.4126000   -13.6677300   86.2398400 
 		     -11.0600900  100.0826000   -17.2228200  106.3311000   -14.4658600   92.0851100    -1.8786910 -163.5804000
 		      -1.8943090 -162.8459000   -14.5286100   91.9084200   -16.1951400   77.3627200   -11.2416100  103.9018000
 		     -13.6963200   86.2787800    -1.9023310 -163.4502000   -11.2889000  103.4804000   -15.4298500   79.8524900
   56351950000   -16.7978300  108.7943000   -10.7197100  100.6904000    -1.8427880 -163.6314000   -13.7397600   87.8504500 
 		     -10.6229800  100.9631000   -16.3938300   95.9914800   -14.0432400   93.1613800    -1.9150630 -163.5078000
 		      -1.9046850 -163.3880000   -14.5191300   94.4811100   -16.1892500   75.4138100   -11.2001600  105.1454000
 		     -13.6461500   88.2299600    -1.9527650 -163.6569000   -11.2115400  104.6270000   -16.0365500   73.8046600
   56421940000   -17.1162500  104.2850000   -10.9894100   99.9621600    -1.8933990 -163.7424000   -13.8542900   89.4961800 
 		     -10.6183800   98.8268700   -17.2453100  102.1823000   -14.0350600   90.8442200    -1.8844780 -164.0407000
 		      -1.9461270 -163.6232000   -14.1883900   91.5151100   -16.4901400   76.1869300   -11.2767000  104.9353000
 		     -14.0288900   89.5789200    -2.0564620 -163.5642000   -11.2698600  104.5988000   -16.5715300   73.8830600
   56491930000   -17.1365400  106.0802000   -11.3786200  100.4217000    -1.8819760 -163.6019000   -13.6357200   86.6674400 
 		     -10.8127800   99.7220900   -17.8277700   99.7931700   -14.0780100   93.1380700    -1.8457430 -163.6766000
 		      -1.8814030 -163.6830000   -13.9983900   92.2566100   -16.2674900   77.6679300   -11.1219400  103.4632000
 		     -13.7791400   87.3616900    -2.0532620 -164.2388000   -11.1289900  104.1421000   -15.9804300   76.6156100
   56561920000   -17.4835800  107.4958000   -10.7772100   98.6504900    -1.8923740 -164.0385000   -13.6998700   88.1533500 
 		     -10.6787600  100.0121000   -15.5304500  107.5280000   -13.8430500   91.3342700    -1.8921870 -164.4751000
 		      -1.8951330 -163.9864000   -13.4187500   88.9788400   -16.7186000   73.6232700   -11.1895000  104.2533000
 		     -13.6424200   88.9989800    -1.9456900 -163.5826000   -11.0841600  104.0166000   -16.1240500   74.8423500
   56631910000   -17.7134300  107.9353000   -10.8816200   98.8298300    -1.9161710 -163.9450000   -13.8588300   87.6277700 
 		     -10.6055400   98.3769600   -17.6529900  104.6467000   -13.8497600   91.6393100    -1.8910220 -164.5172000
 		      -1.9170730 -163.6018000   -13.8280000   93.8903500   -16.4992000   76.8874000   -11.2055300  103.6820000
 		     -13.8101300   85.8552900    -1.8842430 -165.5201000   -11.1480700  103.7323000   -15.5079600   73.5462000
   56701900000   -16.7536000  105.2235000   -10.4070100   97.6172200    -1.9152780 -164.3712000   -13.9493800   88.6565400 
 		     -10.9449700   98.1887500   -16.2601800   91.7953900   -13.7412900   91.0599900    -1.8625260 -164.5391000
 		      -1.9077820 -164.1124000   -14.3310400   88.8092100   -16.3588300   74.5086100   -11.1883800  104.5157000
 		     -14.0425700   89.4886300    -1.6938590 -164.1462000   -11.2019000  103.9693000   -16.3546300   68.9886600
   56771890000   -17.3325400  103.2674000   -10.9511400   99.2567200    -1.8666540 -164.7394000   -13.5398600   88.6853900 
 		     -10.5174600   97.0972900   -17.3609800   97.4391200   -13.9331900   90.3625900    -1.8481160 -164.5826000
 		      -1.8818420 -165.0383000   -14.0485300   88.6054000   -16.5079200   73.9598100   -11.0271400  104.0742000
 		     -13.7403300   88.9020800    -1.8487750 -165.1030000   -10.9914600  104.2856000   -16.6094900   77.1597400
   56841880000   -16.6405600  108.4509000   -10.6919200   98.3137400    -1.8841710 -164.8079000   -13.6599500   86.4435100 
 		     -11.0790600   98.4704800   -16.5942100  106.3326000   -14.1721600   89.8877200    -1.8503810 -164.9767000
 		      -1.9300160 -164.5040000   -14.3691000   90.7242300   -15.8124300   74.8971900   -11.1808400  103.6926000
 		     -13.5801600   86.6745500    -1.9378010 -165.0124000   -11.1702600  103.5704000   -15.9302600   73.6191900
   56911870000   -15.9419200  108.7454000   -10.7178400   99.4820600    -1.9109350 -165.3095000   -13.4773800   87.6769900 
 		     -10.8904700   97.9457400   -19.4440000   93.8127900   -14.3413500   91.2067700    -1.7951170 -165.2985000
 		      -1.8728420 -165.3737000   -14.3122200   93.3702500   -16.0444000   74.8080400   -11.0972400  103.3640000
 		     -13.5778100   87.3961100    -1.8599790 -165.4445000   -11.0550600  103.8381000   -17.3514000   72.9668400
   56981860000   -17.0942400  102.2725000   -10.5077800   96.9757100    -1.8869810 -164.7824000   -13.7506800   87.3870000 
 		     -10.6827600   96.8875700   -17.0509400   98.4415100   -13.9378600   90.4409300    -1.8837130 -165.3432000
 		      -1.9552810 -164.9836000   -14.0551000   88.5375400   -16.3479600   75.9086200   -11.1845200  103.6119000
 		     -13.8544700   87.6354800    -1.8382920 -164.9065000   -11.1065200  103.6327000   -16.1323300   75.1725800
   57051850000   -17.1472100  101.3065000   -10.8093800   95.9072800    -1.8491110 -165.1117000   -13.6863600   85.9926200 
 		     -10.6078500   97.7187400   -17.1461100  105.3346000   -13.6490400   90.5118000    -1.8710720 -165.4346000
 		      -1.8452040 -165.3482000   -13.6581900   89.6756500   -16.1827500   74.3148500   -11.0830200  103.3018000
 		     -13.8299300   84.2985800    -1.9136430 -165.4131000   -11.1050000  103.0692000   -15.9195600   71.0875600
   57121840000   -16.2627300  110.3288000   -10.6458300   96.5155300    -1.9041970 -165.7782000   -13.7533700   86.1103400 
 		     -10.8982600   97.9724500   -17.2227100   98.0030700   -14.0197700   89.8114900    -1.9189340 -165.8461000
 		      -1.8754890 -165.2325000   -14.2475000   91.6093700   -16.0591700   74.6961600   -11.1408500  102.6892000
 		     -13.8117700   86.1328300    -1.9155850 -165.6242000   -11.1611000  102.9052000   -16.2652900   70.9426300
   57191830000   -17.2057600  105.3463000   -10.9965700   96.1075100    -1.9113320 -165.7289000   -13.5141100   86.4593200 
 		     -10.8037200   97.2040600   -16.9841500  104.9571000   -14.0223500   89.2887200    -1.8964080 -166.2817000
 		      -1.8512920 -165.6684000   -13.7822900   88.1153500   -16.0100400   75.8046300   -11.0475200  102.3481000
 		     -13.6275700   85.5576700    -1.9589850 -166.3704000   -11.1055500  102.1020000   -16.2405600   76.1900900
   57261820000   -16.9859300  106.1573000   -10.5593100   96.9013900    -1.8681600 -166.3495000   -13.6684300   84.8399400 
 		     -10.5766700   97.8919700   -17.2214900   98.9060500   -14.0850100   91.3190100    -1.7702380 -166.1093000
 		      -1.8148370 -166.6466000   -13.9267200   91.6769100   -16.4714100   68.9912000   -11.1296600  102.9067000
 		     -13.9114200   83.8627500    -1.6417820 -166.1213000   -11.1398900  102.9921000   -15.3390000   69.2949800
   57331810000   -16.4417300  107.2984000   -10.6684600   97.3821300    -1.9225220 -166.0850000   -13.5336900   84.0754500 
 		     -10.9420900   97.8364600   -17.6770400  111.2485000   -14.1038700   89.7866700    -1.9194470 -166.4688000
 		      -1.9568640 -165.9401000   -13.9076100   89.4442700   -16.7384400   73.0857300   -11.2148800  101.9514000
 		     -13.5452600   83.5540300    -1.8374040 -167.7219000   -11.1386400  101.5666000   -15.6021200   73.6239100
   57401800000   -16.9016400  107.5463000   -11.0316900   97.3041200    -1.8504130 -166.1775000   -13.5228300   84.6766600 
 		     -10.8966500   96.7325100   -16.4931300   91.8071500   -13.9532800   86.9156700    -1.9116900 -166.4655000
 		      -1.8305400 -165.8784000   -13.9428000   88.5535800   -16.0442000   77.1276500   -11.0105700  102.0367000
 		     -13.5552600   85.3937400    -1.8903730 -166.1391000   -11.0506900  101.9136000   -15.7843600   74.4193400
   57471790000   -17.0700200  107.2450000   -11.1516500   96.2520300    -1.9040970 -166.9717000   -13.3773200   83.6280000 
 		     -10.6664500   96.5666500   -18.0743700  104.4438000   -14.1374000   88.6985500    -1.9328160 -166.8794000
 		      -1.9053450 -166.7670000   -14.4596000   88.5203300   -16.5632300   72.9480700   -10.8578400  101.3501000
 		     -13.4146200   83.3048700    -1.8240830 -167.5905000   -11.0358400  101.0166000   -15.4783500   72.5741900
   57541780000   -17.0561700  107.3071000   -10.7457000   96.4512300    -1.8909920 -166.6447000   -13.6059800   84.0832100 
 		     -10.9094600   97.7220700   -17.3318300  106.0036000   -13.9904700   89.0315000    -1.9674160 -167.1343000
 		      -1.8165990 -166.5664000   -13.9198400   86.1596500   -16.6117400   76.4535800   -11.0360100  101.2634000
 		     -13.7672300   81.6334200    -1.9068350 -166.8483000   -11.0627400  101.5589000   -15.9841700   74.4068500
   57611770000   -16.6774700  101.8070000   -10.9352100   97.2115100    -1.8740160 -166.9621000   -13.5832400   83.7981000 
 		     -11.0143300   97.4597200   -16.3877500   88.5365600   -14.1854000   87.4578000    -1.7784550 -167.0514000
 		      -1.8237010 -166.3201000   -13.9741800   86.9631000   -16.0576200   74.7042500   -11.0672700  101.7565000
 		     -13.8161400   82.9032400    -1.9374040 -167.6039000   -11.0908200  101.1384000   -15.2109900   73.2804100
   57681760000   -17.1462100  107.8140000   -10.3231000   96.1617500    -1.9166250 -167.0988000   -13.6018500   82.5095900 
 		     -10.9163700   97.6212900   -16.9459900  106.3710000   -14.2109900   87.0001600    -1.9012920 -167.4700000
 		      -1.9155990 -166.6073000   -13.6298200   85.9288400   -16.5295100   72.4895900   -11.3136100  101.3467000
 		     -13.6402300   82.2687500    -2.0670410 -167.1726000   -11.2516200  100.7895000   -15.1773900   69.8415500
   57751750000   -16.4779100  105.1169000   -10.5024500   97.0998800    -2.0002610 -167.1736000   -13.7719200   82.4674700 
 		     -10.6883200   96.7317700   -16.0954600  107.4877000   -13.7300300   88.1126600    -2.0280500 -167.0274000
 		      -1.9581390 -167.2799000   -13.0149100   87.2767600   -16.4118600   73.7063200   -11.1521300  101.1535000
 		     -13.7683500   83.2036400    -2.1730400 -166.7473000   -11.1332500  101.1353000   -16.0022800   73.9176200
   57821740000   -16.5474400   98.5749600   -10.7018900   97.4442000    -1.9042380 -167.3278000   -13.7276500   81.7513300 
 		     -10.7103800   96.1224400   -17.1830500  100.5759000   -13.8218400   87.7981300    -1.9519320 -168.0266000
 		      -1.9365140 -166.9465000   -13.9094000   87.4676100   -16.1231800   71.1640000   -11.2555800  100.9749000
 		     -13.7675700   80.7745700    -1.8453880 -168.4821000   -11.2367700  101.1652000   -15.4675300   72.5672900
   57891730000   -16.2452800  105.5587000   -10.3224900   94.6143300    -1.9567800 -167.4218000   -13.7008600   83.0883900 
 		     -10.5536800   94.2936600   -15.5597200  103.8638000   -13.7298000   87.2790500    -1.9848610 -168.0965000
 		      -2.0050640 -167.4881000   -13.6620300   90.4130700   -16.2710000   74.4352300   -11.1055200  100.7519000
 		     -13.7360200   82.5943600    -1.9464010 -166.6613000   -11.0529600  100.9036000   -16.3788500   68.0027600
   57961720000   -16.7063000  102.0627000   -10.7719200   93.7007800    -1.9209100 -167.6640000   -13.5379000   81.9720600 
 		     -10.5367100   93.6252100   -17.0477100  110.1028000   -13.7832400   87.6088800    -2.0710030 -167.5630000
 		      -1.9378760 -167.4619000   -13.6961500   87.1274500   -16.2558500   73.2845200   -11.0417700  100.1207000
 		     -13.5046700   82.4076800    -2.0477000 -167.9078000   -11.1077300  100.0820000   -15.6993000   77.4185800
   58031710000   -17.1393500   98.0561100   -10.5298800   95.7618900    -1.9048060 -167.8328000   -13.7506300   83.7345000 
 		     -10.7158300   95.6194900   -16.3480000  105.9537000   -13.7585400   86.5038500    -1.9784490 -168.0181000
 		      -1.8885640 -167.7673000   -13.6889400   84.7650500   -15.8983000   72.7325000   -11.1030200  100.6045000
 		     -13.6496400   82.9176300    -2.0262720 -167.4633000   -11.1390700  100.5266000   -15.5802200   72.5088000
   58101700000   -16.9560700  103.5373000   -10.5651400   96.6469500    -1.9121680 -167.8704000   -14.0015000   80.9804500 
 		     -10.5403800   95.2009700   -15.9475100  106.2310000   -13.7536800   88.3989300    -2.0722980 -168.4623000
 		      -1.9267650 -167.7770000   -13.7353300   86.1471700   -15.7562300   73.7350400   -11.2352000  100.1124000
 		     -14.3012600   83.0207300    -2.0545620 -169.3487000   -11.2467200  100.0262000   -16.3437200   65.2593100
   58171690000   -16.0829700  106.1490000   -10.7879300   95.4093400    -1.9063910 -168.4387000   -13.8844000   83.7691000 
 		     -10.8247200   97.4174900   -16.3449600   87.5999300   -14.1997600   86.0994900    -1.9651690 -168.5240000
 		      -2.0319020 -168.4592000   -14.1308300   89.4231000   -16.0788900   74.6928200   -11.1671400  100.8737000
 		     -13.8256500   84.6113800    -2.0091390 -168.6383000   -11.1164500  101.8563000   -16.5265200   63.7758800
   58241680000   -16.2017300  100.1241000   -10.7571500   92.9269300    -1.9479200 -168.5010000   -13.5454800   80.6579400 
 		     -10.5428800   96.0876200   -17.1638100  102.9140000   -13.6808200   87.1854000    -1.9983280 -168.9678000
 		      -1.9166280 -168.4911000   -13.8218200   92.1550800   -16.0330800   71.2537500   -11.0722000   99.3380400
 		     -13.6896800   78.5777600    -1.7478720 -167.1503000   -11.2258600   99.1174500   -15.2096500   72.0727800
   58311670000   -16.0264300  104.5144000   -10.3186600   93.8706700    -1.9686660 -168.6109000   -13.6993600   81.5652600 
 		     -10.6365100   96.1402200   -16.1276900  105.1544000   -13.8265300   87.6734200    -2.0448490 -168.9841000
 		      -1.8594170 -168.4867000   -13.5806400   88.1242400   -15.6162600   68.6542600   -11.1371100  100.9730000
 		     -13.9402500   79.8148300    -2.0273080 -168.8124000   -11.3560800  100.2556000   -16.2017300   70.5163800
   58381660000   -16.2231900  101.2445000   -11.2028100   98.4955900    -1.9395360 -168.5849000   -13.6220700   81.6529800 
 		     -10.3550500   95.5287600   -18.4498900  102.8484000   -13.9782400   88.6470600    -1.9078870 -168.8305000
 		      -1.8900110 -168.6253000   -14.0679300   88.1043400   -15.8981200   71.9913400   -11.0962700   99.9563900
 		     -14.0350900   82.1277900    -1.9637190 -167.7163000   -11.1087700   99.5648000   -15.6557000   70.5266300
   58451650000   -15.9168800  100.3368000   -10.8430300   96.3723600    -1.9801250 -168.9501000   -13.5715000   79.9434400 
 		     -11.2060200   94.5064500   -16.5980200   99.3408100   -14.1744400   85.0518200    -1.9574500 -169.1957000
 		      -1.9638020 -168.7797000   -13.9833100   84.7746200   -15.8521300   70.6942100   -11.2268200   99.9063600
 		     -13.4811100   79.5638100    -1.8668300 -169.6813000   -11.2059100   99.3356700   -15.7852400   70.3986600
   58521640000   -16.0277700  105.8401000   -10.8295300   96.8624700    -2.0259480 -169.4460000   -13.4081200   81.5678900 
 		     -10.5083400   94.2124400   -17.5475600   97.3922200   -13.8625800   85.8019300    -1.8544600 -169.1868000
 		      -1.9437910 -168.8961000   -13.7063200   85.4742400   -15.6019100   68.9068100   -11.1675500   99.7943600
 		     -13.7358900   80.5980300    -1.8539380 -169.9812000   -11.1247500   99.4375200   -16.0240100   70.2165800
   58591630000   -16.3775800  103.1163000   -10.8362400   95.5654800    -1.9570990 -169.2945000   -13.7016600   81.1225000 
 		     -10.6909000   95.8547200   -17.4702400  104.8093000   -13.8668300   86.1552100    -1.9822050 -169.6200000
 		      -2.0254030 -169.2567000   -13.5402300   83.1792000   -15.9402100   68.9982900   -11.1854500   99.7916000
 		     -13.7603400   81.2402700    -1.9680190 -168.9055000   -11.1072300   99.0551400   -15.5292800   68.1172800
   58661620000   -16.8565400   98.1052400   -10.3023400   95.9464600    -1.8658050 -169.3410000   -13.5642400   82.0116200 
 		     -10.6754900   94.0773800   -15.1856600   99.6343500   -13.7050800   83.3532600    -1.8933590 -169.1093000
 		      -1.9494470 -169.0378000   -13.6935700   86.0436200   -16.0129400   71.3252900   -11.0859100  100.0844000
 		     -13.1662300   82.8542200    -2.0193770 -169.1688000   -11.0268900   99.8307600   -16.7230900   68.1315700
   58731610000   -16.6515100   99.8413000   -10.6211800   96.2274200    -1.9566250 -169.9347000   -13.7692100   80.0207000 
 		     -10.5101500   94.8879000   -17.4094700  105.2366000   -13.7464600   86.5370900    -1.8995120 -170.5772000
 		      -1.9315520 -169.8510000   -13.7610800   85.5385100   -15.7120200   70.2860900   -11.1643300   99.9183900
 		     -14.0146400   78.5581000    -1.9966430 -170.4604000   -11.1319000   99.7733500   -15.3555300   70.9146600
   58801600000   -16.3182700  103.1312000   -10.0663200   94.2434500    -1.9113910 -169.9277000   -13.5258500   80.3344100 
 		     -10.5335900   94.5313600   -16.4348000   96.7969400   -13.6131200   84.0197100    -2.0225930 -170.0843000
 		      -1.9556090 -169.3536000   -13.3666400   83.5471800   -16.0403800   69.2050700   -11.0950300   99.9156100
 		     -13.6775700   80.2683900    -2.2749010 -169.5777000   -11.0285300   99.3853900   -15.7160500   69.9179800
   58871590000   -16.8774500  107.3175000   -10.4134500   98.5238000    -1.9352360 -170.0559000   -13.9122500   82.1549100 
 		     -10.6460900   96.7123000   -16.1132400   96.5041500   -13.8054700   86.8318300    -1.9510230 -170.5391000
 		      -1.9520830 -170.2668000   -13.3054600   87.8349800   -16.0624400   66.8308300   -11.2757100  101.0873000
 		     -13.7048100   81.6917800    -1.9109910 -169.4646000   -11.1483100  100.5182000   -16.1792500   62.0365600
   58941580000   -17.3210400  108.0880000   -10.8605800   95.4784400    -1.9690470 -170.2659000   -13.3787700   80.4016600 
 		     -10.8812200   92.7890500   -15.1764300   94.9994900   -13.8527200   81.5265900    -1.9357920 -170.2060000
 		      -2.0786500 -169.7461000   -13.6666700   82.5075300   -15.8218500   71.2353000   -11.1441700   99.3340200
 		     -13.4233300   81.1380300    -1.8427230 -168.6069000   -11.1982400   98.9049500   -15.0989500   72.1232500
   59011570000   -15.9511300   95.4381600   -10.2827500   93.3427400    -1.9770910 -170.0930000   -13.6897400   81.9186200 
 		     -10.4576600   96.2793200   -16.2889500  101.4057000   -13.3764500   84.9244200    -1.9111070 -170.3313000
 		      -2.0667020 -170.3165000   -14.2815500   83.5657300   -15.9260500   66.6957200   -11.0562700   99.7159000
 		     -13.8960000   82.6316300    -1.8887690 -170.9284000   -11.0807600  100.5353000   -16.6833700   66.2486300
   59081560000   -16.8556900  103.4839000   -10.2289200   94.9744600    -1.9614360 -170.5490000   -13.4911500   80.9875000 
 		     -10.6184300   93.8049900   -16.3893500  100.1201000   -13.6351000   84.9450200    -1.9442460 -170.3722000
 		      -1.9425160 -170.2291000   -14.2958000   86.5858500   -15.9720400   67.1319000   -11.1578900   98.8278300
 		     -13.6693600   80.8433600    -1.9184370 -171.0781000   -11.1343700  100.0764000   -15.8259400   69.9934000
   59151550000   -16.3357800  101.0073000   -10.2115300   89.8397400    -2.0424020 -171.0382000   -13.6214300   79.7402300 
 		     -10.5244100   92.2514300   -16.1102100  105.3510000   -13.5903100   84.5401500    -2.1115350 -170.6116000
 		      -2.0065530 -170.5315000   -13.6467400   82.4804000   -15.7766000   68.6961600   -11.0917400   98.7209400
 		     -13.6500100   79.4349000    -1.9939410 -171.8809000   -11.2130000   98.3520100   -15.8471300   69.3378600
   59221540000   -16.3561800  102.6155000   -10.1781600   96.7162100    -1.9187880 -171.0141000   -13.5938200   79.1090600 
 		     -10.4705400   93.0369500   -17.3505100  103.7240000   -13.7454200   86.3727300    -2.0159030 -171.2286000
 		      -1.9993070 -171.0119000   -13.5191200   85.9912600   -15.9850500   67.9080900   -11.1811300   98.7847700
 		     -13.4796700   81.2731500    -2.0844080 -172.5509000   -11.0685400   98.2700200   -15.9681500   66.0593700
   59291530000   -17.8047900  103.0301000   -10.6541100   96.0334600    -1.8976500 -171.4560000   -13.7429600   80.8787800 
 		     -10.8450800   93.8929700   -15.9766000   95.2989100   -13.7383300   81.7411300    -1.9871900 -171.1931000
 		      -1.9778620 -171.6910000   -13.8974600   82.8110700   -15.9639900   66.8765300   -11.1671500   98.5264100
 		     -13.7511300   79.7342000    -1.9671620 -171.7526000   -11.2321800   99.2380600   -16.2831400   62.9147300
   59361520000   -16.8538400  105.3221000   -10.6107000   94.1095700    -1.9822970 -171.1638000   -13.3642600   80.3804600 
 		     -10.6904900   93.2215300   -17.5280200   92.8947800   -13.6125000   82.3153800    -2.0015880 -171.2412000
 		      -1.9591840 -171.0242000   -13.7335500   82.8515900   -16.0905200   69.8195200   -11.0780800   99.3470000
 		     -13.3095500   78.5013400    -2.0365480 -170.4158000   -11.1750600   99.0332600   -16.1110500   67.3303500
   59431510000   -16.9156200   99.5972100   -10.8494400   93.1835800    -1.9695680 -171.2785000   -13.4199200   78.8145100 
 		     -10.4225100   93.0716600   -17.4471700   96.8896500   -13.7508900   84.2084800    -1.9849520 -171.0851000
 		      -2.0636850 -171.2604000   -13.9160200   82.8998600   -15.6986600   69.6823500   -11.0468200   97.3879100
 		     -13.5265800   78.2172500    -1.9317600 -172.2871000   -11.0673900   97.7292600   -15.8171000   69.4521400
   59501500000   -15.9620000  101.9114000   -10.4627600   91.6125700    -1.9695720 -171.7243000   -13.7657300   79.7853200 
 		     -10.5012600   92.8402900   -16.5397700   97.5113200   -13.7228100   82.9608600    -1.9928590 -172.4051000
 		      -1.9534630 -170.8700000   -13.6525100   85.5070600   -16.5449000   66.2834800   -11.0252400   99.1982000
 		     -13.6541800   79.8879500    -2.1560690 -173.3600000   -11.0211300   98.5717900   -16.6530900   61.3918700
   59571490000   -16.3205400  101.7161000   -10.1571800   88.5119900    -1.9394990 -171.6814000   -13.6352100   79.2257900 
 		     -10.6500500   90.6572600   -15.8545700   90.6941900   -13.6360600   81.7879300    -2.0112640 -171.9111000
 		      -2.0249000 -171.0419000   -13.5806300   83.8408600   -16.1452400   70.5216800   -10.9691400   98.3915900
 		     -13.4272300   78.2681000    -2.1581920 -171.9404000   -11.0449300   98.0424100   -16.7018100   69.8277200
   59641480000   -16.3848400   97.4288600   -10.4950400   91.8297800    -1.9362690 -171.7952000   -13.5025700   77.5063600 
 		     -10.5610400   92.0799000   -17.2250900  105.1869000   -13.5707200   84.8287000    -1.9634270 -172.5255000
 		      -2.0001550 -171.6505000   -13.4984800   83.9547200   -15.7073700   64.4210100   -11.1363200   97.8941500
 		     -13.5949700   76.4122100    -1.7953740 -174.0697000   -11.1240800   97.3680900   -15.1847500   64.1443900
   59711470000   -16.8298500  102.8648000   -11.0763600   93.6997200    -1.9519450 -172.2451000   -13.6302500   78.9791500 
 		     -10.5761500   93.4345200   -17.7624000   96.4429300   -13.5480300   82.7865900    -1.8838790 -172.4690000
 		      -1.9393430 -172.1438000   -13.9702300   78.6039500   -16.7047700   63.2826000   -11.1312200   97.8558300
 		     -13.6156700   78.2049200    -2.0924860 -172.7491000   -11.1389000   97.6579700   -15.8878200   62.1122100
   59781460000   -15.9001700   97.4239600   -10.3900800   93.2749500    -2.0220260 -172.2230000   -13.6179700   77.8939900 
 		     -10.7555500   92.5955900   -15.4722600  111.2238000   -13.5543500   82.7808500    -1.9379360 -172.3613000
 		      -1.9482780 -172.5908000   -13.8256900   83.8344700   -16.1728500   68.0054400   -10.9858900   97.4208200
 		     -13.6873300   76.8500300    -2.1676110 -172.6980000   -11.0112500   97.4604600   -15.5541600   68.4539000
   59851450000   -17.0913900  102.8556000   -10.5506300   92.2431600    -1.9300770 -173.0813000   -13.4082300   78.1433300 
 		     -10.3953800   92.6415600   -15.6551800   97.7006100   -13.7795500   83.5751500    -2.0358140 -172.7019000
 		      -2.0594510 -173.0592000   -13.6273500   79.0913700   -15.5579700   64.3375400   -11.2479600   97.0594500
 		     -13.3208800   75.9109300    -2.1825970 -172.7685000   -11.1100300   96.4891400   -15.2742400   65.6415400
   59921440000   -16.5390300  100.8103000   -10.2986100   90.0584300    -1.9644540 -172.8834000   -13.2244300   77.0072000 
 		     -10.5154500   91.1881500   -16.0603700  105.3908000   -13.8457000   80.3698000    -1.8499320 -172.6988000
 		      -1.9936790 -172.8240000   -13.9056500   79.5706100   -16.3542900   67.7834500   -10.9456400   96.9150600
 		     -13.3809200   78.3786500    -2.1264620 -172.7870000   -10.8623900   97.4254500   -17.0263500   64.2035100
   59991430000   -16.3509600   93.2597000   -10.7312300   89.8087600    -1.9322620 -172.8334000   -13.5854400   77.2675600 
 		     -10.9337000   93.4588300   -15.3243200   94.7955600   -13.8907000   82.0352400    -1.9992090 -172.4481000
 		      -2.0066910 -172.3677000   -13.9496100   84.4619700   -16.3881700   70.9029700   -10.9395100   97.2766200
 		     -13.4027500   77.1033500    -1.9542370 -172.9184000   -10.9873400   97.3680200   -15.7122700   66.9774700
   60061420000   -17.0256400   98.9889500   -10.4731700   94.0325900    -1.9655090 -173.1472000   -13.2501400   76.1950800 
 		     -10.8185300   89.2946500   -19.2958900   91.3065400   -13.8151300   82.3463400    -1.9103660 -173.2104000
 		      -2.0069670 -173.1551000   -14.5401200   83.2848700   -15.8763700   66.9684500   -10.8456200   96.0969100
 		     -13.0507800   78.1787300    -1.7896440 -173.9115000   -10.9951100   96.7837500   -15.6497400   68.5153700
   60131410000   -15.9412900  107.4594000   -10.5355400   92.5793200    -1.9838760 -173.2418000   -13.0938100   74.9431500 
 		     -10.6734300   92.0499600   -16.7398700  102.1352000   -14.0054900   80.0024300    -2.0414470 -173.9311000
 		      -1.9752060 -173.2964000   -13.9052400   76.6895800   -16.4451300   64.6804200   -10.9822700   95.9286000
 		     -13.2398900   76.9750900    -1.9241660 -173.1468000   -11.0093800   96.1412700   -15.9579200   67.0256500
   60201400000   -17.2507300   99.0628400   -10.5656400   92.3776900    -1.9591190 -173.4322000   -13.3155300   77.0271300 
 		     -10.6356500   91.4396800   -15.7116200   99.3667000   -13.7266600   80.5830400    -2.0311590 -173.9333000
 		      -1.9874380 -173.0041000   -13.5739400   83.1280900   -16.0051300   70.8721200   -11.0878500   96.4878200
 		     -13.4007100   76.1070900    -2.1351290 -174.2509000   -11.0976500   96.3074400   -15.4023300   66.9242100
   60271390000   -16.3603100  100.7423000   -11.2169000   87.8679700    -2.0121730 -173.4204000   -13.0769000   76.2835500 
 		     -10.8033500   91.0581700   -17.6953800   97.2599500   -13.7968000   79.2826700    -1.9750390 -173.4891000
 		      -1.9799300 -173.1444000   -13.5492800   77.8451200   -15.5578700   66.3612400   -11.0174400   95.1671900
 		     -13.1515100   73.9925000    -2.0538430 -173.0844000   -10.9081300   95.3756600   -15.4915900   69.7708500
   60341380000   -16.3595100  100.8877000   -10.6177900   93.6321100    -2.0365750 -173.3114000   -13.4350600   75.9668000 
 		     -10.8049600   91.8578700   -18.5292200  106.2368000   -13.9300000   81.4618800    -1.9848490 -174.4659000
 		      -2.1111250 -173.9507000   -14.1302700   82.3723900   -16.9323000   65.5512200   -11.1444300   95.6941700
 		     -13.7299900   76.4720000    -1.8755040 -175.3123000   -11.1471200   96.4027600   -15.9712800   67.6359500
   60411370000   -16.6521600   96.5116300   -10.5501400   91.6563500    -1.9418470 -174.0196000   -13.5876400   74.1499500 
 		     -10.7676700   92.2534400   -16.5409100  103.1526000   -14.1830900   81.6665400    -1.8397150 -174.0897000
 		      -1.9877450 -173.7348000   -14.2716400   82.0453500   -16.1775600   68.1693800   -11.1095000   95.5362100
 		     -13.5251300   75.4337500    -1.9835830 -174.4203000   -10.9992000   96.0378900   -14.8359300   68.0044600
   60481360000   -16.4932300  104.6234000   -11.0029000   94.7836600    -1.9184390 -173.8981000   -13.5228800   73.5684700 
 		     -10.6287800   89.7896200   -16.9718500   97.8727900   -13.9819500   79.7441100    -1.9862440 -174.9465000
 		      -1.9806050 -174.3175000   -13.9014200   79.5199300   -15.9243900   63.7912000   -11.1469500   95.7284200
 		     -13.7606900   74.1286900    -1.9822520 -173.8419000   -11.0699600   95.6188700   -15.2507900   62.1988000
   60551350000   -16.2084600   96.8047000   -11.0440400   91.8341800    -1.9515320 -174.2402000   -13.3747600   74.4471900 
 		     -10.5666300   91.6549500   -16.6412100   98.4587400   -13.5525200   81.4915500    -1.9888220 -175.0883000
 		      -1.9523280 -173.9818000   -13.6748400   79.1242900   -16.6244300   67.3546800   -11.0043800   96.1836200
 		     -13.5942600   76.0275800    -2.0346150 -175.0993000   -11.0149400   95.7197000   -16.6054100   66.2287900
   60621340000   -16.1568900   94.6506700   -10.5547000   92.4515000    -2.0246350 -174.7089000   -13.8012800   74.5976300 
 		     -10.8793300   90.5175000   -15.8143700   98.5193600   -14.0379100   81.5312500    -2.0405560 -174.4612000
 		      -2.0012460 -174.8177000   -13.9954200   83.4754700   -15.4684400   69.8521100   -11.0490900   95.2751500
 		     -13.5492900   75.1745100    -1.9397720 -174.9842000   -11.0257900   95.8153400   -15.9842200   64.2841600
   60691330000   -16.6817200  105.0510000   -10.7545300   89.6501400    -2.0384360 -174.9331000   -13.3094100   74.2242400 
 		     -10.7382400   90.6896800   -14.9583600   89.0544200   -13.6510500   77.9169800    -1.9803460 -175.1766000
 		      -2.0166220 -174.5076000   -14.5881800   75.7345100   -15.8573400   66.3163100   -11.0673400   95.5744200
 		     -13.3323000   75.4308200    -1.9174380 -175.5538000   -11.2653100   95.9575000   -15.8929100   58.9793500
   60761320000   -16.7279700   94.7207000   -10.7176600   88.3468100    -2.0237880 -174.9345000   -13.3659300   74.8133900 
 		     -10.5851900   90.3744500   -16.4688600  101.0851000   -13.6659700   78.9502200    -2.0700330 -175.3275000
 		      -1.9727890 -174.6544000   -13.6708600   79.6432900   -16.3506000   68.8376300   -10.9418900   94.9067100
 		     -13.2467000   74.6445600    -2.0341420 -175.4666000   -11.0760500   94.7835200   -16.3387500   69.1665300
   60831310000   -16.2055600   96.5369000   -11.1787700   87.8353900    -1.9690260 -175.0683000   -13.3136600   71.9605600 
 		     -10.6881500   90.0605000   -17.6119600  112.4626000   -13.9610700   80.0525700    -2.0280790 -176.3626000
 		      -1.9704120 -175.4684000   -14.5941000   80.8480100   -15.5051500   68.8054500   -11.0642400   92.4558400
 		     -13.6690100   74.5339500    -1.9543220 -176.8913000   -11.1636000   93.4601700   -14.7068800   66.5453300
   60901300000   -16.4283600   96.5534700   -10.6141500   91.5092300    -2.0172400 -175.2472000   -13.4402600   72.2034300 
 		     -10.9255400   90.0026000   -18.0191200   84.8533700   -13.8900000   80.2799800    -1.9203630 -175.4710000
 		      -2.0234470 -174.6633000   -14.0399500   83.1118600   -16.2027100   65.5933200   -11.1502700   94.0117300
 		     -13.5069200   74.4118100    -2.0552240 -175.4202000   -11.1482000   93.5941300   -15.3415300   61.6757900
   60971290000   -16.2779100  101.1943000   -11.1857300   91.3794800    -1.9833190 -174.8886000   -13.1921700   73.3115000 
 		     -11.0163300   86.9585000   -15.1271400   88.4396100   -13.7773400   76.1936400    -1.9517400 -174.8266000
 		      -1.9755290 -175.3143000   -13.6115100   77.0857500   -15.9477800   67.9060100   -11.1328700   94.5602300
 		     -13.3631300   76.2787100    -2.0172360 -176.1487000   -10.9635600   95.1434900   -16.4010800   64.9750400
   61041280000   -16.5350700   99.3157300   -10.6047500   90.2843500    -1.9828500 -175.8036000   -13.3980900   73.1440600 
 		     -10.7063300   89.5916700   -16.8450900   89.0391500   -13.7772700   77.6075400    -2.0581090 -174.9268000
 		      -1.9818840 -175.9320000   -14.5623300   81.8554200   -15.7207900   65.3643300   -11.0003300   93.5658300
 		     -13.4111100   73.9062000    -2.0541170 -175.6945000   -11.0973700   94.1142900   -15.8516900   64.9756500
   61111270000   -16.2982000  100.0544000   -10.0281800   91.6030700    -2.0019180 -175.8253000   -13.7569300   73.3645300 
 		     -10.4781800   89.7672300   -15.7046200   97.8916200   -13.5474600   81.0844900    -2.0082350 -175.9556000
 		      -2.0238990 -175.8390000   -13.5924600   77.6625100   -15.8437200   63.2300500   -11.2196300   94.9654100
 		     -13.2812600   73.3450300    -2.0495350 -176.1207000   -11.1609100   94.3626100   -15.7515600   60.4742200
   61181260000   -15.7364700  103.4784000   -10.3694400   90.4308700    -2.0138610 -176.5152000   -13.6901900   73.1863900 
 		     -10.5743100   89.8804900   -15.0645600   93.3766800   -13.8125700   79.4167500    -2.0149890 -175.8360000
 		      -1.9778510 -176.2059000   -13.3153600   77.8035000   -15.5574200   64.2180400   -11.3293100   95.4893000
 		     -13.3059900   74.3197800    -2.0321450 -176.9531000   -11.3933500   94.4442700   -15.9864800   58.9071300
   61251250000   -16.7001800   98.6031400   -10.6596000   92.0714200    -2.0134180 -175.8878000   -13.2858500   71.1433900 
 		     -10.8370000   89.6747000   -15.6251900  107.3857000   -13.7765000   77.8368100    -2.1176040 -175.7137000
 		      -2.0084410 -176.2164000   -13.7193100   76.6213500   -15.8848600   63.6658300   -11.1264800   93.2744600
 		     -13.2056500   71.8136800    -2.1203140 -175.7882000   -11.0819300   93.8535600   -15.5490100   65.2239200
   61321240000   -16.1877000   97.4280200   -11.0339300   91.4870700    -2.0036520 -176.4690000   -13.6310300   73.8668700 
 		     -10.6009200   88.4225200   -15.4988100   92.1322400   -13.8547800   78.6201700    -2.0614610 -176.2101000
 		      -1.9244700 -176.9125000   -13.7346500   77.1434600   -15.7154500   64.6165500   -11.1674600   95.4594800
 		     -13.8674400   73.6271000    -1.9910540 -175.0341000   -11.2214500   95.2055100   -16.1886200   56.5539300
   61391230000   -16.7901000   97.2066500   -10.6515100   88.5394300    -2.0299640 -176.6135000   -13.4964800   71.6552400 
 		     -10.5579000   88.8723700   -15.9844500  110.9177000   -13.5541900   79.0745000    -2.0346850 -176.2267000
 		      -2.0000190 -175.9331000   -13.9376900   77.1681800   -15.2769100   62.9029500   -11.2524800   93.5522500
 		     -13.6831500   73.4302900    -2.2226870 -176.3469000   -11.3252900   93.8963000   -15.3340900   64.4655900
   61461220000   -15.8212600  102.7401000   -10.9832200   89.9676200    -2.0445420 -176.3805000   -13.3122100   73.4215500 
 		     -10.8635700   89.1835700   -16.0885700   90.8417100   -14.1553300   75.9477500    -2.0049840 -177.5639000
 		      -2.1331450 -177.1052000   -13.7066100   76.3991200   -15.9819300   64.4389100   -11.1766300   94.5059300
 		     -13.5136700   74.3363000    -2.0799200 -176.5892000   -11.0900400   93.9950200   -16.8577600   61.8078100
   61531210000   -16.6459300  101.9395000   -10.7898000   89.6923500    -2.0151680 -176.7614000   -13.5296800   71.3933900 
 		     -11.0598600   88.3769200   -14.9476800   91.0996800   -13.7863600   77.5074600    -1.8632850 -176.4446000
 		      -2.0725540 -176.7615000   -13.7606900   78.9539600   -15.8286200   64.6785700   -11.4017700   93.5714700
 		     -13.5760000   72.0266300    -1.7881850 -176.7580000   -11.3946300   92.9794300   -14.8442300   61.4717700
   61601200000   -16.0487700   98.1758300   -10.4931600   86.7936800    -2.0291860 -176.9404000   -13.4919400   73.8245200 
 		     -10.6105000   93.0784300   -15.2690400  100.7144000   -13.5553500   79.8100100    -2.0227680 -177.6819000
 		      -2.0241840 -176.4781000   -13.9980600   79.6202200   -15.4502300   59.0907000   -11.1886000   94.9536200
 		     -13.8569100   71.8668600    -2.0930020 -177.9972000   -11.2159800   93.8467800   -15.8524600   57.8798000
   61671190000   -15.4240100  100.5769000   -10.2925700   89.6885500    -1.9790580 -177.5788000   -13.2893100   72.4175700 
 		     -10.8569000   86.9403200   -15.9849700   97.6224500   -13.6625200   76.8531300    -2.0562370 -177.7811000
 		      -2.0848230 -178.2330000   -14.0835000   75.8562500   -16.2075000   62.3059900   -11.0378000   93.1099000
 		     -13.3818300   72.3465000    -1.9811800 -175.2071000   -11.1920500   93.9145600   -16.0606200   63.4095900
   61741180000   -16.3768400   92.4731200   -10.7835400   93.1888600    -2.0553670 -177.2328000   -13.5550200   70.1781100 
 		     -10.7171400   87.7450900   -16.8645300   98.2355400   -13.9432500   78.9962500    -1.9326460 -178.4057000
 		      -2.0898680 -177.5925000   -13.5328100   75.9978700   -15.9090800   64.8536900   -11.2482000   93.8729200
 		     -13.7103100   71.4499900    -2.0907440 -177.4072000   -11.2458600   93.6515700   -15.0379800   62.0259500
   61811170000   -15.9843600  102.1523000   -10.4455600   91.0131000    -2.0493120 -178.0260000   -13.7796900   69.7750500 
 		     -10.6827700   90.4693900   -15.1652800  100.2345000   -13.8677200   79.5625300    -1.9861450 -178.8852000
 		      -2.0979410 -176.7539000   -13.9889100   79.4272000   -15.7941400   59.3257400   -11.5639400   95.5392800
 		     -13.6504200   71.5866600    -2.0060010 -178.9975000   -11.6273800   94.5034700   -14.9204300   51.9645300
   61881160000   -16.1519900   95.6889000   -10.9388700   89.1196400    -2.0062910 -177.6593000   -13.3695500   72.2305800 
 		     -10.5990300   88.7443500   -15.7806600   90.4186700   -13.8638900   77.1789300    -2.0090790 -178.1612000
 		      -1.9223160 -177.6815000   -13.9941500   73.8873600   -15.8735300   62.3885300   -11.1091000   92.7175100
 		     -13.8514200   71.8537100    -1.7443530 -177.8074000   -11.1650500   93.4087800   -16.2196000   63.7841100
   61951150000   -16.3456200   97.4169300   -10.7319600   92.8923300    -1.9133880 -178.1318000   -13.6229600   69.1449500 
 		     -11.0858900   89.9048300   -15.8620500   86.1125100   -14.0538300   77.3800300    -2.0326930 -178.5075000
 		      -2.0563530 -178.0451000   -13.9433300   77.8602800   -15.4481400   64.6424100   -11.3057900   92.7902600
 		     -13.3849200   70.6168400    -2.0075470 -178.5940000   -11.3031900   93.5484500   -14.8005000   60.3051800
   62021140000   -16.3848700  104.8983000   -10.4254000   87.8672000    -1.9196410 -178.2971000   -13.7068000   70.2016400 
 		     -10.5309000   90.2918500   -14.6771200   94.8678900   -13.3579400   78.1108600    -2.0813310 -177.7730000
 		      -1.9996150 -178.7784000   -14.0903400   78.6567500   -15.6125600   62.0645700   -11.2697400   93.3987700
 		     -13.8318700   68.0082600    -1.7646560 -177.1861000   -11.4561800   93.2003000   -15.7127300   51.8689100
   62091130000   -17.3057200   92.9649700   -10.2191700   89.4081300    -2.0737690 -178.1681000   -13.3065700   71.3755000 
 		     -10.7923500   91.4420700   -16.0589000  126.2519000   -13.5287200   78.8751400    -1.8791640 -177.8380000
 		      -2.1009970 -178.2842000   -13.9440900   78.7330200   -15.7998700   61.3322800   -11.2319800   90.9231500
 		     -13.0975400   70.6788800    -2.0867140 -177.7637000   -11.1692900   91.0365100   -15.0147500   72.0036200
   62161120000   -16.4130100   95.4710800   -10.9028600   88.8312800    -2.0227340 -178.2488000   -13.7373500   70.8516100 
 		     -11.0260700   90.1309000   -15.4240300   82.9908700   -13.9832500   79.2165100    -1.7668800 -178.3318000
 		      -1.9500400 -178.8884000   -14.9104100   76.8753700   -15.5378000   66.2104000   -11.2466500   91.7682600
 		     -13.6343300   69.7010700    -1.7250650 -177.0902000   -11.3801000   92.8852200   -15.1293400   54.3406500
   62231110000   -15.7654400   97.2222500    -9.9808220   86.9036700    -2.0305210 -178.3775000   -13.4724000   71.4513500 
 		     -10.8478900   86.9044600   -16.5223700   89.3097800   -13.4393500   77.9471500    -2.0076460 -179.0668000
 		      -1.9835910 -178.0495000   -13.9228900   76.1630600   -15.8867300   59.9180600   -11.0569300   94.1606400
 		     -13.3070300   69.9062700    -2.0445390 -178.0418000   -11.1987100   93.6349500   -16.7571100   57.4469200
   62301100000   -16.6297300   94.1569400   -10.8848900   82.7882100    -2.1113130 -178.9901000   -13.4141900   72.0181400 
 		     -10.7702200   86.3157700   -15.9435600   93.5567000   -13.3855500   76.4626700    -2.0487890 -179.4800000
 		      -2.0716140 -178.2304000   -13.1705200   78.0634300   -15.9804600   61.3963500   -11.2819900   93.1654600
 		     -13.8724000   69.6304200    -2.0309800 -179.3773000   -11.2206500   91.7611700   -15.6859400   59.5990200
   62371090000   -16.1388300   92.6096700   -10.5576200   87.6432600    -2.0448580 -179.0156000   -13.3853600   71.3493100 
 		     -10.7941800   85.0131800   -14.7596100   87.7101700   -13.9055700   73.9984400    -1.8889260 -178.4414000
 		      -2.0395380 -179.2109000   -14.1238400   74.9246000   -15.8160200   61.8722200   -11.1250200   92.5015900
 		     -13.5326400   71.3897600    -2.2410240 -177.0891000   -11.0964900   92.5265000   -16.5619300   61.4206400
   62441080000   -16.7658800  104.2612000   -11.7807000   87.8883100    -2.0586560 -179.1125000   -12.9452600   70.9676400 
 		     -10.8576500   89.3553100   -16.0020600  103.3711000   -13.5219700   75.1990500    -1.9749050 -179.6724000
 		      -2.1617000 -179.3444000   -14.2640300   76.2256000   -15.5703200   60.3738800   -11.1021400   91.2382700
 		     -13.1805800   69.0237000    -2.0981190  179.0186000   -11.2501700   91.2777200   -15.6249700   61.2281800
   62511070000   -16.0963400   92.8778200   -10.4658900   86.6375300    -2.1016430 -179.5536000   -13.4489700   69.9321400 
 		     -10.7779100   87.5024300   -18.3928800   98.0297500   -13.5057000   76.0695600    -1.9099450  179.4315000
 		      -2.0784660 -179.0102000   -14.1957300   71.9479400   -15.6332100   58.1597900   -11.1853100   92.0525100
 		     -13.5969400   70.3438600    -1.9841440  179.5880000   -11.2582900   92.0662100   -15.9640700   59.4902200
   62581060000   -15.5005600   91.5226300   -10.7049500   87.7596600    -2.0073170 -179.7116000   -13.4613600   71.3078500 
 		     -10.9345300   85.6894800   -16.0861600   80.7927000   -13.7995000   74.7766700    -1.9013930 -179.7626000
 		      -1.9715350 -179.4648000   -13.6313900   71.7057600   -16.0365400   57.2114300   -11.0341400   92.8409800
 		     -13.6667900   71.3997100    -1.9087670 -178.9173000   -11.1011800   92.8522900   -16.4784700   60.8259700
   62651050000   -16.8052300   94.0034400   -10.2858700   84.3003000    -2.0576350 -179.7371000   -13.3533800   69.3241200 
 		     -11.3602000   85.1341300   -17.1995300   85.7698500   -13.4978700   75.6739100    -1.9415770  179.6786000
 		      -2.1297600  179.8369000   -13.4601000   71.7874100   -16.0395900   61.1492000   -11.2154400   91.8177500
 		     -13.2915900   70.6631100    -1.9752020 -179.6572000   -11.2275800   91.9071000   -15.2886200   60.0375600
   62721040000   -16.3974500  101.2431000   -10.8224300   84.3692900    -2.0734310 -179.9512000   -13.4246400   70.1135900 
 		     -10.6699100   86.6646700   -15.5605600   98.8681600   -13.1822000   77.3515500    -2.0575490  179.2350000
 		      -2.1707800  179.9769000   -13.2896700   73.6718100   -15.6740900   59.3485900   -11.4404100   92.0392800
 		     -13.7694400   68.7346600    -1.8634530  179.9710000   -11.3645100   91.4883200   -15.5914100   52.4523000
   62791030000   -16.1158700   95.7485300   -10.9293200   85.8207000    -2.0757450  179.9469000   -13.3268300   68.3198500 
 		     -11.0746000   86.1839400   -19.2704200   92.8317700   -13.5635400   76.3287000    -1.9818570  179.0778000
 		      -2.0173200  179.3981000   -13.9877300   72.4591400   -15.8559600   60.0026700   -11.1654200   90.6149700
 		     -13.2468900   66.2488100    -1.9726320 -179.4128000   -11.2825000   90.5936700   -15.7771900   60.5068100
   62861020000   -17.3642200   94.5389000   -10.8134300   81.3680500    -2.0450790  179.8334000   -13.1844300   71.8942700 
 		     -10.5170300   84.7097400   -14.8335700   67.7021300   -13.2665600   73.9682000    -1.9531530  179.3383000
 		      -1.9956710 -179.7236000   -13.6825900   77.1734500   -15.7583000   63.4697800   -11.0154200   92.2783700
 		     -13.1399900   69.0041300    -1.8455670  179.8841000   -11.1198200   92.3761300   -16.3106200   58.8877000
   62931010000   -15.8372700   97.5040300   -12.0190100   85.5360900    -2.0844700  179.9652000   -13.4083800   69.4415300 
 		     -10.8853300   85.1050300   -15.2625100   90.0841400   -13.5301500   74.9203000    -2.0049600  178.4292000
 		      -2.0576570  179.9099000   -13.3462300   81.2522000   -15.7870100   56.8880900   -11.2678500   92.6487300
 		     -13.4482900   71.5675000    -1.8488530  179.3146000   -11.2137600   92.0100500   -16.2614300   54.1401500
   63001000000   -16.4169600   92.5995200   -10.6891800   89.5783800    -2.0101810  179.6534000   -13.0824600   67.8753700 
 		     -11.1683200   87.6263400   -15.1032900   95.0915900   -13.8336600   72.1039500    -2.0042910  178.7932000
 		      -2.0230810  179.3159000   -13.6800000   71.2136200   -16.1526800   57.8292700   -11.2634000   90.0856300
 		     -13.2130200   69.7851500    -1.9998580  179.6834000   -11.3153200   90.5068600   -15.4636600   68.5238500
   63070990000   -15.8977600  100.1303000   -11.1198500   88.5785800    -2.0433790  178.8902000   -13.0543600   67.0508200 
 		     -10.7536900   84.4427600   -14.9448100   88.3175700   -13.7674000   74.7201500    -2.1208770  178.7916000
 		      -1.9748040  179.1277000   -12.7903700   74.6074400   -15.0727400   59.7597600   -11.3586800   91.3710500
 		     -13.3476600   67.2882400    -2.1498940  177.5983000   -11.2874600   91.6066600   -15.4280900   59.5274500
   63140980000   -15.0246900   93.8019200   -10.8837300   84.8940800    -2.0769520  179.0206000   -13.4787600   67.2336000 
 		     -10.6537400   86.9328700   -15.7726600   89.0628100   -13.4720600   76.7114400    -2.0427070  178.0490000
 		      -2.0318420  179.8553000   -13.5555100   72.5689500   -16.1182000   54.3283700   -11.2535000   90.9604900
 		     -13.7425400   66.5290800    -1.9088150  176.1182000   -11.3669800   91.1140700   -15.8507500   57.7922800
   63210970000   -16.6873800   93.2220200   -10.7634400   89.7410000    -1.9522800  178.9576000   -13.2030700   66.0328100 
 		     -10.3934500   87.7209900   -14.7173000  110.7308000   -13.7628900   77.4159500    -2.1901680  178.1625000
 		      -1.9387040  179.2800000   -13.5117500   73.1233400   -16.0201700   57.8599700   -11.3144900   90.6586400
 		     -13.3746100   64.9348100    -2.0872460  177.6876000   -11.3097200   91.2453100   -14.5364800   62.9333800
   63280960000   -16.8474700   99.9869300   -11.3494100   84.0081300    -2.0760330  178.3651000   -13.3118200   70.1314400 
 		     -10.8027400   83.4023300   -14.9093200   79.1580300   -13.7187700   72.6685900    -1.9899000  178.5245000
 		      -2.0114120  178.5121000   -13.4582900   76.1801500   -15.1244300   59.0009700   -11.2061400   92.3218800
 		     -13.7433700   73.2466700    -1.7813500 -179.9112000   -11.0133300   92.4763800   -16.3534000   53.5290500
   63350950000   -15.1361600   94.0293300   -10.8252300   90.3243300    -2.0141330  178.7488000   -13.4916400   65.9286300 
 		     -10.7905000   87.6941900   -16.2512800  107.5572000   -13.5111800   76.5605900    -1.9426010  177.0896000
 		      -2.1107200  178.4738000   -13.3451300   79.4182400   -15.6759700   53.3739100   -11.5449400   90.2819600
 		     -13.4693700   68.5420300    -1.9190580  175.8741000   -11.5063800   90.7143400   -15.4510500   56.0737100
   63420940000   -17.0618000   87.4360100   -10.3676900   79.1511600    -1.9876520  178.2742000   -13.7021400   68.9901500 
 		     -10.8435600   81.6641000   -13.7516700   91.6542100   -13.3435800   72.8878600    -1.9862440  176.8224000
 		      -1.9470820  178.3809000   -13.2668500   69.3912000   -16.3299700   55.1977400   -11.3445400   91.8561400
 		     -13.6981300   68.9364800    -2.2148640  177.0407000   -11.5382200   92.7512700   -15.1318800   55.7660900
   63490930000   -16.0467000  106.4651000   -10.2766400   86.2122100    -1.9675760  177.8057000   -13.6624200   63.9769800 
 		     -10.9501400   84.2111300   -15.2422800   96.6825900   -13.4341500   73.1041200    -1.9142110  176.6961000
 		      -2.0113580  177.9445000   -13.3746500   74.8312800   -15.1344200   58.0318500   -11.7804900   89.2242000
 		     -13.4344100   63.1551400    -1.7593510  177.3237000   -11.5571400   88.8501400   -14.1495800   51.3937800
   63560920000   -15.6988500   94.8021700    -9.8417490   84.5464900    -2.0629960  178.1935000   -13.1878900   66.9840500 
 		     -10.6575000   81.0689500   -16.4376300   92.3701700   -12.7755500   73.8530200    -2.1141600  177.5122000
 		      -2.1411120  179.3732000   -12.9574400   72.2529300   -15.4044100   53.9051900   -11.3977100   90.8298000
 		     -13.2049600   67.1168600    -2.2838200  176.4287000   -11.3735800   89.2871900   -16.2826100   57.9478300
   63630910000   -16.4274100   89.8589100   -10.5523400   87.2214000    -2.0367390  177.5070000   -13.5502500   70.5674200 
 		     -11.0102900   80.0900000   -14.3209700   95.3246000   -13.1883300   72.8837200    -2.0883800  178.1602000
 		      -1.8925200  178.0077000   -12.7935200   71.8246200   -15.7244300   58.0747700   -11.0632400   92.5786400
 		     -13.4835000   72.2689400    -2.0376790  179.7614000   -11.3318100   92.5990200   -16.3763500   51.2074200
   63700900000   -15.9844700   94.9235300   -10.6759200   84.8505600    -2.0125660  177.3562000   -13.4518600   66.6684000 
 		     -10.7969700   84.9490400   -18.6187000   92.9432800   -13.0846600   74.6198000    -2.0927940  176.8471000
 		      -2.0841040  177.3734000   -13.7517800   73.0804200   -15.0456300   56.3271800   -11.3489800   89.6420000
 		     -13.9046500   69.3021200    -2.3411550  176.5816000   -11.3499800   88.2707900   -15.7738800   50.2804700
   63770890000   -15.0436200   88.9431000   -10.9587600   84.6080800    -2.0439040  177.1961000   -13.1518800   67.2907600 
 		     -10.7860700   82.4460300   -15.9059100   83.1897400   -13.5344300   73.7865100    -1.9493380  176.6584000
 		      -1.9987900  176.1282000   -13.4705300   76.9892000   -15.4899000   51.4318500   -11.3869100   90.6176000
 		     -13.5513600   68.7201500    -1.9148020  177.0415000   -11.3959900   90.9450200   -16.7865000   60.4276500
   63840880000   -18.4599200   92.4383900   -10.5550800   81.7338500    -2.0374780  176.8275000   -13.2898000   68.9569700 
 		     -10.6590600   82.7862200   -17.8942600   86.7132000   -13.1554600   70.9784200    -2.0313500  176.9741000
 		      -2.0503490  176.4588000   -13.1207500   71.1984100   -15.5141100   54.8482200   -11.3032000   90.6694800
 		     -13.2634800   70.9437000    -1.8650270  175.7792000   -11.3275900   89.8669200   -16.2709900   55.0360100
   63910870000   -17.0201000   98.9573100   -11.0773800   86.8703200    -2.0179660  176.2731000   -13.5516400   67.7568700 
 		     -10.5916400   84.0658800   -16.9397100   88.0853900   -13.0992500   72.9778100    -1.9739350  176.5986000
 		      -2.0879760  176.7484000   -13.5486200   73.5398400   -15.2952200   60.5216700   -11.3345100   89.3901700
 		     -13.6452500   68.6045000    -2.0197940  175.3443000   -11.3596700   89.9482000   -16.8436800   43.6456800
   63980860000   -15.7815800   88.7692600   -10.9398900   84.1833000    -2.0231320  176.7637000   -13.1443400   66.1814700 
 		     -10.7231200   85.1036500   -16.4396300   87.4810300   -13.4210400   72.5485200    -2.0088420  176.3900000
 		      -2.0939510  177.9078000   -13.4743300   75.7526100   -15.8097300   54.9696300   -11.3023300   90.0400500
 		     -13.0794000   67.6463900    -1.8557970  178.1323000   -11.3226000   89.8452500   -15.4108000   59.1158300
   64050850000   -16.8199600   96.3445800   -11.1753400   85.7745900    -2.0521220  176.6265000   -13.1356600   65.4960100 
 		     -10.6637400   83.4810000   -17.9807800   95.5181700   -13.4660700   71.9992100    -1.9582370  175.3989000
 		      -2.0435360  176.8674000   -13.8830100   70.4969600   -16.1681800   51.4507300   -11.2038700   90.0646700
 		     -13.3828400   66.4353700    -1.9342750  175.0691000   -11.3467700   89.6369900   -15.5363000   53.0104900
   64120840000   -15.8278900   93.8963700   -10.3284200   85.6883500    -1.9938530  176.7815000   -13.1095000   67.0216100 
 		     -10.5312900   82.0960600   -16.2814200   95.9107600   -12.9553800   72.1587100    -2.0496460  176.3102000
 		      -2.0688550  177.1245000   -12.8070900   73.9660900   -15.9555500   59.7036200   -11.3103000   89.2835500
 		     -13.1817900   65.9688000    -2.1837590  177.2964000   -11.2241200   89.8192400   -17.1080100   55.0383900
   64190830000   -17.3263900   86.4687100   -10.5699700   83.4444500    -2.0492560  175.9469000   -13.4366400   66.5752600 
 		     -10.9940200   83.9212500   -16.0946800   96.5334900   -13.5240200   73.1581000    -2.0006260  176.2380000
 		      -2.0195670  175.6062000   -13.7297000   71.5906800   -15.2359200   53.2768200   -11.4046900   89.6671800
 		     -13.3529200   70.4554700    -2.0334210  175.9795000   -11.4603700   88.9235800   -15.2028500   53.8701500
   64260820000   -17.0178700  103.2940000   -10.5853700   82.3262100    -2.1504260  175.6922000   -13.3750600   66.5071000 
 		     -10.6433200   82.1718000   -16.9241300   97.3760400   -13.2424300   72.6268700    -1.9742580  174.9478000
 		      -2.2069610  175.8513000   -13.4776900   74.9953600   -16.2117000   51.0230100   -11.7033000   90.1745500
 		     -13.1500600   65.6437900    -1.9778480  176.7207000   -11.6892600   88.9255500   -15.6126100   44.4243600
   64330810000   -15.6339200   93.0869200   -10.9130400   82.4783700    -2.1074750  175.9656000   -12.9152000   65.4443600 
 		     -11.0841500   86.2748300   -16.2494500   86.5657000   -13.4540200   69.9096100    -1.9974870  175.9935000
 		      -1.9997900  175.0478000   -13.0506700   65.7965500   -15.7211800   58.0373200   -11.2244000   87.6387600
 		     -12.6890700   64.8120300    -2.0285020  176.2348000   -11.1337600   88.5264600   -16.3659600   61.9132200
   64400800000   -15.7813000   93.7079800   -11.4306200   80.9257600    -2.0939250  175.4475000   -13.1971200   65.3007000 
 		     -10.8920900   82.7204100   -16.9578300   76.8564100   -13.7339100   70.0801900    -1.9422360  174.7387000
 		      -2.1686540  175.6324000   -14.6343000   77.4167300   -15.7700700   50.2843300   -11.5622700   89.5417400
 		     -13.4140200   63.2559600    -1.8578300  174.8137000   -11.4254900   89.3729300   -15.3563800   56.8855000
   64470790000   -15.6239500   97.1248200   -11.2125100   87.7318300    -2.1155690  175.1163000   -13.1834700   64.1783500 
 		     -11.0369400   81.3034500   -14.6445800   80.8815800   -13.4166400   72.4357900    -2.0230550  174.6913000
 		      -1.9108760  175.8737000   -13.0933300   69.2461800   -16.7167600   46.6609700   -11.3218200   89.7490400
 		     -13.0169400   64.9669800    -2.0945400  174.3186000   -11.4078400   90.2525100   -16.2314100   52.7616700
   64540780000   -15.5767700   91.0093000   -10.3116000   79.8073300    -2.0201610  174.9784000   -13.1536700   65.8034800 
 		     -11.0069000   82.2369800   -15.3476600   84.4755700   -13.3914100   69.0636200    -2.1184660  174.6959000
 		      -2.0226850  174.2027000   -13.3655600   71.9762300   -15.7175700   52.9696000   -11.3022900   88.1311900
 		     -12.8621900   66.7968300    -2.2569240  174.9740000   -11.4039500   89.1250500   -16.4918100   58.6862200
   64610770000   -16.8632700   93.6636000   -10.6134900   80.5817900    -2.0312130  174.7631000   -12.9327200   62.7156500 
 		     -10.8103600   80.6009400   -17.6990700   78.4416300   -13.6577200   73.2354200    -2.0920060  174.7484000
 		      -2.0786800  174.7477000   -13.5559000   71.0170800   -15.7598200   53.7967400   -11.3938900   88.3348700
 		     -12.9286800   64.8949700    -1.8219920  174.7105000   -11.3508000   87.9423500   -15.3090800   54.0856900
   64680760000   -16.1629100   98.3110700   -10.9752900   85.0356900    -2.0343180  174.6014000   -13.2439100   64.1378200 
 		     -10.8522300   83.1664700   -15.4715500   97.4282800   -13.2705300   71.0172700    -2.0752610  173.7095000
 		      -2.0525540  175.2920000   -13.3162800   72.1390400   -16.1846700   52.8625100   -11.5177700   88.8904900
 		     -13.1583400   65.5289900    -1.9717080  174.1666000   -11.4288800   88.0882200   -16.3196700   46.3074200
   64750750000   -15.6822900   89.7738600   -10.6593700   80.2325400    -2.0024210  174.7044000   -13.1786300   62.0214500 
 		     -10.9630000   83.0028800   -14.9351600   97.1801500   -13.3742900   73.1169800    -2.1049330  173.4646000
 		      -2.1125210  174.3630000   -13.7233700   72.3390100   -16.2108400   56.1747100   -11.7343100   87.6299300
 		     -12.9908800   62.3704900    -2.2712890  174.5074000   -11.6870500   86.5265200   -14.9530700   56.2465600
   64820740000   -17.5398300   92.0654000   -10.8694000   84.2818600    -2.0319660  174.0040000   -13.2821800   60.8698000 
 		     -10.9428000   82.2637900   -17.6486000  103.5461000   -13.4330800   72.1745600    -2.0697400  173.4011000
 		      -2.0089800  174.2315000   -13.2418600   73.4743500   -15.3999800   51.8954500   -11.4943100   87.2823000
 		     -12.9441700   59.1666500    -2.0748090  172.1343000   -11.5014400   86.4815600   -15.1856600   51.2486700
   64890730000   -16.3440200   93.6833900   -11.3539600   78.2633000    -2.0102430  174.4433000   -13.0330100   62.1471600 
 		     -11.2926300   78.2057700   -15.3993900  105.8329000   -13.5652900   69.7304800    -2.2207790  173.5057000
 		      -2.1386270  174.3829000   -14.1817600   71.5125100   -16.6934600   52.6650500   -11.4352700   85.6536000
 		     -12.8950900   62.5320100    -2.2557660  172.8681000   -11.3858500   86.3510100   -15.7869100   56.6210400
   64960720000   -16.4108900   83.6761900   -10.5980400   79.9358100    -2.0025100  173.9404000   -13.3030600   63.1989800 
 		     -10.6657800   82.4990400   -15.5826800   97.6101200   -13.3431600   69.9334800    -2.0351110  174.1568000
 		      -2.0881250  174.7390000   -13.9355300   69.7033500   -16.5080000   57.3220400   -11.3240100   88.2154200
 		     -13.2957500   63.1686800    -1.9974630  174.4861000   -11.4780000   86.9383200   -15.8015700   56.1402000
   65030710000   -17.0677900   88.9253700   -11.4494000   81.0529600    -2.0242390  173.8535000   -13.3725100   59.3742900 
 		     -10.8060500   79.2234700   -15.8377500   99.2633700   -13.5103000   71.2821700    -2.0921990  172.5954000
 		      -2.0590850  173.5435000   -13.7822100   68.7263100   -15.5110500   49.2039200   -11.7595900   86.2463600
 		     -13.9568300   58.7364300    -2.1962130  172.8925000   -11.7424200   85.1762100   -14.4105900   52.0683500
   65100700000   -15.7740500   86.5949400   -11.1935400   82.2090300    -1.9705360  173.5723000   -13.3393200   63.6466800 
 		     -11.3453800   82.1534700   -18.4244400   89.0296300   -13.3967700   68.4916400    -2.1843700  172.5495000
 		      -1.9010070  174.5621000   -13.9299700   69.7043600   -16.3424500   53.0812400   -11.2482500   86.8823300
 		     -13.3305700   62.5070800    -2.1801760  173.3811000   -11.4430000   86.5295400   -16.8793700   49.2060300
   65170690000   -16.3626100   87.0375400   -11.0694800   79.8658400    -2.0613310  173.6101000   -12.9668300   63.3577300 
 		     -11.2768600   78.7103200   -16.5436700   80.8011600   -13.3345700   69.8187000    -2.1124030  172.8388000
 		      -2.1118630  173.6608000   -14.0376200   69.1061900   -15.8997500   53.6716400   -11.2946800   87.9558500
 		     -13.0124600   63.3467100    -2.1743220  172.1737000   -11.4646900   87.5563200   -17.3204600   63.4473200
   65240680000   -16.6511600   93.3503900   -11.2408000   77.6130700    -2.0159270  173.6565000   -13.2105700   61.5345000 
 		     -11.6717400   79.8836000   -14.6975500   98.2860800   -13.2104300   68.0243900    -2.1774040  173.2556000
 		      -1.9775250  174.2375000   -13.6765700   65.1458000   -15.5507700   52.3155500   -11.6215400   85.8597000
 		     -13.3921200   59.9138600    -2.2445220  174.9727000   -11.7619500   84.9191700   -15.2443400   52.3495800
   65310670000   -15.7311600   85.0957600   -11.1837000   82.1404300    -2.0046380  173.4225000   -12.8104800   63.7377400 
 		     -11.1477600   77.9534100   -18.5709700   79.0934300   -13.4538100   67.6108600    -2.0895570  172.5975000
 		      -2.0072590  174.3393000   -14.1456500   72.5346300   -16.7634500   52.2010800   -11.3010700   86.2120100
 		     -13.0467500   64.2333300    -1.9206210  172.5114000   -11.3027900   86.0342300   -16.8787100   56.2707600
   65380660000   -16.5082100   92.4020900   -10.9742100   84.0801900    -2.0667220  172.7121000   -13.0229100   62.0038000 
 		     -10.9926000   80.0174100   -16.0218500  112.9201000   -13.6035100   70.5751500    -2.0735860  172.6178000
 		      -2.0949720  172.0771000   -13.7472500   65.4604000   -15.6030500   56.8295200   -11.6297500   86.4088300
 		     -13.1958600   63.7442500    -2.1756030  172.6231000   -11.7018200   86.4122400   -16.1617900   52.9758500
   65450650000   -16.5806400   95.4219500   -11.3131500   83.2560700    -2.0792090  172.4131000   -13.4815500   61.0746700 
 		     -10.9609600   81.6976300   -17.7185500   90.4775900   -13.3108400   68.9920700    -2.0251460  171.4204000
 		      -1.9354330  172.5409000   -13.0751100   69.3522700   -15.9019400   49.7640500   -11.7719900   87.4919100
 		     -13.6304600   62.6888200    -2.1660850  171.1649000   -11.7681000   87.0111600   -16.1536200   45.2139400
   65520640000   -16.4475200   92.2548600   -11.0758800   81.2653000    -2.0020860  172.2548000   -13.4331400   61.1677300 
 		     -11.2392700   81.5353900   -14.9696100   91.3475600   -13.0671100   68.1266200    -2.1069140  171.0105000
 		      -1.9714350  173.0282000   -12.9311000   69.4124100   -16.6292200   52.4677000   -11.8461100   87.6158400
 		     -13.3893300   63.9385900    -2.1730950  171.1400000   -11.9008000   86.9223400   -15.8773700   42.8860400
   65590630000   -16.4768600   86.2843200   -11.3454500   79.1246600    -2.1120450  172.8858000   -12.7969700   60.5596900 
 		     -11.4756600   76.0894500   -17.5202300   76.6271100   -13.4769000   66.1035800    -2.0045710  172.4632000
 		      -2.1807060  172.7100000   -13.0129100   64.9710200   -15.4973700   53.2620900   -11.7653000   85.2046300
 		     -12.6381200   61.4145900    -2.1511340  171.9328000   -11.7254800   85.9500800   -16.2556000   61.2673800
   65660620000   -17.1088800   92.1896500   -11.2487900   79.3525000    -2.0450310  172.1386000   -12.9958000   60.0865900 
 		     -11.1272100   82.0955600   -18.1186100   78.9406100   -13.5660600   69.3222100    -2.0064850  171.5967000
 		      -2.0193050  172.8706000   -13.8605300   68.4234100   -16.1796200   50.0439700   -11.6113500   84.8476000
 		     -13.2133900   57.9061900    -1.7247640  171.4387000   -11.6406800   84.7587300   -15.0786900   50.2983700
   65730610000   -15.6851400   84.7767600   -11.4825800   82.5960600    -2.0307800  171.6198000   -13.2653300   59.4303900 
 		     -10.9182600   81.2895000   -18.1678900   99.2613600   -13.4257400   70.2482500    -2.1128860  170.5213000
 		      -1.9263910  172.8098000   -13.2099400   72.8991900   -15.8825200   51.8261700   -11.7816100   86.6232100
 		     -13.1864000   58.9595200    -2.0230460  170.5506000   -11.5894600   85.1210200   -15.9658100   45.5029300
   65800600000   -16.5338900   88.1521500   -11.5712400   77.8075600    -2.0391610  171.2881000   -13.0424000   61.0797500 
 		     -11.5184200   78.9425900   -17.1606400   81.7102300   -13.6604100   68.5157900    -2.1914510  170.9083000
 		      -2.0878560  171.4009000   -13.3171500   63.1553700   -15.3432200   51.2068800   -11.8087200   86.5262800
 		     -13.0407700   60.2692800    -2.2605270  172.2942000   -11.8274200   86.6208900   -16.6086900   54.5216900
   65870590000   -16.9645500   96.3709900   -10.6751100   84.5213500    -1.9872510  171.5822000   -13.6860200   57.9622500 
 		     -11.4771300   78.3006600   -15.6596800   88.5146400   -12.9752300   66.4787600    -2.0595300  170.4311000
 		      -2.0032090  170.7513000   -13.7639100   66.2729100   -15.5329200   49.5671500   -12.1598100   84.4316300
 		     -13.5347800   59.0742100    -1.9597500  170.6840000   -12.2411900   84.7491300   -14.9311100   45.7481000
   65940580000   -15.7768300   94.3710700   -11.3384900   83.0573400    -2.0855040  171.9184000   -13.3246800   57.3765800 
 		     -11.0896300   82.4128900   -16.5422300  112.2233000   -13.2687700   69.5998100    -2.1781690  169.6033000
 		      -2.0530270  171.3631000   -12.5787000   72.1498400   -16.0603600   49.5905600   -12.1376700   84.6899000
 		     -13.4373000   57.3648600    -1.9463520  169.4880000   -12.1087800   85.0276500   -14.8651000   50.5247700
   66010570000   -17.1808000   94.1412700   -12.2205500   78.3078600    -2.0493680  170.9365000   -13.3928500   59.5715700 
 		     -11.3128100   78.6467900   -16.8111600   75.7819000   -13.0852700   64.3541500    -2.3081000  169.9352000
 		      -2.0421430  171.4918000   -13.0615700   70.0272400   -15.6007900   48.4975000   -11.9906400   87.2381600
 		     -13.6559500   61.5763700    -2.4352230  169.5037000   -11.8159200   86.6740600   -16.1570200   50.1251500
   66080560000   -16.3908900   92.8758700   -11.1865500   83.9528900    -2.0801380  171.6507000   -13.0749300   60.6237900 
 		     -11.3575600   78.8049000   -18.8280500   85.1248900   -13.3837400   66.3629300    -1.9880650  171.1803000
 		      -1.9924170  171.5468000   -13.3960600   63.9648500   -15.9910200   49.2145700   -11.6185600   85.2460900
 		     -13.0336700   59.6652600    -2.0077780  169.6944000   -11.5179900   85.3950800   -15.2893800   57.0347900
   66150550000   -15.5431200   93.3738700   -11.0017600   81.7469900    -1.9939530  171.1111000   -13.0417100   58.8908100 
 		     -11.2951700   79.0360000   -14.4188100   75.4337300   -13.3074000   66.7321000    -2.1989100  170.6788000
 		      -2.0938350  172.5876000   -13.2739500   63.9100900   -15.7630600   49.0271500   -11.7883000   85.2825300
 		     -12.8690500   59.4126400    -2.0764460  171.4850000   -11.7654300   85.0137800   -15.3794100   53.2785900
   66220540000   -16.4484700   91.0879400   -11.5898500   76.2957600    -2.0063600  170.1253000   -12.9109500   61.5560900 
 		     -10.9816400   81.9721800   -15.3469300   65.3070600   -13.6217600   66.2541600    -2.1377470  170.4903000
 		      -2.0510950  169.6648000   -13.8401200   66.6036500   -15.5697100   46.1014100   -11.7844000   87.3555500
 		     -13.3349700   62.8031800    -2.0792860  169.1888000   -11.6289200   87.3852700   -17.1008500   54.3639000
   66290530000   -16.5007900   95.1803100   -11.3219500   77.8800000    -2.1086430  170.0347000   -13.2970800   59.1228300 
 		     -11.2777900   79.1770300   -18.0817000   94.3061000   -12.9456600   67.5282200    -2.1818000  169.4417000
 		      -2.1000430  170.1219000   -13.3194800   70.7473100   -15.8555200   51.9899200   -12.1717500   85.8422900
 		     -13.4950700   58.5309000    -2.1444480  167.5042000   -11.8592200   84.0302000   -15.5018500   49.5503000
   66360520000   -16.7004200   83.1709500   -11.1813900   77.7733300    -2.0795300  171.0893000   -12.7352400   61.9497900 
 		     -11.3470700   76.9659100   -17.4765500   62.8109800   -13.2808300   66.5897100    -2.1726800  170.3365000
 		      -2.0200090  171.2312000   -13.4360300   63.0826700   -15.9381000   45.8255900   -11.3602000   85.9502400
 		     -13.0051700   61.7501700    -1.7870070  171.7732000   -11.5941800   86.4040300   -17.7171800   56.9002400
   66430510000   -15.8919100   85.7550200   -11.3664800   74.3978200    -2.0393530  169.9457000   -13.3380300   61.6633500 
 		     -11.3634900   76.5803800   -18.6049300   88.9307600   -13.0422200   66.3250700    -2.2452290  169.8925000
 		      -1.9626610  171.5856000   -13.9026700   68.6056800   -15.7170600   47.5346100   -12.1420700   88.4093800
 		     -13.1400300   62.4330700    -2.0890200  169.0603000   -12.0541200   88.4523000   -16.3048000   40.8978000
   66500500000   -15.7753500   99.5977900   -10.9144500   78.5617800    -2.2168430  169.6134000   -12.8924000   63.3138800 
 		     -10.8144800   80.2025000   -17.5834700   97.0968600   -13.0537700   68.2710200    -2.3893540  170.6084000
 		      -2.1628200  170.3733000   -12.6770400   70.9152100   -15.5715200   50.7365500   -11.8335400   86.3650300
 		     -13.0209900   60.5912400    -2.5366970  168.9004000   -11.6970300   86.4069900   -16.3721200   51.5669300
   66570490000   -16.2634400   80.9295300   -11.6678900   76.2586600    -2.1040850  169.3348000   -13.3150400   59.7374200 
 		     -11.2557600   80.4196100   -15.3822200   82.5712500   -13.1920800   69.1362400    -2.2493120  169.0040000
 		      -2.1205550  169.3178000   -13.6952900   72.6738500   -15.8035200   47.3902600   -12.1285300   85.4971200
 		     -13.7530500   58.9125100    -2.2038150  167.7880000   -11.9735600   85.6094300   -16.2847500   41.6897000
   66640480000   -16.7685000   89.5548600   -11.6713000   76.3456200    -2.1411690  169.2203000   -12.8428700   60.1015200 
 		     -11.2262100   78.7998400   -15.1098000  103.7985000   -13.0678100   66.8602300    -2.0426640  170.6893000
 		      -2.1441820  169.4398000   -13.1451300   65.7603100   -15.7318400   42.7593200   -11.6364400   86.8410400
 		     -13.2061900   59.6361100    -2.1534610  170.1906000   -11.7896500   84.2687200   -16.6352500   54.8648900
   66710470000   -16.4734200   94.5828100   -12.5617300   80.8040400    -2.0240190  169.4377000   -13.2552400   59.6927400 
 		     -11.8511700   78.3866900   -14.5436400   81.8682800   -13.4917400   64.8641400    -2.0573120  167.7841000
 		      -2.0385080  168.8788000   -13.9855300   66.7785800   -15.3510500   48.2796200   -12.1623900   86.1121100
 		     -13.9707200   61.2090800    -2.0894360  168.0107000   -12.0353300   87.3154600   -16.7394800   40.2421800
   66780460000   -16.7618800   89.0809400   -11.2054200   82.1747900    -1.9567270  169.2985000   -13.1751700   61.7622800 
 		     -11.8678700   76.5999200   -13.4152200   84.3573900   -13.0530700   65.3043700    -2.0924020  169.7831000
 		      -2.0342070  169.7343000   -13.7371000   59.2220100   -15.8484300   45.2268500   -11.5300200   86.4596600
 		     -13.2186400   60.0501400    -2.1243130  169.8365000   -11.6620900   86.3348500   -18.1042100   42.5034800
   66850450000   -17.0818600   94.3594700   -11.8753200   78.1846700    -2.0232450  168.9793000   -13.2747100   58.0505300 
 		     -11.7285800   81.4927800   -16.2558600   87.7288300   -13.2322300   63.9790300    -2.0418530  167.8719000
 		      -2.0113030  169.3869000   -13.2210100   65.6304900   -15.5629400   49.1549900   -12.1817500   84.5693000
 		     -13.3970400   55.6726300    -2.0623780  168.9794000   -12.0408400   84.7771900   -14.8427600   45.8497600
   66920440000   -14.8442200   96.3206300   -11.4223000   74.9215500    -2.1396650  168.5191000   -13.1394200   59.2188600 
 		     -10.5200900   79.1928300   -15.2952800   83.4051900   -13.0691300   63.3313500    -2.0806330  169.3340000
 		      -2.0754990  169.3829000   -12.8740000   61.1193800   -15.7898800   45.2464400   -12.0025500   85.6847500
 		     -13.5441300   57.3614300    -2.2179660  167.4915000   -12.1123700   85.7555500   -16.6029800   39.3336900
   66990430000   -17.1880800   98.1937600   -11.7845400   77.1052200    -2.0246410  169.1277000   -12.9783600   56.7389000 
 		     -11.0614100   78.9696100   -15.0028200   77.0597300   -13.2580400   65.2965100    -2.0649160  169.2951000
 		      -2.1454830  168.3540000   -12.7989700   59.8594300   -16.8485500   46.5467800   -12.2929200   83.2439200
 		     -13.4329000   55.9163000    -2.1925630  169.6630000   -12.1699900   83.9814200   -14.7549700   50.1486200
   67060420000   -16.8110200   92.9191400   -11.5365400   73.6070400    -2.1729440  168.5247000   -12.7276100   58.4709400 
 		     -10.7609500   77.7566500   -16.3038600   98.1310300   -13.2924500   66.3102700    -1.9916300  168.1822000
 		      -2.0567510  168.9402000   -14.2451900   74.1793600   -15.1774500   35.5130400   -12.1607500   84.9964400
 		     -12.7014000   61.1080000    -2.1551710  166.9415000   -12.0883200   84.8193100   -15.1779300   49.8336100
   67130410000   -15.5724300   82.5995000   -11.7435800   70.8222300    -2.2344490  168.5171000   -12.4060400   59.7222900 
 		     -11.6460400   75.1764100   -14.4187700   67.6711900   -12.9618800   63.3751000    -1.8470780  168.0585000
 		      -2.2600360  169.6314000   -15.0955700   63.8693100   -16.6442400   46.1603900   -11.8521000   83.1604700
 		     -12.2072400   58.7788500    -1.9764670  166.7093000   -11.7831800   85.5568200   -18.5796400   55.2924700
   67200400000   -17.1236300   88.9231600   -11.3436000   79.8841900    -2.0738710  168.3149000   -12.5736900   56.1040400 
 		     -12.0966900   75.6737400   -17.9932800  101.1968000   -13.2822000   64.4894000    -2.1104930  166.7476000
 		      -2.1429580  167.3955000   -13.0159400   68.8916200   -15.5574700   47.4303500   -12.3324200   80.7628700
 		     -12.5451500   52.9374100    -1.9528030  167.1924000   -12.1625600   81.5339300   -15.5136800   56.7777300
   67270390000   -16.4539100   86.4393600   -11.6671100   81.4711500    -1.9999070  167.8350000   -12.8258900   54.9211200 
 		     -11.5889400   83.6387300   -19.3093100   93.8927500   -13.7123300   68.3194100    -1.9518030  167.4026000
 		      -1.9128430  166.4332000   -13.4481800   61.7101200   -16.3025600   41.9982300   -11.9992300   84.0289600
 		     -12.0353900   54.5683200    -1.6066600  168.8331000   -11.9056900   84.3530400   -14.4176700   48.3496800
   67340380000   -17.3256200   87.5479400   -11.9706200   83.2692000    -2.0652270  168.3919000   -12.7436000   53.5966400 
 		     -11.7557300   76.8157200   -19.3567400  110.0520000   -13.3557800   66.2812400    -1.9973630  167.3465000
 		      -2.1378690  168.5671000   -12.1426000   66.7177000   -17.0071500   50.9982500   -12.0524600   82.1243300
 		     -12.7837500   57.9160000    -1.9539050  165.4595000   -12.3383600   79.3960200   -14.3373900   50.8987100
   67410370000   -17.0712500   85.1011100   -11.7067600   80.4946700    -2.1463900  168.0221000   -12.8652600   55.3208000 
 		     -11.3972900   75.7158000   -15.0429700  102.9785000   -12.9259200   66.1431500    -2.1635380  166.7867000
 		      -2.2475020  167.3923000   -13.9837700   60.2473800   -16.6532700   43.3675500   -12.2493000   84.7930700
 		     -12.8924200   55.2383300    -2.3434620  167.1055000   -12.3418200   84.7322400   -15.4853300   42.4499900
   67480360000   -15.7593500   91.1184500   -10.3177400   79.5660200    -2.0709980  168.3386000   -12.4725100   57.2597300 
 		     -11.2857400   72.9558100   -28.7382500   94.6427200   -12.9652800   66.2714500    -2.0228560  166.9826000
 		      -1.7723260  169.1860000   -13.5618400   65.9681000   -15.0645900   38.0576600   -11.8464400   85.0023000
 		     -12.6375500   57.3116100    -2.3492120  165.7729000   -11.7899000   82.5359600   -15.2478400   51.4791500
   67550350000   -14.3754000   83.9782800   -12.7022800   66.6453100    -2.0673650  167.6547000   -12.8385400   55.5879400 
 		     -12.2598900   78.1476600   -15.8385300  103.5123000   -13.3538800   65.9514200    -2.1149360  165.8762000
 		      -2.0126500  166.5075000   -15.3577200   60.9744400   -17.5738100   36.0977200   -12.1977300   85.3496500
 		     -13.5451700   55.8228200    -1.7244370  165.9841000   -12.3166000   86.7317000   -15.8435600   40.0285700
   67620340000   -17.5060300   78.5027200   -11.0699700   67.2980700    -2.0160210  167.5935000   -13.2760700   55.9386500 
 		     -11.7434300   74.9568200   -13.5963600   92.4295400   -12.8419800   65.2694500    -2.1513960  165.4493000
 		      -2.0616900  168.2979000   -13.7390700   69.4431600   -16.6448300   54.7611800   -11.9506200   81.5482700
 		     -12.9957600   55.7193300    -1.8769460  166.2420000   -12.2027800   81.9044900   -14.6686300   39.8162300
   67690330000   -16.1776200   89.9185600   -12.5067500   73.5452700    -2.2517840  166.6356000   -12.7230500   54.1289700 
 		     -12.1883300   73.0042000   -18.1075500   50.4186800   -12.9485700   65.6215100    -2.0238190  167.7914000
 		      -2.2353470  166.4960000   -13.8652900   66.2599100   -16.9928000   38.2736800   -12.0611700   82.5279400
 		     -13.1725400   50.2949900    -1.9569730  166.2534000   -12.2750900   80.6138900   -15.5430000   49.8605500
   67760320000   -16.2768500   82.8497800   -12.0697300   66.4335500    -2.0957400  166.4538000   -12.5470200   58.9771700 
 		     -11.3308800   78.1491100   -16.3690900   89.1841400   -13.2553300   61.5922400    -2.0765010  166.4784000
 		      -2.1561190  167.4447000   -14.4039000   60.9276300   -15.8238800   41.7803700   -11.9480600   85.9310500
 		     -12.9344100   58.0824300    -2.7077680  165.8785000   -12.0312300   84.0745400   -19.1894600   47.6183700
   67830310000   -16.3496100   88.5288700   -11.8936000   60.0262900    -2.1985960  166.0806000   -13.0425300   61.2865900 
 		     -11.2215500   73.5445300   -11.2300300   78.7638900   -12.2677100   62.7840000    -2.4112520  166.2049000
 		      -2.4234360  166.7125000   -14.7719400   52.6407300   -15.6900500   49.4681700   -11.9607200   85.4229800
 		     -13.5222700   59.9096800    -2.7772960  166.1944000   -12.3296400   85.0832700   -17.8466600   34.2659200
   67900300000   -15.6565400   84.8140500   -11.1817400   71.3938000    -2.0036440  167.0890000   -12.4479700   55.1721200 
 		     -12.3569300   77.3493000   -19.6595700   45.0241000   -13.1989100   60.6856300    -2.0453970  166.0785000
 		      -2.1203670  167.9519000   -13.3196800   66.5856000   -16.2567300   39.7571200   -11.9469800   80.1204000
 		     -12.0152100   54.6860500    -1.7676890  164.5914000   -11.7722400   83.6453800   -16.4758300   52.2212500
   67970290000   -16.3988500   78.0814500   -12.1377200   79.8245600    -2.0221070  167.1966000   -12.8635400   51.8137600 
 		     -11.4549100   78.0483600   -17.1796900  105.1506000   -13.1662000   65.1911800    -1.9032720  165.9879000
 		      -1.9051430  167.1540000   -13.4316500   58.6865400   -16.7665600   42.3689700   -12.4581500   83.2973900
 		     -12.6986300   52.0108400    -2.2385380  164.9533000   -12.2505600   82.0090000   -15.2811600   51.5864400
   68040280000   -17.3031200   81.0033200   -11.5656700   75.3379700    -1.9699740  166.2256000   -12.6678900   53.8635300 
 		     -11.9713400   70.7529900   -12.3430500   75.9690400   -12.9035900   58.0693600    -2.2783270  166.8322000
 		      -1.9024680  167.9687000   -10.5926300   63.6600000   -16.1856700   51.3818100   -12.5125600   81.0879200
 		     -12.7005300   52.5171000    -2.1264150  165.0722000   -12.2240500   79.7985800   -15.5021500   54.9497000
   68110270000   -16.4150600   91.0187700   -12.2716200   76.4175900    -1.9957920  165.3006000   -12.4575900   54.6197100 
 		     -11.4778700   75.2207800   -14.7049700   71.3684400   -13.4890500   62.3080800    -2.0678960  166.3105000
 		      -1.9864160  165.6185000   -12.7853500   69.2251700   -16.1277800   44.5592000   -12.3105100   81.5282800
 		     -12.7749400   56.4448100    -2.0633750  166.3997000   -12.2007500   81.2249100   -15.8951000   42.7396300
   68180260000   -15.4135800   79.2422800   -12.2289900   80.7224900    -2.0705360  165.9043000   -12.7292800   52.6952900 
 		     -11.6496300   74.4610500   -14.5592800   97.3256300   -12.8110600   63.4891500    -2.1772680  164.8672000
 		      -1.8925390  165.9452000   -13.4517400   57.8344000   -17.1662100   35.7067900   -11.8770400   84.8933900
 		     -12.9144200   46.9918100    -1.9442720  165.1685000   -11.9797900   85.4313300   -17.1170500   45.8100000
   68250250000   -15.5560600   73.5207800   -10.6472600   68.3380000    -2.2476260  165.3555000   -12.4685900   59.4230500 
 		     -10.8885300   73.9003100   -22.5279800   40.6540800   -12.6652300   62.5032600    -2.1887190  166.6676000
 		      -2.4031990  162.7693000   -11.5789900   62.2142300   -15.1901400   46.2910700   -11.9518700   84.1632900
 		     -12.4693700   53.0044300    -3.0043530  164.6779000   -11.6695300   81.3269900   -19.4588100   68.2930100
   68320240000   -16.9652700   82.9982100   -11.8352900   76.0067000    -2.0742840  164.7147000   -12.0168900   53.3289400 
 		     -12.4338000   77.9400900   -21.7011400  136.4447000   -13.1658600   64.0208300    -1.9479910  164.2373000
 		      -2.0640740  163.2143000   -14.2543900   67.3977900   -16.1429500   45.3683500   -11.7736100   78.3456300
 		     -12.1311900   54.7185500    -1.4879400  161.4656000   -11.8585400   78.5575300   -17.1858900   57.8766300
   68390230000   -18.1249700  101.1198000   -10.8258000   86.5149200    -2.1935270  165.2897000   -12.2821400   49.9477700 
 		     -12.0778400   77.1050100   -17.8575700  102.3901000   -13.3772200   65.9742200    -2.2346500  164.3591000
 		      -2.2001510  167.6269000   -11.5039300   72.3555400   -16.7087600   43.5789400   -12.6988600   79.1419100
 		     -13.2963000   47.2503000    -1.9379820  162.4937000   -12.5739700   79.0544400   -14.7450500   48.9217100
   68460220000   -15.2124200   74.3163800   -11.2250000   85.6563700    -1.9457390  165.0880000   -12.5002600   52.6816300 
 		     -12.2293900   81.6893800   -13.0590000   98.6189000   -13.1821700   64.3792600    -2.0382500  163.5300000
 		      -2.1901450  166.6852000   -14.6790100   76.6548300   -15.8861800   46.5522200   -12.6298200   82.1507900
 		     -11.4365700   58.6373800    -2.0170840  165.9989000   -12.0236900   81.1282700   -17.4551600   57.3397400
   68530210000   -16.5531400  104.7815000   -11.0855300   80.3299600    -2.0580260  164.5006000   -13.7719300   49.2651900 
 		     -12.3726700   74.5316800   -12.4529200   86.7506500   -13.2731900   61.1841000    -2.1196660  162.7563000
 		      -2.3333280  165.3065000   -12.0590700   73.1470600   -16.3348400   44.5566200   -13.8672100   81.7290100
 		     -14.2253800   57.7002400    -2.9193620  158.3135000   -12.9186700   86.2422000   -15.6464100   23.7485000
   68600200000   -15.9088600  104.1631000   -12.6813700   82.9679100    -2.0770010  164.4719000   -12.3555100   47.9600300 
 		     -11.6747600   76.8439100   -19.5778700   88.7663400   -12.9255300   61.1832200    -1.8835290  163.2264000
 		      -2.1723410  164.5346000   -12.5129800   67.4108100   -15.4130800   48.9988100   -12.8591500   76.4840400
 		     -12.3577400   45.1987000    -2.1479250  166.0930000   -12.3637900   78.4283300   -15.4206300   54.7718400
   68670190000   -13.9374000   74.3315400   -10.4200100   75.1820900    -2.0113300  164.3833000   -12.9456900   54.0695200 
 		     -13.4899000   72.7661400   -14.8470000  105.9176000   -12.6451300   61.3703000    -2.4010250  165.2284000
 		      -2.2975390  165.8041000   -13.3918400   55.5073000   -16.0940800   38.2095300   -12.1023800   86.0187800
 		     -13.1637400   45.4176300    -2.1190250  167.8189000   -12.4813500   83.2206400   -15.8557000   45.2353500
   68740180000   -15.9422100   87.9463000   -11.1152800   76.1836500    -2.0476470  162.6374000   -13.4099600   55.9578700 
 		     -11.4115400   72.2418500   -13.9900200   53.8497600   -13.0319300   61.6912400    -2.1614690  164.3474000
 		      -2.0270060  163.4294000   -13.8252900   66.9371000   -16.1014700   46.7029300   -12.7658500   87.7437100
 		     -13.5859900   60.1551000    -2.0883800  167.1898000   -12.3957300   86.5974100   -17.1489900   25.8654600
   68810170000   -16.8145800   89.0229900   -11.2632800   81.7557100    -2.1717280  163.7690000   -12.8048300   53.7499700 
 		     -11.8410500   71.6128800   -16.4403000   52.2505300   -12.8422600   60.1914200    -2.3094520  162.9803000
 		      -2.0699370  164.4150000   -12.0808400   45.5025400   -15.6172700   42.7503900   -11.8150800   81.2652100
 		     -12.6949000   49.6445500    -2.5142190  162.5683000   -12.3629300   80.1977400   -19.2019500   56.1661700
   68880160000   -18.5745400   74.8659000   -12.4216900   66.7462900    -2.1729170  163.9877000   -11.3359900   53.7707200 
 		     -12.1792100   69.5948400   -16.7591400   68.0731200   -12.6007500   57.8192600    -1.5568410  167.7712000
 		      -2.1782210  163.7852000   -11.8669200   60.1240700   -15.6498400   39.8711100   -11.6929200   79.2390100
 		     -12.3626300   53.4834400    -0.6993409  165.9696000   -11.7929300   77.4273400   -17.4393300   93.0419000
   68950150000   -16.8204500  122.1273000   -13.6152100   90.4255800    -2.2282540  164.1174000   -12.9135100   41.5051000 
 		     -11.6574800   74.7529900   -13.5799100  115.0983000   -13.2656600   69.1403400    -2.2583230  160.3439000
 		      -2.2300460  162.6868000   -11.0971400   70.0821000   -15.4302600   42.5515900   -14.6382400   81.7185700
 		     -13.4131900   38.6302400    -2.4058990  161.7133000   -14.0528400   78.6891600   -11.9200700   32.3331900
   69020140000   -13.6378200   86.9892800   -12.0397700   65.5222300    -2.0178620  162.8903000   -13.5422400   51.1072400 
 		     -11.4458800   79.1285600   -12.0149300   71.8259400   -12.7867900   61.9129300    -2.0155460  165.3562000
 		      -2.0009460  164.9810000   -20.5956700   48.5395300   -16.2950000   32.3635700   -12.4846900   82.2523700
 		     -13.7278100   48.1546700    -2.2998090  169.1359000   -13.5188300   84.5551900   -15.1536100   24.7545700
   69090130000   -19.6208500   67.8014200   -13.1415800   61.0580000    -2.3813170  163.5790000   -12.7107400   51.7437300 
 		     -11.5423300   80.3814000   -21.6045200   74.8886200   -13.8178000   63.9598000    -1.9259820  163.0854000
 		      -2.6389060  165.2301000   -11.8373300   65.3714900   -17.3136700   34.0826000   -12.5346100   81.1068700
 		     -12.3579500   51.3845400    -1.7563700  165.2893000   -12.3359500   79.9484300   -14.8950300   56.8241600
   69160120000   -16.5184900  105.6074000   -12.3801600   93.2159900    -2.0335460  162.6794000   -12.1741300   50.6036500 
 		     -12.9809700   80.7051000   -17.6441200   23.2358000   -14.2370000   58.7665800    -1.7675950  161.6875000
 		      -2.0840210  163.3216000   -13.4119000   66.6696600   -16.0409100   46.2089200   -12.3561200   76.4313700
 		     -12.8315500   53.0785800    -2.1569990  161.8732000   -12.3890700   75.6369400   -14.3627500   58.3195900
   69230110000   -15.3369200   88.6991500    -9.2216340   73.3122000    -2.0945670  161.5619000   -13.9816000   57.5179400 
 		     -12.0891700   68.5651300   -12.3649800   96.9713700   -12.2076200   59.9364200    -2.4727850  162.3833000
 		      -2.2885680  160.6941000    -8.3000340   57.3728500   -15.1436100   37.5866400   -12.6683200   93.0637300
 		     -15.8699200   51.9718800    -2.8558170  162.2912000   -13.0853300   83.1634500   -17.7838500   23.4893800
   69300100000   -19.3848200   83.5424900   -11.9463100   58.6865800    -2.1313800  162.6767000   -12.8273600   55.1198000 
 		     -11.8527300   74.1116800   -17.4440400   89.1828000   -12.2158500   61.6770400    -1.9265330  161.8031000
 		      -2.2030140  160.6756000   -10.5586800   68.3288300   -17.4603700   42.8630300   -12.8331200   83.5677200
 		     -11.7315700   60.6248800    -2.2256720  160.2157000   -12.7956300   82.1233100   -15.0368000   47.2638600
   69370090000   -15.4704000  102.7589000    -9.0642050   66.4023600    -2.2706970  160.9906000   -14.3392800   52.9257700 
 		     -11.5743700   69.6185900   -12.6712600  100.5544000   -12.0500300   64.0971100    -2.1014500  160.3058000
 		      -2.0950580  161.5456000   -11.7176800   76.7681000   -15.6508600   41.6629000   -14.5489200   86.0265700
 		     -13.3816700   49.1420800    -1.8890150  161.5056000   -14.2217600   84.0225000   -12.4142600   12.1906100
   69440080000   -17.0890100   67.3763700   -11.0926100   68.7700300    -1.9898960  163.5400000   -11.8661400   46.1371700 
 		     -12.0175000   72.7665400   -30.2642900   48.5823100   -13.0560000   63.7080500    -1.5177290  160.4859000
 		      -1.9119350  165.0404000   -15.6736600   68.2584300   -17.7402000   38.7977800   -12.3437300   74.9312800
 		     -12.2893500   44.1421700    -1.8197400  161.6131000   -12.5928800   74.9279900   -14.2713400   56.4977500
   69510070000   -17.8030500   81.6378300   -10.6311600   88.8132600    -2.1183970  161.7475000   -13.3891500   52.4559500 
 		     -12.3370000   75.3728000   -17.3397800   70.8596000   -13.6834700   57.6342500    -2.0973940  162.3420000
 		      -2.1680360  161.1572000   -12.4316700   73.7887100   -17.3208200   43.3919400   -13.0768400   83.8197800
 		     -12.6263700   48.1891200    -1.5768140  164.4557000   -13.1408800   83.7115000   -15.6789300   35.3383800
   69580060000   -15.9876100   97.3573600   -12.2986500   68.4813400    -2.1693580  161.2231000   -13.1248000   53.8523800 
 		     -11.5543400   71.3798000   -19.0864400   98.9884000   -12.9796700   61.6113100    -2.7321300  159.3604000
 		      -2.1833540  160.3873000   -15.7182400   61.2087200   -15.4732400   44.4832200   -13.4542700   79.3392100
 		     -13.1617200   52.0920800    -1.9584880  156.4271000   -13.1005700   84.4386300   -16.0749300    1.2316730
   69650050000   -14.0317700   81.6841400   -10.7512700   65.5427700    -1.9034290  161.8016000   -12.6143800   50.4193000 
 		     -13.1725900   65.7472800    -9.2434240   73.6637700   -12.8620000   56.6433600    -1.7267790  159.3861000
 		      -2.1318680  161.9105000   -12.1433500   75.0537200   -16.9756400   19.1087800   -13.4760900   77.8986500
 		     -13.0440700   50.6950100    -2.4771020  166.6260000   -12.7234200   78.3183100   -15.8929000   55.9513600
   69720040000   -19.3261700   78.2899700   -10.1879200   77.9657700    -2.5323030  160.2757000   -13.4305900   58.8988000 
 		     -10.2199400   76.0893600   -19.5881300  109.2287000   -11.8222300   60.8239500    -2.4860320  162.8154000
 		      -2.4018550  161.7254000    -9.9853050   66.7070700   -16.7012500   54.6722400   -12.3917100   93.7183600
 		     -12.9053500   56.3814800    -2.3514600  164.6871000   -12.6652900   91.8681100   -15.6139400   -3.3252270
   69790030000   -13.7206000   79.2406200    -9.6689210   83.6261400    -1.8269110  160.1221000   -14.3099700   48.8237500 
 		     -10.9288300   85.6892900   -12.8073800   48.7137600   -13.3630300   74.0719300    -2.0159880  162.4985000
 		      -1.8903270  162.7507000   -11.3374000   45.2188700   -14.0187400   32.2620600   -12.9854600   87.6768100
 		     -12.7065400   45.5704500    -5.7102080  171.4020000   -13.2977400   82.5543000   -18.2490600   35.4597100
   69860020000   -20.0420700   72.3267200   -14.7263100   64.3395200    -1.9645980  160.5587000   -12.0637200   50.0562900 
 		     -11.8553000   66.1535700   -17.3444800   93.0977800   -13.3768000   56.5845200    -2.1378700  164.2877000
 		      -1.7463690  156.0733000   -19.2964400    0.4258884   -23.0225400    6.4504070   -12.4541300   75.4512100
 		     -12.4973100   56.8302000    -2.6462470  178.7727000   -11.9152200   81.2349900   -13.1444900   51.9900900
   69930010000   -18.6739600  115.7316000   -12.7254100   90.8207800    -2.3634050  159.4066000   -14.3279400   51.3458700 
 		     -11.2971100   79.5743500   -13.5586200   48.2081900   -11.5112500   60.1815900    -2.4811020  154.9860000
 		      -2.5057920  156.4069000   -12.8613600   32.8417800   -13.1424900   64.0715400   -13.1869100   86.9928100
 		     -14.4437400   55.7779100    -2.4452260  156.3116000   -13.2749300   91.3578600   -22.0901800  -15.2495400
   70000000000   -14.8686600   71.2110000   -12.2135700   52.7541200    -2.2803830  164.5624000    -6.8017880   63.7738200 
 		     -15.1560900   43.2372600    -9.9267070    1.4190110   -14.3034100   38.2053200     0.2231453  170.7602000
 		      -2.6896740  165.7514000   -12.7127400   26.0224000   -13.5042200  -27.3964700    -6.8172060   66.6315500
 		      -8.1594910   52.4431800    -1.1661440  169.0720000    -8.3937930   72.4758800    -4.9361490 -170.7247000
