! 4/13/2026 10:47:08 AM
! C:\ANRITSUVNA\DATA\SARA\2026-04-13 T5 MZDRV\DEEMB STRUCTURES\THRU_3.S4P
! CHANNEL.1
! TR.MEASUREMENT
! CORRECTED.DATA
! RF.CORRECTION: FULL.FOUR.PORT.CAL.PORT.1.2.3.4
! AVERAGING.OFF
! IF.BANDWIDTH: 1KHZ
! SWEEPTYPE:  FREQ.SWEEP(Linear)
! Reference Plane Port Info
! PORT:              PORT1              PORT2              PORT3              PORT4             
! DISTANCE:          0  m               0  m               0  m               0  m              
! TIME:              0  s               0  s               0  s               0  s              
! PHASE.OFFSET:      0 °                0 °                0 °                0 °               
! LOSS:              0  dB              0  dB              0  dB              0  dB             
! REF.LOSS:          0  dB              0  dB              0  dB              0  dB             
! REF.FREQ:          0  Hz              0  Hz              0  Hz              0  Hz             
! Power Info
! POWER:             -20  dBm           -20  dBm           -20  dBm           -20  dBm          
! EFF.POWER:         -20  dBm           -20  dBm           -20  dBm           -20  dBm          
! SOURCE.ATTEN:      0  dB              0  dB              0  dB              0  dB             
! TEST.ATTEN:        0  dB              0  dB              0  dB              0  dB             
# HZ S DB R 50.0
! FREQ.HZ         S11DB        S11A          S12DB        S12A          S13DB        S13A          S14DB        S14A 
!		      S21DB        S21A          S22DB        S22A          S23DB        S23A          S24DB        S24A 
!		      S31DB        S31A          S32DB        S32A          S33DB        S33A          S34DB        S34A 
!		      S41DB        S41A          S42DB        S42A          S43DB        S43A          S44DB        S44A 
!; PortSelection: Port_1234
      10000000   -36.7984500    1.1534150   -57.5686100   11.6633400    -0.1065559   -0.0231171   -57.6319100 -172.1362000 
 		     -57.2820600   13.4795500   -38.4912700   -0.7441427   -57.3848900 -172.4109000    -0.0909798    0.1077685
 		      -0.1066580    0.0119147   -59.1094400 -179.5406000   -37.3912700   -2.2769620   -57.9117700   13.6876600
 		     -59.0548600 -168.3220000    -0.1164729   -0.0272150   -57.5857700    7.1348650   -35.8836300    0.6586167
      79990000   -36.7082300    3.8096420   -52.7677600   40.6827000    -0.1306179   -0.2620819   -53.8272600 -145.2567000 
 		     -52.4141700   39.6953900   -38.2219500    5.7574800   -53.2524100 -148.4022000    -0.1036901   -0.2828621
 		      -0.1335538   -0.2330992   -53.7202500 -147.7087000   -35.7131300    2.7661920   -52.9312300   40.1183900
 		     -53.3655200 -150.9055000    -0.1236774   -0.3278265   -52.7181000   41.3157700   -35.7956200    3.6555870
     149980000   -35.9784600    4.5533660   -50.1090500   47.6406600    -0.1414585   -0.5302200   -51.2245800 -144.1908000 
 		     -49.9478100   47.2072000   -37.3248600    6.6034190   -51.6819300 -143.0848000    -0.1179637   -0.4723232
 		      -0.1338074   -0.5099409   -51.4930000 -143.4677000   -35.1177800    2.8278270   -49.7579000   47.9501200
 		     -51.2894400 -144.7338000    -0.1332145   -0.5641280   -49.9524200   46.3717800   -35.1736800    5.9409760
     219970000   -35.9226900    8.6747160   -48.1395500   50.5071200    -0.1401823   -0.7460367   -49.7275500 -141.8619000 
 		     -47.9855700   51.4684200   -37.3409700    9.3387760   -49.8848000 -141.2651000    -0.1319546   -0.7420397
 		      -0.1403125   -0.7693274   -50.3821200 -141.9627000   -34.9358400    5.4040930   -47.8282700   51.4143800
 		     -49.9669100 -140.8492000    -0.1442316   -0.8119605   -48.1569300   50.5878900   -36.2881500   11.2410600
     289960000   -36.3067300    6.2968860   -47.0534400   56.2483900    -0.1540835   -0.9860011   -48.8534500 -138.8703000 
 		     -46.6735100   56.5256700   -37.0323900   13.6476300   -48.9474700 -139.4697000    -0.1296963   -1.0069030
 		      -0.1544247   -0.9557697   -48.6603100 -140.0641000   -36.6068200    6.8497840   -46.8762300   53.3597000
 		     -49.3466900 -139.5776000    -0.1463815   -1.0680400   -46.6875500   52.9236200   -36.5093300    4.9929390
     359950000   -35.2606200    7.6461610   -45.5270700   56.3555600    -0.1602454   -1.2199180   -48.0016400 -137.9817000 
 		     -45.3924800   54.7979300   -36.8343500    9.1367230   -47.9606100 -136.4690000    -0.1443180   -1.1702330
 		      -0.1608149   -1.1822910   -48.2521400 -137.8094000   -35.7457500    9.6417990   -45.5145800   56.4441800
 		     -47.7758500 -140.3855000    -0.1563998   -1.3066080   -45.4410300   56.6107700   -35.9122000   12.5047500
     429940000   -35.7223900   11.8616900   -44.3136100   55.5905100    -0.1633528   -1.4265080   -46.8190800 -136.0308000 
 		     -44.4775400   57.2242500   -36.3167200    9.9331380   -47.2353200 -138.0780000    -0.0989898   -1.4537340
 		      -0.1584484   -1.4004290   -47.4709700 -137.4953000   -35.7530200   12.7750800   -44.5084500   57.2402400
 		     -47.2115200 -137.9959000    -0.1542868   -1.5305000   -44.2723200   57.2572300   -36.1007900   10.8239800
     499930000   -35.5428000   11.2328000   -43.2489700   58.0195800    -0.1466246   -1.6656660   -47.2841100 -135.2709000 
 		     -43.9046800   59.3904600   -36.4253300    9.8399890   -46.1907000 -135.3151000    -0.0902773   -1.6673450
 		      -0.1434026   -1.6919520   -47.0510700 -135.0435000   -35.6720800    8.8206560   -43.7731000   57.5097200
 		     -46.8264500 -135.6934000    -0.1552209   -1.6928080   -43.6007200   59.8329200   -36.0670700   10.2945300
     569920000   -35.3641100   10.4912000   -42.6777600   61.9861100    -0.1419132   -1.9466170   -46.3434800 -133.8409000 
 		     -43.0095800   60.9581200   -36.3017100   13.6370900   -46.4288600 -130.3940000    -0.1305357   -1.8422300
 		      -0.1411483   -1.8839590   -46.2863800 -130.7598000   -35.7912000   12.7842700   -42.9287800   60.4746900
 		     -45.6448900 -133.3542000    -0.1450082   -1.9078890   -42.4304700   59.5833900   -35.4922500    9.0973600
     639910000   -36.0465800    9.7545480   -42.7752100   62.5288800    -0.1393830   -2.1057920   -45.4687700 -136.0388000 
 		     -42.2137500   64.5473700   -35.6617000   13.9383600   -45.8150700 -134.3029000    -0.1329030   -2.1302280
 		      -0.1383759   -2.1429800   -46.6212500 -130.7851000   -34.7139000    8.4083680   -42.1523300   60.7425300
 		     -45.2578700 -137.4880000    -0.1390697   -2.1302290   -42.0878900   62.7468900   -35.9284800    5.4764230
     709900000   -34.5283300    8.1347320   -41.6512600   63.6285600    -0.1521335   -2.3254220   -44.9212200 -133.6298000 
 		     -41.9111100   63.8653700   -34.9851000   12.2245000   -45.1924600 -133.6285000    -0.1327891   -2.2838240
 		      -0.1417741   -2.3080700   -45.4289300 -131.4395000   -35.4086200    9.8365960   -41.3583100   62.2624000
 		     -45.3177900 -133.9665000    -0.1401868   -2.4172680   -41.4642300   64.5389900   -35.5575800    9.0355140
     779890000   -34.7705800    8.0837690   -41.0105100   64.3740100    -0.1549899   -2.6016990   -44.8469300 -131.7924000 
 		     -40.2647600   63.8577700   -36.0355800   18.8287000   -44.6436200 -131.3501000    -0.1436547   -2.5654340
 		      -0.1512149   -2.5438690   -44.3038100 -132.6457000   -35.2063300    9.5601850   -41.0141300   64.5254200
 		     -45.1110300 -130.7892000    -0.1653712   -2.6308750   -41.0719200   65.2199600   -35.7996000    7.6646650
     849880000   -34.8469500   13.7299900   -40.6313300   65.1166500    -0.1569202   -2.7747730   -44.2532000 -130.4807000 
 		     -40.2337400   63.9493200   -35.2711300   16.1819300   -44.3407100 -129.0573000    -0.1446017   -2.7470370
 		      -0.1522359   -2.7859740   -44.6546000 -129.6798000   -35.1132900   10.3424300   -40.1882700   65.4908800
 		     -44.3435700 -131.5402000    -0.1585493   -2.8321430   -40.4359500   65.6603400   -35.1781700   10.4701200
     919870000   -34.5025000    9.3780570   -40.1303900   68.0468000    -0.1552391   -2.9993100   -44.3770300 -129.3664000 
 		     -39.8570900   66.5473900   -35.5637600    9.7095840   -43.9763500 -129.8186000    -0.1432025   -2.9769250
 		      -0.1537475   -2.9990670   -44.0771400 -127.0662000   -35.2342800    9.6348880   -39.7336200   67.7715100
 		     -44.3152000 -131.4538000    -0.1594402   -3.0110980   -39.6663500   67.1429900   -35.5135000   11.7876400
     989860000   -34.8922600   10.2888800   -39.2281800   67.3575800    -0.1563545   -3.1933030   -43.6956600 -127.5413000 
 		     -39.2708000   64.9222300   -35.1795900   11.2024200   -43.9529000 -129.5908000    -0.1438645   -3.1871430
 		      -0.1575705   -3.2128930   -44.1083800 -129.7370000   -34.8562400    8.9607580   -39.2431700   67.3623000
 		     -43.9081400 -128.9945000    -0.1546130   -3.2737520   -39.2134600   67.7603600   -35.4993900   10.8585900
    1059850000   -34.8534200    9.6455760   -38.9954700   68.3894600    -0.1631764   -3.4284960   -43.3636100 -126.6441000 
 		     -38.7701800   67.3913600   -35.1357100   15.1936800   -43.2891000 -127.6868000    -0.1549174   -3.3469130
 		      -0.1599884   -3.4303510   -43.4566300 -127.9835000   -34.8834200    8.4964410   -38.7703900   68.2646000
 		     -43.3602000 -127.4015000    -0.1645716   -3.4540810   -38.8223900   68.3740200   -34.9805700    9.0257990
    1129840000   -34.4645300   13.0312400   -38.2767100   69.2243300    -0.1666638   -3.5913160   -43.0638000 -128.4657000 
 		     -38.5643600   68.2526300   -35.2868000   12.7154100   -43.0817700 -126.9785000    -0.1561905   -3.6166090
 		      -0.1640648   -3.6089290   -43.1257100 -124.7756000   -34.5705900    8.7029960   -38.3846900   69.1146800
 		     -43.3135900 -125.9635000    -0.1624895   -3.6872170   -38.4166000   68.8704700   -34.7894600   12.1174900
    1199830000   -34.3972400    9.6749290   -37.9679400   68.9117900    -0.1678682   -3.8431730   -42.7865600 -125.6979000 
 		     -37.9405100   68.2675700   -35.1791900   10.0927900   -42.8456700 -125.2531000    -0.1572318   -3.8161280
 		      -0.1664817   -3.8316440   -42.9171800 -124.9896000   -34.6476600   10.8885900   -38.0098700   70.0364500
 		     -42.7039400 -125.0315000    -0.1656681   -3.9028100   -38.0473700   69.7506000   -35.1058800   11.6757800
    1269820000   -34.4557700   12.3850600   -37.4716300   68.5925000    -0.1717660   -4.0699660   -42.3338100 -126.5246000 
 		     -37.4703000   70.0633000   -35.2877300   14.0512100   -42.3669100 -126.0743000    -0.1585969   -4.0056360
 		      -0.1638140   -4.1142970   -42.3942800 -125.2060000   -34.6444400    9.9196510   -37.5784000   70.1666700
 		     -42.5546500 -126.7935000    -0.1678244   -4.1135940   -37.5366000   69.6440300   -34.9968200   11.2776700
    1339810000   -33.7568500   11.6698100   -36.9565700   70.7713000    -0.1717089   -4.2590450   -42.1276900 -124.1903000 
 		     -37.1425800   71.8171300   -34.6264600   13.4332800   -42.1850800 -125.8902000    -0.1585039   -4.2534440
 		      -0.1732878   -4.3192440   -42.0327300 -126.0734000   -34.8868800   13.7883200   -37.0906400   70.4076300
 		     -42.0968200 -123.7119000    -0.1745213   -4.3144410   -37.1594000   70.2584700   -34.5608800   11.3401000
    1409800000   -34.5985900    7.9578720   -36.6805100   69.3848500    -0.1769025   -4.4527250   -41.8055000 -123.3904000 
 		     -36.8738000   69.9845400   -34.8188900   12.7419100   -41.7368500 -124.3495000    -0.1655326   -4.4249780
 		      -0.1764344   -4.5188310   -42.1020100 -122.4368000   -34.6307400   11.3634700   -36.8484800   70.4528000
 		     -41.8039200 -121.2510000    -0.1725107   -4.5307160   -36.7038000   71.0355600   -34.9358900    9.9200260
    1479790000   -34.2036500    8.6895440   -36.5450200   70.0047800    -0.1770723   -4.6985250   -41.5468700 -123.7814000 
 		     -36.4052000   70.2134300   -34.9449100   14.8365100   -41.5257500 -126.9243000    -0.1657168   -4.6267330
 		      -0.1738193   -4.7421140   -41.7099000 -122.1351000   -34.1046700    9.8995170   -36.2951200   70.9063000
 		     -41.5488700 -122.8689000    -0.1757023   -4.7354070   -36.2978300   72.4220700   -34.9460700   12.4032800
    1549780000   -34.0399900   10.2817800   -35.8433200   72.6150100    -0.1830075   -4.8778450   -41.4305300 -122.2174000 
 		     -35.9430300   70.1197100   -34.2489200   12.0101600   -41.0128000 -122.4713000    -0.1662730   -4.8617570
 		      -0.1763595   -5.0111850   -41.0608700 -124.3371000   -34.3233800   11.7510300   -35.9518700   71.6846200
 		     -41.2032000 -120.2995000    -0.1750417   -4.9654090   -36.1636000   71.9129500   -34.5629500   11.9434900
    1619770000   -34.5949700   10.5564300   -35.7544500   71.6460000    -0.1760168   -5.0662970   -40.7750000 -122.5712000 
 		     -35.4154200   70.9715300   -34.5768400   11.7696000   -41.0857800 -122.6823000    -0.1639022   -5.0183450
 		      -0.1755597   -5.1253110   -40.9127100 -124.0885000   -34.3221600    8.8186660   -35.7601100   72.3030800
 		     -40.9816600 -120.5341000    -0.1704724   -5.1288110   -35.7474700   71.2049000   -34.4061900   10.9830000
    1689760000   -33.9252100    8.9611010   -35.5624700   72.1641400    -0.1858167   -5.3281650   -40.7758700 -121.5650000 
 		     -35.2649800   71.5857000   -34.7683500   12.7288400   -40.6832900 -123.6494000    -0.1695424   -5.2375290
 		      -0.1787468   -5.3645380   -40.5858600 -126.2079000   -34.3727800    6.9210510   -35.2981100   72.2814100
 		     -40.7963900 -123.1493000    -0.1737334   -5.3667600   -35.2300000   71.9414000   -34.3357300    9.7905900
    1759750000   -34.4344600   10.7014700   -34.8436700   70.8827800    -0.1834187   -5.5278820   -40.4702800 -121.9394000 
 		     -34.9156700   71.4398000   -34.0730100   11.0016500   -40.4239300 -123.5335000    -0.1770119   -5.4531670
 		      -0.1813268   -5.5537160   -40.2943500 -122.1661000   -34.5902200    7.0985820   -34.9582100   72.5466200
 		     -40.1378200 -121.9196000    -0.1828981   -5.5226010   -35.0869300   71.5913500   -34.6366400    9.2150870
    1829740000   -33.7256800    8.7108330   -34.6608900   72.2556400    -0.1844611   -5.7356840   -40.1710500 -122.9050000 
 		     -34.7275600   71.9971700   -33.9817700   14.1011000   -40.1595500 -121.9358000    -0.1736256   -5.7019480
 		      -0.1768499   -5.7227300   -40.2606200 -121.2546000   -34.1448600    8.0961840   -34.6666000   72.1579300
 		     -40.3659800 -123.7030000    -0.1890516   -5.8396120   -34.7484000   73.1309800   -34.3289500   12.8825000
    1899730000   -33.6909000   10.1462300   -34.2818200   71.5935700    -0.1920268   -5.9511680   -39.7701500 -121.8589000 
 		     -34.2642300   72.4947400   -34.7531100   11.9014800   -40.0103000 -121.7994000    -0.1735257   -5.8964610
 		      -0.1837400   -6.0375890   -39.8187300 -119.6601000   -34.4022300    9.9676080   -34.3623500   73.1477300
 		     -40.0828200 -121.1865000    -0.1805409   -5.9348320   -34.4777200   71.7650900   -34.3769500   10.1573800
    1969720000   -34.3153200    8.2044910   -34.0956200   72.7103200    -0.1886025   -6.1375410   -39.8537800 -120.7983000 
 		     -34.1205400   73.0878600   -34.2052900   12.0865800   -39.7613000 -121.7819000    -0.1773619   -6.0938120
 		      -0.1836858   -6.1742140   -39.8467700 -121.9653000   -34.2114000    6.5339180   -34.1282800   72.9689100
 		     -39.7078600 -121.5822000    -0.1791474   -6.1773260   -34.1429800   72.9844700   -34.6687500   10.8228000
    2039710000   -33.5693900   10.4957100   -33.8848900   71.7418700    -0.1934231   -6.4001500   -39.5719600 -121.7608000 
 		     -33.8364400   72.0202900   -34.1798700   10.8257600   -39.4244700 -120.8399000    -0.1749918   -6.3424240
 		      -0.1912170   -6.3951340   -39.5285900 -123.3302000   -34.4798500    8.1422110   -33.9437000   72.9607200
 		     -39.4990600 -119.2370000    -0.1858091   -6.4677000   -33.8331900   73.1010600   -34.1647000   15.0935100
    2109700000   -33.4688500    8.7207220   -33.6612200   71.6934000    -0.1969272   -6.5692840   -39.1676600 -120.7656000 
 		     -33.5998800   71.7842100   -33.6514400    9.7402290   -39.3026700 -120.6440000    -0.1761678   -6.5567050
 		      -0.1951553   -6.6605050   -39.4489000 -121.5937000   -34.1262100   11.4051300   -33.6252300   73.2812300
 		     -39.0632700 -121.7321000    -0.1816040   -6.6100830   -33.5872500   72.7589700   -34.3349800   12.4428100
    2179690000   -33.5414400    9.2763270   -33.3081200   72.7602200    -0.1863554   -6.7859720   -39.0582600 -121.0377000 
 		     -33.3127400   73.1618900   -34.2799200    7.9028620   -38.9013900 -120.2469000    -0.1814855   -6.7686440
 		      -0.1866740   -6.8616160   -39.1297400 -119.2860000   -34.0493400    8.4938200   -33.4115400   72.6833600
 		     -39.2497400 -119.9316000    -0.1930610   -6.8374460   -33.3441100   73.5974700   -34.0567600    8.7805140
    2249680000   -34.1147000    4.7052170   -33.1727700   72.5200700    -0.1923661   -7.0224080   -38.7765400 -119.9222000 
 		     -33.0223500   72.4965100   -34.3093100   10.6748000   -38.8408600 -120.1215000    -0.1836021   -6.9158260
 		      -0.1775944   -7.0642010   -38.9487200 -122.2814000   -34.4935200    7.8109830   -33.0334900   73.2152100
 		     -38.6204900 -119.4836000    -0.1879783   -7.0053470   -33.0938400   73.4515500   -34.3989500    9.9364710
    2319670000   -32.8749100   15.3138500   -32.8511700   73.9854400    -0.2247920   -7.2300910   -38.8859300 -119.4892000 
 		     -32.9072600   72.5114400   -33.6001700   17.9379700   -38.5745200 -119.8510000    -0.1817837   -7.1185500
 		      -0.2159404   -7.2894400   -38.6974200 -118.9067000   -35.2587900    8.5402900   -32.9389700   73.0569500
 		     -38.8977700 -120.9590000    -0.1903006   -7.1538190   -32.9687000   72.6546100   -33.9769100   11.7078500
    2389660000   -34.2456900    0.6245337   -32.5466100   72.6170300    -0.2288220   -7.3374620   -38.4263400 -118.2143000 
 		     -32.6003600   72.5279700   -34.9604200    3.8470180   -38.2356100 -118.7157000    -0.2053602   -7.3951220
 		      -0.2261760   -7.4049440   -38.1589900 -119.2181000   -35.2009500   11.6542500   -32.5657500   73.5471900
 		     -38.5079900 -117.4487000    -0.2111741   -7.5141080   -32.5320200   73.6499100   -33.5574100    6.4771880
    2459650000   -32.7865900    4.5387440   -32.4863700   72.7962600    -0.2024706   -7.7112400   -38.3087300 -119.1801000 
 		     -32.3365200   72.2900100   -34.0015300    8.4117760   -37.8935800 -120.3587000    -0.2176925   -7.5205180
 		      -0.1988321   -7.7237010   -37.9626400 -121.1270000   -34.7655600   -0.3312308   -32.1149100   72.9789000
 		     -38.2926900 -118.6638000    -0.2252942   -7.5962740   -32.1468400   72.3664100   -34.3255000    1.7319140
    2529640000   -33.5339500    6.4422200   -32.1629900   72.0798900    -0.1873804   -7.9616130   -38.0460300 -119.0868000 
 		     -32.1132400   73.6843300   -34.0676000   12.8432200   -37.8950200 -121.0840000    -0.1786961   -7.9672970
 		      -0.1875048   -7.8539190   -38.1265400 -118.9131000   -34.2245300    8.8948760   -32.0658700   72.8753700
 		     -37.6615200 -119.7369000    -0.1864289   -7.8718900   -32.0432600   72.7681800   -34.2592400   10.7836800
    2599630000   -33.6944400    7.3859330   -31.9279100   72.8644900    -0.1959755   -8.1249510   -37.8528800 -121.3937000 
 		     -32.0233700   72.2814900   -33.8537300    9.8846750   -37.7917700 -118.7957000    -0.1924870   -8.0872970
 		      -0.1941469   -8.0118370   -37.8014500 -120.9359000   -34.1414700    7.5433680   -31.9256300   73.1389500
 		     -37.8866600 -119.8592000    -0.2004884   -8.0643310   -31.8703800   73.2086700   -34.3564700   10.4708500
    2669620000   -33.4304100   10.2964800   -31.9112900   72.8315000    -0.1968514   -8.2243210   -37.7286500 -119.2697000 
 		     -31.7777600   72.1294900   -33.9605300    9.9758080   -37.5301700 -119.5349000    -0.1863441   -8.2494880
 		      -0.1941926   -8.1965530   -37.6669300 -119.1996000   -33.6080800    7.0165800   -31.6783500   73.2191900
 		     -37.7098400 -119.5928000    -0.1868548   -8.2702950   -31.6793300   72.6543700   -34.4087300    6.5583410
    2739610000   -33.4470700    7.2897990   -31.4987400   72.5528800    -0.2174222   -8.4398910   -37.4204600 -120.0863000 
 		     -31.6663700   72.5073300   -33.7358000   13.5393400   -37.2652500 -119.3280000    -0.1866881   -8.3826230
 		      -0.1923195   -8.4101450   -37.2757300 -119.6561000   -33.8255800   10.6765800   -31.5443100   72.7262300
 		     -37.3763400 -119.4746000    -0.1999027   -8.3624100   -31.5465200   73.2049300   -34.1801300    9.3338130
    2809600000   -33.6022400    8.8957130   -31.3328500   72.8212400    -0.2064044   -8.6611420   -37.2546100 -119.4299000 
 		     -31.4082900   72.3683100   -34.2775800    8.9870440   -37.2293400 -119.0194000    -0.2047551   -8.5981720
 		      -0.2028677   -8.6380500   -37.3369600 -119.3186000   -33.6477900    7.8104870   -31.3298600   72.8983600
 		     -37.3914300 -118.0596000    -0.2076690   -8.5903140   -31.3183500   72.7495800   -34.2476600   11.5267100
    2879590000   -33.1799200    7.1383940   -31.2155100   72.3486600    -0.2110858   -8.7825020   -37.0574000 -119.3802000 
 		     -31.1212300   72.7506800   -33.9105400   11.3408100   -37.0252000 -119.6286000    -0.1986739   -8.8281510
 		      -0.2059489   -8.7945880   -37.3027800 -120.8289000   -33.3326700    6.4836720   -31.0393900   72.7735200
 		     -37.0595000 -119.0269000    -0.2013582   -8.7672950   -31.1153200   73.3000500   -34.3218100    8.0188440
    2949580000   -33.0311400    8.7585700   -30.9332900   72.3492100    -0.2201070   -9.0764450   -36.8618800 -120.0491000 
 		     -30.9528400   71.5916100   -33.5285900   10.8811800   -37.0926100 -119.7252000    -0.1931340   -9.0855960
 		      -0.2094409   -9.0439650   -37.0254500 -120.1259000   -33.6467100    8.8505370   -30.9515400   72.9857300
 		     -36.9460600 -120.3917000    -0.2143946   -9.0977060   -30.8982800   72.8416200   -33.7957600   10.3200100
    3019570000   -33.1854200    8.1106470   -30.8115900   71.5556900    -0.2178400   -9.2590680   -36.6627700 -118.4771000 
 		     -30.8275900   72.7756200   -33.7644000   11.1564800   -36.8283800 -118.8077000    -0.1968005   -9.3044820
 		      -0.2043054   -9.2261750   -36.7914100 -118.3651000   -34.0719200    7.8423790   -30.6674100   72.6562500
 		     -37.0307600 -120.4661000    -0.2118441   -9.2408380   -30.7055700   72.9060100   -34.2251600    9.2195500
    3089560000   -33.4726400    6.1107920   -30.5681400   72.4132100    -0.2160457   -9.4853620   -36.5131200 -118.8866000 
 		     -30.5989000   72.4671900   -33.7094900    9.4937320   -36.6466400 -119.2752000    -0.2072647   -9.4387080
 		      -0.2103130   -9.4895960   -36.7177700 -119.7625000   -33.7085900    5.5357460   -30.5306100   72.5689400
 		     -36.7139500 -118.9812000    -0.2113614   -9.4324950   -30.5120400   72.6200300   -34.0312200    9.8107750
    3159550000   -33.3052300    6.6049210   -30.3525200   71.9893200    -0.2238137   -9.6968540   -36.3275400 -120.3677000 
 		     -30.4629300   72.2342600   -33.5771800    9.8778480   -36.4504600 -119.4075000    -0.2064829   -9.6352850
 		      -0.2121420   -9.6772950   -36.4351900 -118.8967000   -33.8322500    6.7355220   -30.3818400   72.6575300
 		     -36.6639800 -119.3746000    -0.2132405   -9.6326130   -30.3480500   72.7977500   -33.8528500    8.4173400
    3229540000   -33.2833200   10.0468600   -30.1938200   71.7353600    -0.2197356   -9.8551320   -36.2567000 -119.5915000 
 		     -30.2760000   72.5781600   -33.5090100    8.7132810   -36.2813500 -119.8595000    -0.2147264   -9.8616390
 		      -0.2156357   -9.8570380   -36.4331300 -118.5598000   -33.5962200    5.2575420   -30.2111400   72.7613300
 		     -36.4743700 -119.2725000    -0.2117402   -9.8742530   -30.1913100   72.6847700   -33.8067500   10.7658900
    3299530000   -33.1874500    5.5568350   -30.0793300   72.1355400    -0.2199409  -10.1032800   -36.1324000 -118.8090000 
 		     -30.1431500   71.7846100   -33.7655000   10.2977100   -36.1836000 -119.1585000    -0.1954886  -10.0605800
 		      -0.2191319  -10.0349100   -35.9138100 -118.7248000   -33.9103200    6.6147010   -30.0670200   72.1169100
 		     -36.1075800 -118.3375000    -0.2162603   -9.9783830   -30.0599200   72.3093900   -34.1406900   10.4847500
    3369520000   -33.2452900    4.1802460   -29.9266200   71.5603900    -0.2219052  -10.3279400   -36.0248000 -119.0001000 
 		     -29.8972500   72.1977800   -33.3672400    8.1911990   -35.9865900 -118.7455000    -0.2190764  -10.2702200
 		      -0.2208962  -10.2529900   -35.8224600 -118.7385000   -33.6506600    6.6820370   -29.8649200   72.5632600
 		     -36.0255500 -119.0910000    -0.2220611  -10.2736500   -29.7955100   72.3392000   -34.0049600    8.7653200
    3439510000   -32.9814400    6.3156730   -29.8493000   71.5835500    -0.2224596  -10.5137300   -35.8695800 -119.2470000 
 		     -29.7968700   72.6880000   -33.9497900    8.6777160   -35.8344200 -118.7097000    -0.2126454  -10.4850900
 		      -0.2192096  -10.4575900   -36.1930400 -119.3152000   -33.6212200    5.8749120   -29.6606500   72.6129100
 		     -35.9261000 -119.4035000    -0.2117598  -10.4734400   -29.7137100   72.2964800   -33.6816600   10.3769600
    3509500000   -32.9137000    6.1830200   -29.5348200   72.4427600    -0.2258188  -10.7507100   -35.6738400 -119.2806000 
 		     -29.5684900   71.6900400   -34.0751100    7.2712170   -35.7307900 -119.1092000    -0.2133262  -10.6644900
 		      -0.2249927  -10.7121000   -35.6295400 -118.0329000   -33.3582000    8.8357170   -29.6256400   72.1374500
 		     -35.7000600 -119.6703000    -0.2335724  -10.6779400   -29.5661700   72.4108400   -33.8877700    9.9906030
    3579490000   -33.1235900    4.1829590   -29.4952500   71.5880100    -0.2382392  -10.8663100   -35.4502700 -119.0708000 
 		     -29.4338200   72.2260800   -33.0644000    9.5128990   -35.5701500 -119.4192000    -0.2293124  -10.9019600
 		      -0.2259941  -10.7982600   -35.6567500 -120.4034000   -33.8652300    6.3694200   -29.3978400   72.1445800
 		     -35.6719900 -118.0733000    -0.2227272  -10.9239300   -29.3501900   72.8842800   -33.7844400   10.0656300
    3649480000   -32.9805900    5.4124290   -29.2439700   71.8745400    -0.2404208  -11.1548300   -35.3448000 -119.1417000 
 		     -29.3164600   72.1453500   -33.5328200    9.5727650   -35.5765800 -119.2697000    -0.2201021  -11.0448000
 		      -0.2321189  -11.0605200   -35.4606700 -119.0050000   -33.2993500    8.5937250   -29.2471200   71.8223900
 		     -35.3965500 -118.3769000    -0.2162516  -11.0235500   -29.2197900   72.3002700   -33.5578000    8.0235350
    3719470000   -33.1792100    4.3828440   -29.1820800   72.1360400    -0.2572177  -11.2871300   -35.1735300 -118.9647000 
 		     -29.1603400   71.7992600   -33.1659300    7.4278270   -35.3264100 -119.1222000    -0.2390755  -11.2398800
 		      -0.2290515  -11.3037200   -35.2091900 -118.9047000   -34.0859800    7.3215060   -29.0559200   71.9491300
 		     -35.2972600 -118.4771000    -0.2203289  -11.2515500   -29.0440800   71.7923000   -33.6114900    9.8716790
    3789460000   -33.0162900    5.3392900   -28.9555200   71.5354500    -0.2467956  -11.3915700   -35.1636500 -119.3382000 
 		     -28.9558800   71.5295800   -33.3695000    8.7725260   -35.1881800 -118.5332000    -0.2428009  -11.3449900
 		      -0.2352727  -11.5506300   -35.1891800 -119.6751000   -33.2668000    4.9671510   -28.9141100   72.3475400
 		     -35.1821200 -118.4409000    -0.2231918  -11.4606100   -28.8873900   71.7987400   -34.0490300    8.3706130
    3859450000   -33.0999500    2.6218140   -28.8613900   71.6213000    -0.2339852  -11.5336500   -35.0412400 -117.5830000 
 		     -28.7835100   71.4155700   -32.9609300    8.5768130   -35.0243000 -118.6789000    -0.2056346  -11.4648200
 		      -0.2394262  -11.6216400   -35.0436200 -118.8874000   -33.5139000    9.9357190   -28.7764200   71.8371800
 		     -34.9700200 -119.1545000    -0.2265327  -11.5342000   -28.7790500   72.4169800   -33.6220200   10.7778400
    3929440000   -33.0334100    4.7521210   -28.5895000   71.0972500    -0.2290054  -11.8444400   -34.8705800 -120.0547000 
 		     -28.6195600   71.5670000   -33.4530300    9.2424460   -34.9008700 -118.6550000    -0.2135396  -11.7925600
 		      -0.2308144  -11.8484400   -34.8330900 -119.0501000   -33.7937200    5.3017400   -28.6376000   71.7390700
 		     -35.0959100 -118.4197000    -0.2216554  -11.8921300   -28.6208200   71.9371400   -33.6912800   11.1664000
    3999430000   -32.7631900    5.1105910   -28.5063600   71.2754700    -0.2392607  -12.1554100   -34.6829200 -119.2017000 
 		     -28.5807100   71.2944900   -33.1936700    7.7158100   -34.7414900 -119.3951000    -0.2218107  -12.0276100
 		      -0.2428551  -12.0972700   -34.9947600 -119.2296000   -32.9034300    3.6825300   -28.4798500   72.1929800
 		     -34.6977000 -119.1205000    -0.2249870  -12.0621200   -28.4788600   71.7352700   -33.3977100    8.3219770
    4069420000   -33.3049900    3.6787880   -28.3282500   72.1247600    -0.2408274  -12.3158800   -34.6151400 -119.2253000 
 		     -28.4711900   71.4234200   -33.6527100    5.1033220   -34.5362800 -119.6599000    -0.2293402  -12.3044500
 		      -0.2412245  -12.2825100   -34.6558600 -120.0650000   -32.7921200    7.2344880   -28.2892800   71.9439200
 		     -34.7339400 -119.6502000    -0.2271357  -12.3335000   -28.2852100   71.4013800   -33.6955100    7.0698100
    4139410000   -32.4795500    6.0795350   -28.2776600   71.8828400    -0.2490010  -12.5663100   -34.4264600 -119.4216000 
 		     -28.3085300   71.0898000   -33.0840500    8.7881310   -34.3442000 -119.0234000    -0.2345704  -12.4068400
 		      -0.2518376  -12.4680300   -34.4778700 -118.9571000   -33.2588700    7.3480830   -28.1625300   71.7540700
 		     -34.4495700 -119.7161000    -0.2407839  -12.4831700   -28.2109000   71.4658300   -33.5752600    9.0023580
    4209400000   -32.6793100    5.9332330   -28.2687800   71.0430200    -0.2377563  -12.7257300   -34.3923100 -120.0076000 
 		     -28.1553700   70.8687500   -33.0843800    9.2024770   -34.4214200 -119.8120000    -0.2397399  -12.7487200
 		      -0.2480827  -12.6979900   -34.4420000 -120.8405000   -33.3297000    5.0424740   -28.0552000   71.4357800
 		     -34.4077200 -118.4268000    -0.2320386  -12.6538800   -28.0194300   71.5091600   -33.5791700    8.3587200
    4279390000   -33.4726800    5.0794880   -28.0255400   71.0631900    -0.2436658  -12.9457100   -34.2317400 -119.9672000 
 		     -28.0160400   70.3058500   -33.1997300    2.4450540   -34.3131300 -119.1922000    -0.2412866  -12.9015900
 		      -0.2519898  -12.9127700   -34.4623900 -120.3218000   -33.3975300    5.9054810   -27.9446300   71.3664400
 		     -34.1511700 -118.6012000    -0.2330393  -12.8956300   -27.8962200   70.9475600   -33.5952100    7.1098210
    4349380000   -32.7202900    2.3087860   -27.9707200   70.2627600    -0.2490410  -13.1349200   -34.1771100 -119.3578000 
 		     -27.9177100   70.5433300   -33.0778600    6.1998290   -33.9911600 -119.8267000    -0.2451588  -13.1196000
 		      -0.2546790  -13.0783700   -34.1028700 -119.4355000   -33.2053700    5.9763570   -27.7696200   71.5954200
 		     -34.1172300 -120.3002000    -0.2373402  -13.0554400   -27.7460600   71.2266000   -33.3167700    9.4735950
    4419370000   -32.9925100    3.8551150   -27.7917700   70.8919300    -0.2588410  -13.3473500   -33.8774500 -119.2573000 
 		     -27.7344100   70.5306900   -33.3109400    7.2078690   -33.8625100 -120.1028000    -0.2380215  -13.3586300
 		      -0.2619595  -13.3685200   -33.9671200 -118.7975000   -33.3880300    7.4906490   -27.6647900   71.3836300
 		     -34.0009500 -119.7827000    -0.2434347  -13.3208200   -27.6498600   70.7406900   -33.7375000    8.6075150
    4489360000   -33.0321200    6.7687060   -27.5538300   70.3774600    -0.2660381  -13.6486500   -33.7365900 -119.0292000 
 		     -27.6390600   70.1636200   -33.2981100    6.8112330   -33.7477000 -119.6215000    -0.2447948  -13.4404400
 		      -0.2594405  -13.5193200   -33.9563900 -119.7282000   -33.3363800    7.1118210   -27.5554800   70.7382500
 		     -33.9530600 -119.9776000    -0.2402228  -13.4669000   -27.5376800   71.1555600   -33.4470100    7.2170620
    4559350000   -32.8936500    3.6616750   -27.5581900   70.1739800    -0.2675389  -13.7216200   -33.6142700 -119.6041000 
 		     -27.6140600   70.3467300   -33.1100700    4.7180950   -33.7485700 -119.3469000    -0.2470608  -13.6980900
 		      -0.2662509  -13.7019000   -33.7877600 -120.3808000   -33.3744500    3.3392700   -27.3945700   70.9676500
 		     -33.8811800 -120.3006000    -0.2376775  -13.6839900   -27.4703800   71.2530800   -33.5463400    9.7805140
    4629340000   -32.8474300    0.8147309   -27.4000700   70.6971700    -0.2629332  -13.9287000   -33.6468900 -120.8920000 
 		     -27.3749600   69.9157400   -33.0017100    3.8911640   -33.5119100 -119.6492000    -0.2459200  -13.9137700
 		      -0.2601056  -13.8927600   -33.7063900 -118.7894000   -33.3254400    5.5089100   -27.3114100   70.8980200
 		     -33.6921200 -120.0828000    -0.2478783  -13.8087100   -27.3048600   70.7770400   -33.3013300    4.6218640
    4699330000   -32.8054000    4.3166390   -27.3105100   70.6772500    -0.2716669  -14.1516500   -33.4942500 -119.3097000 
 		     -27.3492900   70.4434900   -33.3222300    2.3159710   -33.5531400 -119.6290000    -0.2451840  -14.0944600
 		      -0.2709813  -14.0988600   -33.8508700 -119.6187000   -33.3508000    5.3859520   -27.1761400   70.7134800
 		     -33.4511000 -120.5610000    -0.2419565  -14.0712400   -27.1454000   70.3867500   -33.3794800    7.4634470
    4769320000   -32.8839300    6.6152330   -27.1972700   69.3504500    -0.2751664  -14.3227900   -33.4340600 -120.1808000 
 		     -27.2002700   69.4785400   -33.4404300    4.7014680   -33.3087500 -120.4682000    -0.2546033  -14.3653200
 		      -0.2662193  -14.2998200   -33.3595200 -119.1528000   -33.2601000    4.0450190   -27.0585700   71.0203200
 		     -33.4433500 -119.8512000    -0.2476958  -14.3074500   -27.0672500   70.7022500   -33.0289400    7.7252040
    4839310000   -32.4278800    0.7703577   -27.0961500   69.4618800    -0.2667414  -14.6013000   -33.2723900 -120.3441000 
 		     -27.0627900   69.3905400   -32.9287800    6.8900320   -33.2656300 -120.2982000    -0.2571788  -14.5379300
 		      -0.2681928  -14.5174100   -33.3423200 -121.8286000   -33.2790200    6.6641730   -27.0295100   69.8252000
 		     -33.3628400 -121.0721000    -0.2515770  -14.5236000   -26.9607500   69.9301100   -33.1155400    9.2718350
    4909300000   -32.5092300    2.4551860   -26.9198600   70.0396700    -0.2733223  -14.7321100   -33.0645100 -119.4268000 
 		     -26.9338500   69.6622200   -32.2322800    5.6735070   -33.1073800 -120.2408000    -0.2572452  -14.7296200
 		      -0.2684827  -14.7368700   -33.2032500 -120.1161000   -33.0466600    3.9434730   -26.8548000   70.0690500
 		     -33.1778400 -120.3616000    -0.2602084  -14.7316400   -26.8336900   69.9484300   -33.6187300   10.0030900
    4979290000   -33.1816400    3.1878220   -26.7960600   69.1668300    -0.2610459  -14.9603200   -33.1935700 -120.9875000 
 		     -26.8006800   69.4563500   -32.7125600    3.6796150   -33.1867200 -121.3448000    -0.2657412  -14.8934400
 		      -0.2576204  -14.8839200   -32.9787800 -121.2141000   -32.8267700    5.9348220   -26.7230300   70.2305900
 		     -32.9466400 -119.7508000    -0.2661257  -14.9163200   -26.7439300   69.9060800   -33.4354600    9.3659270
    5049280000   -32.5668900    0.4267492   -26.8043000   70.1174100    -0.2792817  -15.1003800   -32.9554600 -119.8484000 
 		     -26.8233700   69.4517400   -32.6902700    2.4013500   -32.8961500 -120.8143000    -0.2520261  -15.1571800
 		      -0.2787631  -15.1271900   -33.0957700 -120.3075000   -32.9205600    6.7192540   -26.6631500   70.1159300
 		     -33.0972600 -120.2347000    -0.2495726  -15.1093600   -26.6134300   69.8476400   -33.0341300    9.2213930
    5119270000   -32.5692600   -0.0070995   -26.5956200   69.5944400    -0.2717269  -15.3703500   -32.7402600 -120.0369000 
 		     -26.5798700   69.0598300   -33.0006000    8.6385560   -32.8130700 -121.4534000    -0.2560240  -15.3024300
 		      -0.2854744  -15.3876600   -32.8396300 -120.7175000   -33.3396800    5.0881070   -26.4807700   69.9689000
 		     -32.6979000 -120.0034000    -0.2625155  -15.1963600   -26.4545200   69.3514000   -33.1786000    4.9105710
    5189260000   -32.3176400    0.7261095   -26.6356800   69.4522900    -0.2781390  -15.5767500   -32.7428700 -121.0725000 
 		     -26.5509300   69.0755100   -32.7033200    5.8216230   -32.8438800 -121.9449000    -0.2665938  -15.4388000
 		      -0.2734416  -15.5154000   -32.7653300 -120.7567000   -33.1431100    2.5465470   -26.4075300   69.7052500
 		     -32.8716300 -119.9777000    -0.2613313  -15.4812100   -26.4386700   69.7255300   -33.5452400    9.2368990
    5259250000   -32.3896900   -0.3191685   -26.3956000   68.9892000    -0.2786033  -15.6750500   -32.6325800 -120.9847000 
 		     -26.4157400   69.1595800   -32.8857900    3.4478400   -32.5326000 -121.6410000    -0.2668650  -15.7333100
 		      -0.2814396  -15.7407700   -32.6563900 -120.8236000   -33.2806500    2.2815470   -26.2266700   69.6223000
 		     -33.0407300 -120.3556000    -0.2620310  -15.6782100   -26.3136700   69.3078700   -33.2408000    9.2767070
    5329240000   -32.6769400    0.5347713   -26.2974100   68.6533900    -0.2853918  -15.9515200   -32.6341900 -121.0218000 
 		     -26.2763200   69.0394300   -33.2685300    4.8488250   -32.6597500 -121.6173000    -0.2669280  -15.8604600
 		      -0.2852527  -15.8891700   -32.4971500 -120.1435000   -33.0628100    3.6790440   -26.2600900   69.5430400
 		     -32.7354800 -121.4410000    -0.2635391  -15.9072400   -26.1910800   69.2036700   -33.3574100    5.0713900
    5399230000   -32.4328900    2.3281730   -26.2597600   68.8485100    -0.2837265  -16.2160700   -32.5316200 -120.7458000 
 		     -26.2320000   68.7698400   -32.6216000    6.1377400   -32.4739400 -121.4443000    -0.2624038  -16.1137800
 		      -0.2798858  -16.1240800   -32.7114900 -119.9686000   -33.2946500    3.3952150   -26.1177300   69.1386600
 		     -32.5971200 -121.3561000    -0.2604475  -16.1523700   -26.1147600   68.8873300   -33.0975600    9.0505950
    5469220000   -32.2659500    3.3877510   -26.0299600   68.2034900    -0.2818846  -16.3966900   -32.2359000 -121.1762000 
 		     -26.1615600   68.4359900   -32.3146800    5.3696230   -32.4683200 -121.9429000    -0.2737647  -16.2829200
 		      -0.2829902  -16.3447900   -32.3302900 -121.9448000   -33.2360600    4.8998110   -25.9688900   68.7898900
 		     -32.4704400 -121.8567000    -0.2809828  -16.2486000   -26.0177200   69.0529100   -32.9966700    6.5012020
    5539210000   -32.5878000    1.6787190   -25.9857900   67.7521700    -0.2810121  -16.4559400   -32.3126500 -121.7684000 
 		     -26.1006700   68.3872100   -32.6304200    4.1345970   -32.3380200 -120.9357000    -0.2671986  -16.5185100
 		      -0.2828429  -16.4696900   -32.4216600 -122.1481000   -33.0193000    4.3729210   -25.8993100   68.8942000
 		     -32.4797900 -120.7302000    -0.2730543  -16.4885000   -25.8996700   68.5966600   -33.1293200    6.1089830
    5609200000   -32.3720600   -0.0076924   -26.0005600   68.8315700    -0.2925930  -16.7571600   -32.1874900 -121.3550000 
 		     -25.9180900   68.1290100   -32.6082200    1.5013400   -32.3476300 -121.0406000    -0.2736693  -16.7207300
 		      -0.2905225  -16.7121400   -32.3023400 -122.2150000   -33.1600000    1.9079920   -25.8279000   68.5847800
 		     -32.4094200 -121.7849000    -0.2809831  -16.6223700   -25.7794000   68.6994600   -33.1124900    4.0871000
    5679190000   -32.4127500    2.0187700   -25.8350800   67.6613800    -0.2889120  -17.0251200   -32.0354300 -122.2577000 
 		     -25.8662100   67.9910700   -32.7654700    4.4170290   -32.2496900 -122.7093000    -0.2738000  -16.8865400
 		      -0.2931900  -16.9273000   -32.2035700 -121.7219000   -33.0216400    2.7154910   -25.7341900   68.1365700
 		     -32.0553700 -122.1399000    -0.2762738  -16.8599000   -25.7117500   68.4166800   -33.3638500    7.0474090
    5749180000   -32.4875700    2.7092570   -25.8035200   67.2850800    -0.2904655  -17.1934600   -31.9955900 -121.6286000 
 		     -25.7099700   67.6903800   -32.8101700    6.3033610   -32.0959500 -122.4899000    -0.2750963  -17.0902000
 		      -0.2909704  -17.1541400   -31.9246100 -122.9358000   -32.8770000    4.0465070   -25.6422400   68.1695500
 		     -31.8864200 -121.6681000    -0.2748048  -17.0765000   -25.6441200   68.0802200   -33.2933300    5.8872800
    5819170000   -32.4871200    2.1296000   -25.6330100   68.2198600    -0.3022343  -17.2897700   -31.8198600 -121.1796000 
 		     -25.6014300   67.3697200   -33.1473700   -0.2535771   -31.8826800 -121.6976000    -0.2805716  -17.3521000
 		      -0.2954413  -17.3199200   -31.9655100 -120.5708000   -33.2133200    3.3386060   -25.5106300   68.2903800
 		     -31.9503800 -122.4422000    -0.2769712  -17.3261100   -25.5149300   67.8989600   -33.0563300    6.1860810
    5889160000   -32.2795400    0.2542659   -25.5504500   67.9083700    -0.3045285  -17.5318600   -31.6786800 -121.8987000 
 		     -25.5635400   67.7664200   -32.7628900    3.8822690   -31.9753600 -123.1298000    -0.2846781  -17.4487900
 		      -0.2951500  -17.5897600   -31.7657700 -121.8948000   -33.0676300    2.6555600   -25.3880300   67.8599900
 		     -31.7389500 -122.4169000    -0.2831930  -17.5216800   -25.4531500   67.7083600   -33.3118700    6.0731310
    5959150000   -32.2495200   -0.9697495   -25.5687300   67.2410000    -0.2958486  -17.7376500   -31.8149600 -122.9800000 
 		     -25.4889200   67.2620900   -32.4882100    4.0410860   -31.8140300 -122.9988000    -0.2889344  -17.6991000
 		      -0.2936833  -17.6982000   -31.7721100 -121.2680000   -33.0873000    2.9562200   -25.3504600   67.7273900
 		     -31.5897000 -121.8549000    -0.2851126  -17.7344200   -25.3119600   67.2832900   -33.0422000    3.7212800
    6029140000   -32.5608600    1.0369210   -25.3371400   67.6011400    -0.3049437  -17.9801900   -31.6298600 -123.1037000 
 		     -25.4444400   67.2796500   -33.5795400    2.3953430   -31.7139100 -123.3061000    -0.2779332  -17.8475600
 		      -0.3032981  -17.9657800   -31.7457700 -122.9127000   -32.9531500    2.2323030   -25.2625900   67.1675800
 		     -31.6490700 -123.1372000    -0.2800031  -17.8709000   -25.2551100   67.2247200   -32.6780000    4.0611440
    6099130000   -32.3385800   -2.2215760   -25.3982500   67.0035100    -0.3047535  -18.2200900   -31.6177600 -122.3495000 
 		     -25.3224500   67.4197400   -32.9698200    1.6033770   -31.6024700 -122.5749000    -0.2771221  -18.0987500
 		      -0.3077601  -18.1496300   -31.5208900 -123.3521000   -33.0768300    2.6191560   -25.1777500   67.0549900
 		     -31.4725600 -123.3876000    -0.2882218  -18.0832200   -25.1607800   66.8456200   -32.9798000    7.1648770
    6169120000   -32.6281500    1.0502720   -25.1805100   66.8489700    -0.2889712  -18.3208700   -31.4722200 -122.5701000 
 		     -25.2646800   66.6511300   -33.0976600    2.0716230   -31.3825900 -122.6499000    -0.2927788  -18.2290600
 		      -0.2999088  -18.3352400   -31.5549700 -123.2840000   -33.1657200    3.1496840   -25.0836800   66.7858400
 		     -31.4102200 -123.0481000    -0.2842779  -18.2554200   -25.1193100   67.2399100   -32.8718600    6.7639960
    6239110000   -32.4762000   -1.0161040   -25.1160300   66.4999200    -0.3025371  -18.4749500   -31.3919300 -122.0613000 
 		     -25.1408200   66.8064800   -32.7162200   -0.2640839   -31.4600300 -123.1010000    -0.2975199  -18.5316700
 		      -0.3073061  -18.4729400   -31.4237100 -123.4111000   -32.8759600    1.2365380   -24.9857300   66.8740500
 		     -31.4756700 -121.9718000    -0.2867529  -18.5333900   -25.0403600   67.1563900   -32.9773300    2.8883220
    6309100000   -32.6774700   -0.9305065   -25.0101000   66.4272800    -0.3114187  -18.7015800   -31.2690500 -124.1673000 
 		     -25.0666100   66.6975400   -33.0806400    2.5618840   -31.3542600 -122.7943000    -0.2860337  -18.7265200
 		      -0.3052966  -18.7372800   -31.3227600 -123.8590000   -33.0005700    2.4260030   -24.9754500   66.4855900
 		     -31.2203800 -123.1865000    -0.2932423  -18.6385600   -24.9424000   67.0194200   -32.8697400    5.1619310
    6379090000   -32.7188000   -1.2917390   -25.0066100   65.7477400    -0.3122424  -18.8871600   -31.1894800 -123.4777000 
 		     -25.0544200   66.1928300   -32.9641600    2.4240470   -31.3561800 -123.4361000    -0.2882331  -18.8928200
 		      -0.3027335  -18.9022700   -31.3816000 -123.1642000   -32.9560300    1.0880570   -24.8480900   66.4020900
 		     -31.2749500 -123.5296000    -0.2876296  -18.9091200   -24.8723400   66.7584800   -33.1557200    4.6229570
    6449080000   -32.2473600   -0.6250263   -24.8803400   66.3960300    -0.3164981  -19.1954800   -31.1485700 -122.6614000 
 		     -24.8936200   66.1695600   -32.9572100    1.3279500   -31.2732600 -123.5978000    -0.2905494  -19.0822200
 		      -0.3186685  -19.1094600   -31.1318100 -123.4989000   -33.0128100    0.8591350   -24.7512600   66.2370300
 		     -31.1659800 -122.7934000    -0.2872537  -18.9906400   -24.7861000   66.3705200   -32.7727900    4.0049640
    6519070000   -32.0083200    0.8685578   -24.8010100   66.4629500    -0.2996200  -19.3734400   -31.1254400 -123.5093000 
 		     -24.9025000   65.8390300   -32.3265600    2.6457420   -31.1472500 -123.8775000    -0.3005342  -19.1621900
 		      -0.3068832  -19.3182600   -31.2371800 -123.7997000   -33.2409600    1.3812840   -24.6972900   66.4589200
 		     -31.2402100 -123.3918000    -0.2960157  -19.2258600   -24.6975800   66.2639600   -33.0730100    2.2589610
    6589060000   -32.4434200   -2.4175590   -24.8183300   65.8113300    -0.3064748  -19.4914600   -30.9204300 -123.7024000 
 		     -24.7799600   66.1041700   -32.4469800   -0.9010607   -31.0592700 -123.2771000    -0.2990373  -19.4788900
 		      -0.3192011  -19.4959600   -31.1764700 -122.9373000   -32.7361600    0.0240603   -24.6109300   66.3544200
 		     -31.0847500 -124.5256000    -0.2965334  -19.4484200   -24.6124200   66.2326500   -33.0564500    4.0734850
    6659050000   -32.2691900   -1.3245560   -24.6422900   65.6591900    -0.3273512  -19.7847500   -30.9148600 -123.4327000 
 		     -24.6908400   65.5492800   -32.7412900    2.0566220   -30.9198800 -124.1904000    -0.3061029  -19.7080600
 		      -0.3148958  -19.6884100   -30.9658700 -124.1813000   -33.0659400    1.6417930   -24.4828400   65.7173000
 		     -30.9153800 -124.1554000    -0.3139938  -19.6679200   -24.5386200   65.9143400   -32.8813400    4.3301010
    6729040000   -31.7645100   -1.7534350   -24.6638500   65.8443800    -0.3162083  -19.8747900   -30.8822500 -124.3399000 
 		     -24.6350700   65.4671000   -32.6209800   -0.2136833   -30.8907600 -123.1387000    -0.3119521  -19.9062900
 		      -0.3161743  -19.8471000   -30.9414800 -125.3969000   -33.1909400    0.7855659   -24.4344800   65.4619800
 		     -30.9072200 -124.4964000    -0.3086510  -19.8246000   -24.4845300   65.9871100   -32.8205200    3.9907350
    6799030000   -31.4975000   -4.1435660   -24.4976500   65.6278400    -0.3351357  -20.2192400   -30.8093600 -123.6583000 
 		     -24.5521200   65.4330800   -32.6143600   -2.2665430   -30.8713500 -123.9362000    -0.2945619  -20.0897800
 		      -0.3306679  -20.1406300   -30.8391900 -123.8033000   -33.0894700    1.2681990   -24.4060000   65.4699500
 		     -30.8738000 -123.9606000    -0.3092694  -20.0602000   -24.4203500   65.2949400   -33.0053900    2.9652830
    6869020000   -32.1198700   -0.8768051   -24.4484300   65.2015400    -0.3245572  -20.2503800   -30.7538500 -124.6798000 
 		     -24.4608300   65.2302200   -32.6384300   -1.6332680   -30.6735800 -124.0597000    -0.3079654  -20.3070700
 		      -0.3200774  -20.2206200   -30.6570100 -124.8262000   -33.2167100    0.3361384   -24.3385400   65.1883900
 		     -30.6902900 -125.3001000    -0.3060184  -20.2856200   -24.3408900   65.5420000   -32.8713200    6.0076780
    6939010000   -31.6376800   -4.4936990   -24.3439300   65.3599600    -0.3241659  -20.4842000   -30.7479900 -124.2876000 
 		     -24.4271200   65.1332600   -32.5310700    1.0299020   -30.6289200 -124.0524000    -0.3106286  -20.4205800
 		      -0.3131552  -20.4341400   -30.5780400 -124.8950000   -33.2229200    1.9650150   -24.3113300   65.1014100
 		     -30.7025800 -124.9556000    -0.3063204  -20.3690500   -24.2830500   64.9883900   -33.3607000    2.0764780
    7009000000   -31.8624000   -1.9550130   -24.3553400   64.7039600    -0.3236599  -20.7434500   -30.5446100 -124.5878000 
 		     -24.3690700   64.7756100   -32.6666000    0.9463200   -30.6370400 -124.4134000    -0.3097087  -20.6725500
 		      -0.3227338  -20.7246600   -30.5669100 -124.3315000   -32.9689100    1.2992140   -24.2175600   64.8264500
 		     -30.4971500 -124.9814000    -0.3117849  -20.6514400   -24.2315100   64.7006000   -33.0139400    3.1467770
    7078990000   -31.8985400   -1.6832790   -24.2738600   65.0894500    -0.3287459  -20.7977100   -30.4893800 -125.2328000 
 		     -24.2966100   64.7853500   -32.2104900   -0.3152968   -30.5195900 -124.5735000    -0.3179052  -20.7940400
 		      -0.3292516  -20.8071000   -30.5460300 -124.8193000   -32.6773400   -1.6611290   -24.1165700   64.5704300
 		     -30.4858000 -124.3548000    -0.3097512  -20.7886300   -24.1356600   64.9230800   -32.8380600    3.3386720
    7148980000   -32.0401000   -4.3565970   -24.1580900   64.5443300    -0.3407791  -21.2070900   -30.4418700 -125.0097000 
 		     -24.1872900   64.8756100   -32.6967600    1.0529740   -30.4095400 -125.0066000    -0.3029983  -21.0728100
 		      -0.3251692  -21.1337600   -30.4322900 -125.1306000   -32.6144900   -1.7706890   -24.0815400   64.4602700
 		     -30.4431900 -123.9655000    -0.3212680  -21.0019900   -24.0263900   64.4256100   -33.2003800    1.3886460
    7218970000   -32.2559800   -1.9380180   -24.1701200   64.4651100    -0.3388902  -21.2445900   -30.4384100 -124.7534000 
 		     -24.1732700   64.3858600   -32.3840000   -2.4502090   -30.2861300 -124.4433000    -0.3157208  -21.1543500
 		      -0.3326645  -21.2271700   -30.4539500 -125.8934000   -32.9340200   -1.1855850   -24.0141400   64.7200600
 		     -30.5337800 -124.8216000    -0.3201136  -21.2594900   -23.9770200   64.6456100   -32.4937300    1.1534480
    7288960000   -32.0456400   -2.0374000   -24.1001500   64.2813700    -0.3311964  -21.4607500   -30.3430500 -125.2389000 
 		     -24.1190600   64.2861700   -32.3550000   -0.0626951   -30.3613900 -125.0165000    -0.3179972  -21.3972500
 		      -0.3310070  -21.4928900   -30.4359000 -126.4527000   -32.6241700   -0.9225129   -23.9058900   64.0391800
 		     -30.3031000 -124.8361000    -0.3129493  -21.3952400   -23.9218600   64.3284400   -33.1238300    0.4386244
    7358950000   -31.9652600   -6.2454510   -24.0172100   63.9730000    -0.3334571  -21.6254600   -30.2040700 -124.7321000 
 		     -24.0849000   64.3380700   -32.6560100   -0.1102196   -30.1945300 -124.8339000    -0.3154503  -21.6792700
 		      -0.3414820  -21.6419900   -30.0457100 -125.7709000   -32.8821300   -0.0233186   -23.9117700   64.2093100
 		     -30.3004600 -124.9171000    -0.3136757  -21.6139400   -23.8403100   64.3466500   -33.0782200    3.4963760
    7428940000   -32.0339500   -3.2821700   -23.9674300   63.5289900    -0.3481578  -21.8641600   -30.1031900 -125.5626000 
 		     -24.0087900   64.1023400   -32.5514800    1.1594060   -30.1430400 -125.5367000    -0.3081855  -21.8146900
 		      -0.3315342  -21.8496900   -29.9821500 -126.0338000   -33.2872500    0.6318026   -23.8301700   63.6965000
 		     -30.2658100 -125.4904000    -0.3217315  -21.7685300   -23.8075300   64.0023200   -32.7820200    0.7622817
    7498930000   -32.4859100   -3.9047420   -23.8533200   63.7579500    -0.3434878  -22.0575200   -30.0880900 -125.9015000 
 		     -23.9126000   63.8921000   -32.1896100   -0.7780265   -30.1949300 -125.9855000    -0.3195630  -22.0212900
 		      -0.3371100  -22.0549400   -30.2193200 -125.1328000   -32.6481400   -2.7358810   -23.7710000   63.8218200
 		     -30.1008200 -125.4569000    -0.3263442  -21.9829300   -23.7537600   63.7664000   -32.9292400    4.1492690
    7568920000   -32.4237500   -5.5266390   -23.7620700   63.9160400    -0.3364018  -22.2930500   -30.0550800 -125.1901000 
 		     -23.8258300   63.2593300   -32.2589900   -2.4929970   -30.0348500 -126.1327000    -0.3135926  -22.2834400
 		      -0.3446066  -22.2529300   -30.0747800 -126.1918000   -33.0936900   -3.0709740   -23.7062100   63.2357100
 		     -29.9808300 -125.7322000    -0.3227243  -22.2560000   -23.6988200   63.4711200   -33.3958700   -1.0970870
    7638910000   -32.0868300   -5.9333280   -23.7426900   63.4816200    -0.3483286  -22.4263400   -30.0699400 -125.5884000 
 		     -23.8128800   63.3314600   -32.6991200    0.1333126   -29.9443300 -125.5806000    -0.3212936  -22.4469100
 		      -0.3428387  -22.4640600   -29.9331200 -125.0689000   -33.1276700   -4.3640340   -23.6344500   63.2862600
 		     -30.0109000 -125.3181000    -0.3257033  -22.4094700   -23.6135300   63.4372100   -32.7039000    0.4273660
    7708900000   -32.0227200   -6.6850640   -23.6239900   63.0995800    -0.3436472  -22.6274800   -29.8977400 -125.6227000 
 		     -23.7145300   63.1218800   -32.6602500   -3.0174940   -29.8786300 -125.2660000    -0.3298193  -22.5428900
 		      -0.3338957  -22.6660400   -30.1349000 -125.2190000   -33.1845800   -2.7767870   -23.6094200   63.1810600
 		     -29.9306400 -126.0550000    -0.3264380  -22.5298200   -23.5695200   63.1537600   -32.9102900    0.0195244
    7778890000   -32.1822800   -6.0456790   -23.6330900   62.6142200    -0.3551538  -22.8413900   -29.7228000 -125.8163000 
 		     -23.6288100   63.1834800   -32.5099100   -2.6042330   -29.9342200 -126.3192000    -0.3314004  -22.8260900
 		      -0.3528705  -22.8498600   -29.9544400 -126.2990000   -32.9330400   -2.1907620   -23.5125700   63.0234100
 		     -29.8957500 -126.1601000    -0.3316116  -22.9027600   -23.5368300   63.0915900   -33.1394800   -1.0681200
    7848880000   -31.7965600   -5.0116650   -23.5125700   62.6638900    -0.3476575  -23.0291200   -29.7785300 -125.9156000 
 		     -23.5294700   62.8128500   -32.8253500   -0.2118465   -29.6476500 -125.5867000    -0.3284996  -23.0056800
 		      -0.3406979  -22.9952900   -29.7418200 -126.2145000   -33.2569400   -3.0691030   -23.4249100   62.8519900
 		     -29.7660600 -125.1757000    -0.3319025  -22.9934400   -23.4523700   63.0386000   -32.9572200   -0.9979955
    7918870000   -32.0636600   -6.5387670   -23.4717600   62.6949300    -0.3487794  -23.1935900   -29.7509500 -126.3597000 
 		     -23.4718100   62.5880700   -32.3668200   -3.1125610   -29.6893100 -126.0835000    -0.3303679  -23.2193600
 		      -0.3549114  -23.2543000   -29.8067900 -126.0984000   -33.1645300   -1.8346010   -23.4142100   62.6543000
 		     -29.6588900 -126.3905000    -0.3290287  -23.1457600   -23.4271100   62.6470800   -32.7868900   -0.3702433
    7988860000   -32.2671500   -5.0295420   -23.4417700   62.5076800    -0.3484279  -23.4392400   -29.6046400 -126.1111000 
 		     -23.4362600   62.4866900   -32.3707200   -0.7505831   -29.5291000 -126.2486000    -0.3331226  -23.3610300
 		      -0.3415649  -23.4086200   -29.5061100 -126.8157000   -32.6519700   -4.5286830   -23.3682000   62.5165900
 		     -29.5677600 -126.2314000    -0.3248559  -23.4198900   -23.3416900   62.6498600   -33.0652300   -0.5838319
    8058850000   -31.9485400   -8.3433230   -23.3349800   62.6138000    -0.3464510  -23.5623500   -29.5504000 -125.7577000 
 		     -23.3916900   62.4461700   -32.4599800   -1.9091120   -29.4846700 -126.5402000    -0.3427899  -23.5793100
 		      -0.3498423  -23.5559100   -29.5299000 -127.1929000   -33.3027800   -3.9171940   -23.2707800   62.5456700
 		     -29.6113900 -126.2328000    -0.3346366  -23.5816600   -23.2757300   62.4970800   -32.8106800   -2.0611360
    8128840000   -31.6913800   -7.0634980   -23.3456600   62.9547200    -0.3557508  -23.8893400   -29.5574100 -126.2819000 
 		     -23.3504100   62.1074200   -32.4075500   -0.7869923   -29.4829900 -126.6676000    -0.3390203  -23.7302100
 		      -0.3519458  -23.8345200   -29.6195200 -125.7275000   -32.9363600   -1.7663200   -23.2500200   62.0390300
 		     -29.6015400 -125.9851000    -0.3306941  -23.7529200   -23.2372900   62.3351200   -32.9737800   -2.2813930
    8198830000   -32.1026300   -3.7337530   -23.3181200   61.9136500    -0.3598192  -24.0162300   -29.4026800 -126.8154000 
 		     -23.3174700   62.0644000   -32.9762300   -2.9895670   -29.4957300 -127.1884000    -0.3406605  -23.9196700
 		      -0.3573981  -24.0025600   -29.5319200 -126.4823000   -32.8271600   -6.2911930   -23.1906500   61.9927500
 		     -29.4805000 -126.6437000    -0.3375543  -23.9924200   -23.1838200   61.9748500   -32.7100300   -0.5309207
    8268820000   -31.7975000   -6.5616790   -23.2400500   62.2571100    -0.3474477  -24.1546000   -29.3937500 -127.2173000 
 		     -23.2567500   61.8100700   -32.9391600   -8.7415710   -29.3810200 -126.8335000    -0.3419625  -24.1627100
 		      -0.3622722  -24.1549300   -29.3844700 -126.4906000   -33.2402300   -5.5033860   -23.1220000   62.2081500
 		     -29.6157900 -127.7200000    -0.3387752  -24.1416500   -23.1621600   61.5685800   -32.6519300   -1.5717040
    8338810000   -31.6800400   -8.0579610   -23.1808200   61.8630000    -0.3515107  -24.4731300   -29.2592400 -126.7243000 
 		     -23.1784200   61.2929100   -31.9498300   -6.1160400   -29.2987500 -127.2401000    -0.3463251  -24.3343300
 		      -0.3586346  -24.4237000   -29.3401400 -126.9689000   -33.1530700   -3.8477620   -23.0977100   61.9868000
 		     -29.4324100 -126.9722000    -0.3448605  -24.3439200   -23.0716700   61.6993900   -32.9324500   -0.6570493
    8408800000   -31.9147100   -5.5533800   -23.0821200   61.2200400    -0.3557612  -24.6119200   -29.2801800 -127.2109000 
 		     -23.1472500   61.7029600   -32.5008600   -7.1097110   -29.2466500 -127.2282000    -0.3385946  -24.5423700
 		      -0.3617384  -24.5984500   -29.3643900 -127.4971000   -32.9621700   -5.9269830   -23.0282900   61.3387100
 		     -29.4160000 -126.8944000    -0.3312805  -24.4954700   -23.0626400   61.3588400   -33.0602600    1.3964160
    8478790000   -32.0366500   -7.3133210   -22.9711600   61.1625900    -0.3603851  -24.7987000   -29.0980900 -127.4307000 
 		     -23.1032100   61.4461800   -32.2920400   -5.0402790   -29.1063900 -127.9556000    -0.3385392  -24.7655300
 		      -0.3586406  -24.7499700   -29.2649900 -128.1199000   -32.8548200   -5.6867860   -22.9559100   61.5019800
 		     -29.2379900 -126.9001000    -0.3378461  -24.7389000   -22.9735600   61.2539900   -33.3923000   -0.4843736
    8548780000   -31.7499100   -9.5503950   -23.0003900   61.3308100    -0.3543614  -25.0473900   -29.0788800 -127.2724000 
 		     -23.0764600   61.5780900   -32.4500000   -5.1518140   -29.0592900 -127.7415000    -0.3522936  -25.0351200
 		      -0.3672740  -25.0176800   -29.1855400 -126.9270000   -33.2373500   -2.0073590   -22.9061900   61.2776100
 		     -29.1213900 -127.4321000    -0.3439632  -24.9685000   -22.9258800   60.9026100   -33.0032000   -1.9306020
    8618770000   -32.0383100   -9.3831460   -22.9463000   61.4630600    -0.3650131  -25.2228900   -29.1381100 -127.9545000 
 		     -22.9291300   61.2478100   -32.4135200   -6.5710890   -29.0909400 -127.5139000    -0.3467944  -25.1606800
 		      -0.3657551  -25.2100800   -29.1779700 -127.2022000   -33.1755800   -2.7969160   -22.8789500   60.5933700
 		     -29.1451900 -127.6907000    -0.3400986  -25.1921400   -22.8969600   60.8488700   -32.8788300   -0.8810014
    8688760000   -32.2952300   -9.9188200   -22.8908500   60.8914000    -0.3618203  -25.4120500   -29.1477100 -127.4142000 
 		     -22.9608600   61.0653700   -32.1768800   -8.9887590   -29.0861600 -128.3894000    -0.3450382  -25.3591900
 		      -0.3611082  -25.3992700   -29.1762800 -127.0714000   -32.8075000   -7.4953220   -22.8296600   60.6723400
 		     -29.0399600 -128.1348000    -0.3459231  -25.3214500   -22.8477300   60.8903000   -32.8107800   -3.3044150
    8758750000   -32.0626400   -9.4296910   -22.8672800   60.6574000    -0.3666532  -25.5740800   -28.8886100 -127.4255000 
 		     -22.9138100   60.5932700   -31.7694300   -3.5470390   -28.9365600 -128.2162000    -0.3439450  -25.5363900
 		      -0.3618729  -25.6431200   -29.0801700 -127.9312000   -32.4512400   -4.9438560   -22.7589300   60.9066700
 		     -28.8505300 -128.1887000    -0.3361232  -25.5604400   -22.7731300   60.3975400   -33.2394700   -2.3562950
    8828740000   -32.4896400   -7.6565170   -22.8174600   60.7263100    -0.3620102  -25.8001400   -28.8577500 -127.0855000 
 		     -22.8569500   60.1122200   -32.2286300   -6.5226550   -28.8426200 -128.5879000    -0.3526555  -25.7394600
 		      -0.3665684  -25.7917200   -29.0301700 -128.5895000   -33.2171800   -7.8149240   -22.7268700   60.5065300
 		     -28.8549100 -127.5547000    -0.3559247  -25.7234800   -22.7102900   60.2995100   -33.2474800   -0.1131312
    8898730000   -31.8996800   -8.3783340   -22.7614600   60.1414100    -0.3758121  -26.0086100   -28.8215400 -128.0992000 
 		     -22.7538200   60.5801400   -31.8207000   -6.5203130   -28.8315800 -128.6116000    -0.3495623  -25.9107100
 		      -0.3701557  -26.0540000   -29.0893100 -128.7619000   -32.9240700   -8.7251490   -22.7163100   60.3207200
 		     -28.8490400 -127.9430000    -0.3576367  -25.8799500   -22.6662400   60.0204700   -33.3382100   -3.6389990
    8968720000   -32.0610100  -10.5060000   -22.7426900   60.2805200    -0.3715411  -26.2551200   -28.7160500 -128.2358000 
 		     -22.7181300   60.3756000   -32.2371000   -9.7121810   -28.6609400 -128.7240000    -0.3567258  -26.1193600
 		      -0.3774825  -26.1847100   -28.7962000 -128.9397000   -32.7605300   -7.7769550   -22.6450700   59.8133200
 		     -28.6664900 -127.6755000    -0.3625296  -26.1051400   -22.6332400   60.0317000   -33.0222800   -2.0823420
    9038710000   -32.1170000   -8.6318360   -22.6217000   60.1662000    -0.3813843  -26.3921500   -28.6720500 -127.9641000 
 		     -22.7335400   60.0679900   -32.5140000   -6.6824460   -28.6570700 -128.8129000    -0.3547437  -26.3751500
 		      -0.3696771  -26.3204900   -28.5538600 -129.0052000   -33.5015400   -9.5003870   -22.6170800   59.8646400
 		     -28.8068800 -128.5030000    -0.3646941  -26.2987700   -22.6120800   59.7117800   -33.0288200   -5.5341840
    9108700000   -32.5242300   -9.8874030   -22.5822000   60.0513000    -0.3784184  -26.5555400   -28.6434600 -128.3259000 
 		     -22.5875000   59.8550000   -32.5770000   -8.0514290   -28.6657900 -128.6817000    -0.3511082  -26.5479400
 		      -0.3719689  -26.5459200   -28.7175800 -128.5353000   -32.8391200   -8.3569010   -22.5787400   60.2290200
 		     -28.7622500 -127.7990000    -0.3590350  -26.4939100   -22.5730700   59.4769400   -32.5901100   -1.3721100
    9178690000   -32.0269700  -12.2607500   -22.5567200   59.8063700    -0.3817886  -26.7273700   -28.5653300 -128.1903000 
 		     -22.5429500   59.9415100   -32.3773200  -11.5784000   -28.6128000 -128.6445000    -0.3693236  -26.7264900
 		      -0.3616301  -26.7334000   -28.5628300 -128.2296000   -33.3184800   -9.2795370   -22.4967500   59.6124700
 		     -28.5788300 -128.6301000    -0.3690562  -26.7230300   -22.5011800   59.5850800   -33.1447400   -1.8352420
    9248680000   -31.5238600  -12.4900700   -22.5651800   59.4426700    -0.3721260  -26.9322400   -28.4936700 -127.7444000 
 		     -22.5635000   59.9016200   -32.2874500   -7.0533330   -28.5181800 -129.0517000    -0.3596435  -26.9129500
 		      -0.3726469  -26.9402900   -28.6157800 -129.1401000   -33.6223000   -4.8147230   -22.4838400   59.6468700
 		     -28.5667800 -127.4677000    -0.3595889  -26.9520900   -22.4604700   59.2939300   -32.9189000   -4.9587390
    9318670000   -31.5452200  -12.4926600   -22.4904100   59.7217300    -0.3713576  -27.1414700   -28.5369400 -128.7851000 
 		     -22.5089000   59.2471700   -32.7021700   -8.2687360   -28.4753000 -128.8948000    -0.3652834  -27.1504000
 		      -0.3705506  -27.1248500   -28.5279700 -128.4211000   -33.2478400   -7.8297060   -22.4066400   59.3398800
 		     -28.5312800 -129.0896000    -0.3674155  -27.1539400   -22.4108300   59.2644400   -32.9464800   -5.3752420
    9388660000   -32.3865300   -9.7562410   -22.3967900   59.0789500    -0.3774896  -27.3625600   -28.3629500 -129.0836000 
 		     -22.3991400   59.0224300   -32.1653800   -9.5549780   -28.4353400 -130.1460000    -0.3659443  -27.3570400
 		      -0.3831598  -27.3462900   -28.6334600 -130.3324000   -33.2578700   -8.3095960   -22.3973400   58.7548900
 		     -28.4255100 -128.3687000    -0.3578970  -27.3088300   -22.3697000   58.9029300   -32.9303000   -4.4302850
    9458650000   -32.0092800  -10.2804500   -22.3490900   59.3433700    -0.3797395  -27.5457500   -28.3752300 -128.8933000 
 		     -22.3666000   58.7988400   -32.2281300   -9.9553460   -28.3330300 -129.9847000    -0.3634274  -27.4745000
 		      -0.3801808  -27.5953500   -28.5975200 -129.5305000   -33.3402800   -7.9313680   -22.3157200   58.8396900
 		     -28.4121600 -129.7213000    -0.3705673  -27.5201000   -22.3202500   58.6764200   -33.1537000   -4.3284650
    9528640000   -31.6832200  -12.4563500   -22.3817700   58.8692100    -0.3850817  -27.7292300   -28.3559300 -129.0722000 
 		     -22.3530400   58.6936800   -32.0313000   -7.7543810   -28.4034900 -130.3393000    -0.3661384  -27.7127000
 		      -0.3846741  -27.7644900   -28.3643600 -129.1794000   -33.2267700   -7.6308620   -22.2844400   58.5887600
 		     -28.3201900 -129.4596000    -0.3740137  -27.6776600   -22.3188900   58.6641300   -33.0553500   -5.2322440
    9598630000   -31.8068500   -6.7955860   -22.3533500   58.5276600    -0.3795296  -27.9054400   -28.2145200 -128.7617000 
 		     -22.2834300   58.2569000   -32.4441200  -13.9740900   -28.2606600 -130.2254000    -0.3693586  -27.8953600
 		      -0.3852187  -27.9446300   -28.1960600 -129.7946000   -33.2767300  -10.4450900   -22.2558600   58.5007400
 		     -28.2891000 -129.5651000    -0.3774329  -27.8463600   -22.2791100   58.5767300   -33.1456400   -3.3992730
    9668620000   -31.8462500  -13.6158800   -22.2121200   58.5254300    -0.3817193  -28.1043400   -28.0504600 -129.8490000 
 		     -22.2699300   58.5341000   -32.2680800   -7.4462840   -28.2300500 -130.4617000    -0.3786407  -28.0872800
 		      -0.3857123  -28.1073600   -28.1251800 -129.3799000   -33.1246800   -8.1267220   -22.1895500   58.2415200
 		     -28.1871800 -128.6521000    -0.3782314  -28.0456400   -22.2161100   58.3582000   -33.1733900   -6.3735180
    9738610000   -31.4041700  -13.2207300   -22.2967100   58.6477700    -0.3855949  -28.3485100   -28.1310300 -129.2612000 
 		     -22.2485300   58.6696600   -32.3104100  -12.8499500   -28.1327600 -130.3191000    -0.3785215  -28.2499200
 		      -0.3881779  -28.3446100   -28.1507200 -129.4643000   -33.6257200   -8.3835280   -22.1976500   58.1930700
 		     -28.0418400 -129.5343000    -0.3806722  -28.1722900   -22.1430100   58.0510500   -33.2763900   -2.8770490
    9808600000   -31.1970400  -11.4118000   -22.2564500   57.8294400    -0.3899375  -28.5912800   -28.1801500 -129.9464000 
 		     -22.2075800   57.8638400   -33.0304300   -8.4948330   -28.0976400 -130.0106000    -0.3779010  -28.4455800
 		      -0.3909310  -28.5190400   -28.1504000 -129.1552000   -33.8529700  -11.0014300   -22.1618900   58.2097200
 		     -28.2643700 -130.2358000    -0.3796090  -28.4909400   -22.0988300   58.0484200   -32.7111900   -5.7216860
    9878590000   -31.5864800  -11.7093900   -22.1967400   58.4929900    -0.3908242  -28.7380000   -28.1411600 -129.5340000 
 		     -22.2071000   58.2327300   -31.2313300   -9.1537120   -28.0119700 -130.3685000    -0.3901029  -28.5883000
 		      -0.3820652  -28.6781800   -28.0003000 -129.7382000   -33.5317900  -10.1387700   -22.0915600   57.8449000
 		     -28.0178500 -129.8036000    -0.3832345  -28.6255300   -22.1239800   57.9080200   -33.3381700   -4.4076050
    9948580000   -31.9705200  -14.4265900   -22.0845500   58.2141400    -0.3814618  -28.9006900   -27.9735400 -129.3691000 
 		     -22.0649600   57.6330800   -31.9586200   -7.5826470   -27.9702200 -130.9991000    -0.3863961  -28.8935100
 		      -0.3866267  -28.8651500   -27.9628800 -130.1978000   -33.4938300  -11.9621600   -22.0307900   57.8521200
 		     -27.9547500 -129.4648000    -0.3783235  -28.8763600   -22.0169900   57.8215400   -33.7605600   -6.2124980
   10018570000   -31.5427800  -14.0118100   -22.0748000   57.6735200    -0.4046485  -29.1607200   -27.8536600 -129.8319000 
 		     -21.9978800   57.8126100   -33.2783700  -10.1481000   -27.9866900 -131.3151000    -0.3880647  -29.0637700
 		      -0.3945659  -29.1280000   -28.1674000 -130.3340000   -33.6186900  -10.0274800   -22.0426700   57.8737900
 		     -27.9568100 -129.6462000    -0.3860122  -28.9590700   -22.0452300   57.4440600   -33.0254100   -9.4024040
   10088560000   -31.3913100  -14.1686300   -22.0907200   57.4631300    -0.3990776  -29.3323100   -27.8869200 -130.1838000 
 		     -22.0701200   57.3150600   -32.1592200   -7.4573630   -27.7410900 -130.5803000    -0.3886212  -29.1599500
 		      -0.3894788  -29.2236000   -27.8210300 -130.5191000   -33.6809300   -9.4823060   -21.9494900   56.9499400
 		     -27.8405000 -129.9619000    -0.3813159  -29.1826600   -21.9576000   57.2424700   -33.7436800   -5.9075740
   10158550000   -32.0864100  -15.2433600   -21.9844300   57.4329600    -0.3980893  -29.5341300   -27.7474800 -130.4967000 
 		     -21.9315700   57.6043200   -32.1623800  -10.6376500   -27.7189100 -131.1117000    -0.3887441  -29.4298400
 		      -0.4026697  -29.5277200   -27.8063900 -131.8639000   -32.8452800  -10.2133700   -21.9110500   57.2198100
 		     -27.7562400 -129.5187000    -0.3981523  -29.4851600   -21.9548400   57.2632300   -33.8370200   -3.8407500
   10228540000   -32.0040400  -13.1786000   -21.8739600   56.9498300    -0.4087173  -29.7348200   -27.8913800 -130.7158000 
 		     -21.9757900   57.1182700   -33.5714000  -14.4458400   -27.6889300 -131.0082000    -0.3875688  -29.6506500
 		      -0.4016340  -29.7136500   -27.8179900 -130.9977000   -33.7175500  -10.9047200   -21.8972800   57.2676000
 		     -27.6443800 -129.7352000    -0.3971912  -29.5860500   -21.9596400   56.8111800   -32.9592700   -9.8176620
   10298530000   -31.8556300  -12.4875000   -21.9176600   57.2321700    -0.3947718  -29.9344600   -27.7040800 -130.7469000 
 		     -21.8965600   57.1256800   -32.2861700  -10.5110000   -27.6997700 -131.3504000    -0.3896750  -29.8613900
 		      -0.4014557  -29.8636900   -27.7010700 -131.3632000   -33.2245700  -15.1528600   -21.8731200   56.9748000
 		     -27.8441800 -130.5199000    -0.4055218  -29.7014500   -21.8755700   56.8199100   -33.9565700   -8.4807320
   10368520000   -31.9342600  -14.2648800   -21.8980800   56.6025600    -0.4070123  -30.0761000   -27.4527100 -131.3267000 
 		     -21.8147400   56.6650000   -31.9199100  -12.6180400   -27.6867500 -130.6974000    -0.3876911  -29.9911400
 		      -0.4086741  -30.0679900   -27.5172500 -130.4359000   -33.4148100  -13.8361100   -21.8276200   56.4938500
 		     -27.5969900 -131.5201000    -0.3925622  -29.9901500   -21.8297200   57.0467300   -33.6089900   -7.4163480
   10438510000   -31.8420600  -13.5491500   -21.8864400   57.2156900    -0.4115950  -30.2564600   -27.5368400 -130.8323000 
 		     -21.8534400   56.7262700   -32.7649300  -13.1307400   -27.6068500 -130.7956000    -0.4049022  -30.1826600
 		      -0.3971509  -30.2852100   -27.4900600 -130.4892000   -34.3306300  -13.3978800   -21.7855700   56.2443000
 		     -27.5678000 -130.9076000    -0.4019745  -30.2120800   -21.7774700   56.5933800   -33.5980300   -8.5439020
   10508500000   -31.8336800  -12.5384500   -21.8032000   56.4460100    -0.3981089  -30.4401500   -27.5776900 -132.1298000 
 		     -21.8842000   56.7043200   -32.7552800  -11.9861900   -27.5685300 -132.0977000    -0.4009061  -30.4488100
 		      -0.3914083  -30.5184300   -27.5432400 -131.7131000   -33.9044000  -18.0384200   -21.7672700   56.1470100
 		     -27.4862500 -132.3727000    -0.4052359  -30.3680800   -21.7883200   56.4190900   -33.4354000   -9.2107910
   10578490000   -31.9596900  -18.6244000   -21.8036300   56.1351000    -0.4085159  -30.7021400   -27.4471700 -131.4751000 
 		     -21.7262000   55.8083300   -32.0943400  -15.6501300   -27.4625000 -132.6282000    -0.3970593  -30.5585400
 		      -0.4090742  -30.6981500   -27.6022900 -132.5356000   -33.2320500  -12.8160600   -21.7521000   56.0173000
 		     -27.3553800 -131.8268000    -0.4028018  -30.6064600   -21.7941500   56.0353600   -33.2391200   -6.0916710
   10648480000   -31.7253300  -14.7144900   -21.7542700   55.7719700    -0.4072705  -30.7867200   -27.3886500 -130.7551000 
 		     -21.7407700   56.0396800   -32.3795000   -7.4892500   -27.4371600 -132.0643000    -0.3938936  -30.7898600
 		      -0.4063983  -30.8201700   -27.3236500 -132.9327000   -33.9617500  -13.5539600   -21.6578400   56.3020100
 		     -27.4430600 -131.3121000    -0.4023354  -30.8017900   -21.7360900   56.2201800   -33.7004100  -10.6399500
   10718470000   -31.2738400  -21.1458900   -21.7413500   55.7254900    -0.4189685  -31.0721300   -27.4058000 -131.3946000 
 		     -21.6974400   55.7972200   -32.5979300   -9.5206240   -27.4801300 -132.2331000    -0.4072639  -30.9738500
 		      -0.4163098  -31.0798200   -27.4532700 -132.5798000   -33.3863200  -10.0721600   -21.6498400   55.8796200
 		     -27.2133300 -132.0474000    -0.3981038  -31.0342600   -21.6458600   55.7326300   -33.3527500  -11.2193500
   10788460000   -31.9631300  -16.8677500   -21.6634500   55.3722700    -0.4128483  -31.2715500   -27.1959400 -131.7767000 
 		     -21.6936000   55.8426700   -32.7497800  -12.8811800   -27.3482100 -132.2098000    -0.4016871  -31.2003300
 		      -0.4174288  -31.1951800   -27.2714800 -133.5524000   -33.8962200  -14.7015200   -21.6233400   55.5944300
 		     -27.2444000 -131.7033000    -0.3979270  -31.2650600   -21.6130000   55.3630900   -33.4203900   -8.7975010
   10858450000   -31.8290100  -17.0265000   -21.5716000   55.3062500    -0.4105330  -31.4516800   -27.2384800 -132.1385000 
 		     -21.6128800   55.6746300   -32.4552800  -15.4041600   -27.2429000 -131.9212000    -0.3989967  -31.3860500
 		      -0.4136184  -31.4371800   -27.2591500 -131.1502000   -33.3277500  -13.9924000   -21.6071000   55.4311400
 		     -27.1675400 -131.4147000    -0.4107851  -31.3122200   -21.5901400   55.3360800   -33.7928200  -12.8695700
   10928440000   -31.6550300  -19.0531800   -21.6504400   54.9957500    -0.4130159  -31.6578400   -27.2693700 -131.8888000 
 		     -21.6113000   55.4440000   -32.9100900  -12.0057200   -27.2824600 -133.4321000    -0.4063091  -31.5882700
 		      -0.4103131  -31.6661900   -27.2888300 -132.4602000   -33.8516500  -14.9367100   -21.5949800   55.2793100
 		     -27.2419500 -131.4078000    -0.4045468  -31.5993600   -21.6526200   55.1552500   -33.0698300   -8.4224160
   10998430000   -31.5684700  -16.1942400   -21.6159100   54.7059400    -0.4130632  -31.8235200   -27.2936400 -132.4971000 
 		     -21.6148300   55.4483800   -32.7832600  -19.8897900   -27.2461600 -132.5138000    -0.4180267  -31.7698300
 		      -0.4225549  -31.8583100   -27.2064400 -132.2173000   -33.8235600  -19.8303900   -21.5628000   55.1573100
 		     -27.1313800 -131.1382000    -0.4141127  -31.7753200   -21.5967700   54.8550000   -33.4736700  -12.6446400
   11068420000   -31.2355400  -19.9903100   -21.4962700   54.8724400    -0.4195116  -32.0320900   -27.0593300 -132.2333000 
 		     -21.6325800   54.8386800   -31.6600300  -13.8029500   -27.2050100 -133.0266000    -0.4132755  -32.0178300
 		      -0.4184905  -32.0400000   -27.1573800 -133.1618000   -33.6073300  -12.2574700   -21.4895200   54.7668600
 		     -27.0808600 -131.6507000    -0.4116812  -31.9404400   -21.5053000   54.6900100   -33.3310100   -8.2033890
   11138410000   -31.4662800  -11.9608400   -21.6204000   54.8137000    -0.4200459  -32.2437400   -27.0418100 -132.8544000 
 		     -21.5689600   54.8096800   -32.4037700  -18.8650500   -27.1255200 -132.3315000    -0.4047724  -32.0817100
 		      -0.4120381  -32.1644300   -27.2237300 -132.2766000   -34.0017300  -14.9150600   -21.4424300   54.5530900
 		     -27.2140200 -131.4783000    -0.4077342  -32.0927900   -21.5030600   54.9892500   -33.7582300  -13.3385000
   11208400000   -31.4037400  -17.0689100   -21.4850500   54.3498300    -0.4201919  -32.4371700   -27.0765600 -133.2058000 
 		     -21.5841300   54.4755500   -32.5437600  -15.9698900   -27.0771000 -133.2483000    -0.4112655  -32.3139000
 		      -0.4142750  -32.4274200   -27.2528400 -134.1813000   -33.8433800  -20.5974300   -21.4486900   54.5520000
 		     -27.1525900 -132.2069000    -0.4154114  -32.3087300   -21.4995900   54.3453700   -33.3737500  -13.7264100
   11278390000   -31.7759700  -20.5513800   -21.4528900   54.0892500    -0.4259533  -32.5359600   -26.9824900 -133.4707000 
 		     -21.4859200   54.4404400   -32.0600500  -17.6020700   -27.0431700 -133.7387000    -0.4083268  -32.5763700
 		      -0.4243195  -32.5488700   -27.1131400 -134.1580000   -33.2477500  -16.9696300   -21.4756900   53.9825900
 		     -26.9789200 -132.5944000    -0.4137257  -32.5394200   -21.4641300   54.3965600   -33.7395300  -13.5860100
   11348380000   -31.6879300  -19.0065200   -21.4558000   54.2722900    -0.4356361  -32.7767100   -27.0429700 -133.4267000 
 		     -21.5178500   54.3960100   -31.2807100  -17.2607300   -26.9768600 -133.3683000    -0.4158324  -32.7390100
 		      -0.4335867  -32.7478200   -26.8754500 -133.0415000   -33.5786100  -17.6869300   -21.4167300   54.0446900
 		     -26.9215400 -134.3990000    -0.4180509  -32.8160200   -21.4338800   54.1550500   -34.0102000  -10.8806800
   11418370000   -31.5345200  -17.9674400   -21.3645500   53.3506900    -0.4313373  -32.9852000   -26.9773200 -132.9744000 
 		     -21.4843800   54.2681800   -32.4574200  -22.4135300   -26.8610300 -133.9186000    -0.4125562  -32.9006900
 		      -0.4340518  -32.9044200   -26.8534700 -133.6396000   -34.1170500  -15.7975000   -21.4060700   53.8764600
 		     -27.0227000 -134.4071000    -0.4119075  -32.8114800   -21.4135000   53.8178600   -32.9839100  -10.0145300
   11488360000   -32.1300000  -21.8463100   -21.3728200   53.4575000    -0.4407759  -33.1144400   -26.7397600 -133.1440000 
 		     -21.3973900   53.7668700   -32.4099400  -21.7497000   -26.8833700 -133.4906000    -0.4222641  -33.1487100
 		      -0.4366344  -33.1569800   -26.9100200 -132.7941000   -33.4330700  -21.9278500   -21.3611300   53.8170300
 		     -26.9011600 -133.9754000    -0.4195461  -33.0803000   -21.3743100   53.9289900   -33.5412000  -11.4673600
   11558350000   -31.3874600  -19.9612800   -21.3858300   53.6818200    -0.4260950  -33.4323100   -26.7472400 -133.6274000 
 		     -21.2763700   53.6929700   -32.0913500  -14.6887800   -26.7380500 -133.8514000    -0.4224572  -33.3038800
 		      -0.4328789  -33.3444700   -26.8675800 -133.8930000   -33.8502700  -19.6637900   -21.3150700   53.5327000
 		     -26.7044000 -133.9243000    -0.4251382  -33.2810700   -21.2829600   53.5351800   -34.2432600  -14.2256600
   11628340000   -31.7021900  -17.5595000   -21.3484600   53.1021700    -0.4419900  -33.5377500   -26.7757600 -134.5277000 
 		     -21.3974800   53.3695400   -32.1910800  -20.9734200   -26.8374100 -133.9832000    -0.4191039  -33.4597200
 		      -0.4311618  -33.5566200   -26.7616400 -134.9108000   -33.8061700  -20.5587100   -21.3090400   53.3892000
 		     -26.7422900 -133.3939000    -0.4118118  -33.4337900   -21.3242000   53.4002300   -33.1754600  -14.3480100
   11698330000   -32.0839700  -18.8053300   -21.3088000   53.2559000    -0.4427862  -33.7440100   -26.7707300 -134.0374000 
 		     -21.2455400   52.9814100   -32.1317500  -17.6917900   -26.8392400 -134.2789000    -0.4368473  -33.6765800
 		      -0.4410364  -33.7660300   -26.7183500 -134.5700000   -33.7804800  -23.7196500   -21.3765900   52.9824300
 		     -26.6620000 -134.2920000    -0.4131677  -33.6372200   -21.3103600   53.2989100   -33.4919100  -14.3951700
   11768320000   -31.6287800  -23.6503900   -21.2896800   52.5353200    -0.4421236  -33.9430500   -26.6013500 -134.5430000 
 		     -21.2859200   53.0983700   -32.3904700  -20.1439100   -26.5758300 -134.3524000    -0.4183174  -33.8949400
 		      -0.4307416  -33.8834400   -26.5223300 -135.0480000   -33.5035800  -18.9768200   -21.2731500   52.7800200
 		     -26.6212800 -134.3746000    -0.4258951  -33.8757400   -21.2734900   52.7976400   -33.6287200  -11.9376200
   11838310000   -31.3564100  -21.3625000   -21.2900600   52.8217000    -0.4336834  -34.1240700   -26.5881300 -133.9445000 
 		     -21.2875400   53.0625000   -32.2940900  -22.7524600   -26.5845000 -134.6964000    -0.4279991  -34.1341400
 		      -0.4324710  -34.0780100   -26.6431600 -134.8496000   -34.5218700  -21.4873600   -21.2148500   52.9630400
 		     -26.6036600 -133.6158000    -0.4301845  -34.0513000   -21.1987900   52.8004700   -33.3403200  -12.5199900
   11908300000   -31.7959500  -21.7824100   -21.2633000   52.4746500    -0.4394957  -34.2918600   -26.5901000 -134.8258000 
 		     -21.1997800   52.6006600   -32.6166400  -20.3445300   -26.4992900 -135.0373000    -0.4226173  -34.3362500
 		      -0.4431753  -34.2467300   -26.4821600 -135.5236000   -34.2940100  -21.3564900   -21.2505300   52.5767300
 		     -26.5404800 -134.4073000    -0.4293763  -34.2254900   -21.2073200   52.9966700   -33.8219500  -13.6311600
   11978290000   -31.6670200  -25.1923200   -21.2354900   52.5200300    -0.4502756  -34.4211500   -26.4752000 -134.7630000 
 		     -21.2403000   52.9496300   -31.6776200  -15.3706800   -26.4457700 -135.4143000    -0.4293820  -34.4434100
 		      -0.4520470  -34.3582300   -26.5126600 -134.9868000   -33.7797900  -20.9908000   -21.1903700   52.5444100
 		     -26.4796000 -134.0436000    -0.4297806  -34.4837100   -21.1872100   52.3689800   -33.9048900  -16.1588600
   12048280000   -31.4471000  -23.4330200   -21.2605600   52.8210800    -0.4490936  -34.7008400   -26.5043500 -135.0434000 
 		     -21.2227400   52.4417200   -32.3471000  -20.9398100   -26.4061400 -134.7796000    -0.4406284  -34.6218000
 		      -0.4406796  -34.7030700   -26.6488500 -135.0064000   -34.4394600  -21.5163700   -21.1853400   52.2726400
 		     -26.4889700 -135.3455000    -0.4339720  -34.6375100   -21.1461100   51.9967500   -33.9560600  -15.9353600
   12118270000   -31.6604100  -24.6084200   -21.2888500   52.0381000    -0.4438140  -34.9208100   -26.5185300 -134.8082000 
 		     -21.2069900   52.0443500   -32.3835600  -23.2323900   -26.4086400 -135.3571000    -0.4264714  -34.8934600
 		      -0.4452051  -34.8474800   -26.5343000 -135.5078000   -34.3959600  -22.3955000   -21.1706300   52.3005100
 		     -26.6474900 -134.5229000    -0.4238244  -34.9171900   -21.1781300   52.4673300   -33.7088700  -15.6847400
   12188260000   -31.4523800  -23.5613500   -21.2233800   52.8187900    -0.4415676  -35.0575000   -26.3660200 -135.0879000 
 		     -21.1919800   52.0842300   -32.5731300  -18.4249400   -26.3047900 -135.9573000    -0.4360619  -35.0754500
 		      -0.4400989  -35.0485500   -26.5567800 -136.0969000   -33.9458700  -22.1468600   -21.1715800   51.8945500
 		     -26.4644600 -134.9246000    -0.4275127  -34.9809800   -21.1232600   51.9792900   -33.8265700  -17.7852200
   12258250000   -31.5727500  -24.2862900   -21.1794700   51.5042000    -0.4436615  -35.2601100   -26.3260700 -134.8359000 
 		     -21.1851900   52.0518800   -32.2736400  -22.7182200   -26.3039300 -135.4374000    -0.4419499  -35.2007100
 		      -0.4442148  -35.2442200   -26.4486400 -136.2727000   -34.4166300  -22.9872400   -21.0923600   51.6520900
 		     -26.4168100 -135.4672000    -0.4356006  -35.1284100   -21.1115300   51.7141800   -34.0794900  -17.3710700
   12328240000   -31.3864700  -21.7094100   -21.2084700   51.5751200    -0.4582283  -35.4147100   -26.3500000 -135.8655000 
 		     -21.1575200   51.0771100   -33.0768800  -15.8714800   -26.2981000 -136.0622000    -0.4348083  -35.4333900
 		      -0.4569325  -35.4191800   -26.4060600 -137.2012000   -34.8523500  -25.7476800   -21.1393900   51.6460300
 		     -26.5010200 -136.2129000    -0.4344812  -35.4615300   -21.1589100   51.8978200   -33.1741100  -16.1172300
   12398230000   -31.3054400  -24.5220600   -21.1111900   51.0958900    -0.4536721  -35.6616000   -26.2458100 -136.2547000 
 		     -21.0935900   51.1048200   -33.2314700  -21.3400800   -26.1830100 -135.3773000    -0.4268949  -35.5667500
 		      -0.4501073  -35.6750500   -26.2207200 -137.4551000   -34.3112700  -26.6507300   -21.1314300   51.2241600
 		     -26.3481000 -136.9217000    -0.4230696  -35.5880200   -21.0533000   51.4192100   -34.5383600  -21.8013200
   12468220000   -31.5567900  -26.2427900   -21.2450900   50.7313000    -0.4576118  -35.8602000   -26.2252500 -136.8894000 
 		     -21.0914500   51.4857800   -32.1286600  -25.2027800   -26.2351400 -136.8456000    -0.4413530  -35.7702000
 		      -0.4555297  -35.8606400   -26.2886400 -136.0895000   -33.8008300  -21.3339500   -21.0905000   50.9811300
 		     -26.2329300 -136.3741000    -0.4407719  -35.7595100   -21.0957600   51.1770500   -34.2993900  -19.8102200
   12538210000   -31.0698200  -28.2806300   -21.0806900   51.0928200    -0.4511738  -35.9964500   -26.2639300 -135.8371000 
 		     -21.0779800   50.4523700   -32.9031600  -23.5859400   -26.1169000 -136.6878000    -0.4417989  -36.0145100
 		      -0.4497321  -36.0413600   -26.1102800 -135.9963000   -34.5774900  -20.6531900   -21.0727300   51.0183300
 		     -26.3356200 -136.5091000    -0.4272410  -35.9252700   -21.0372600   51.0018000   -34.4181400  -17.6345100
   12608200000   -31.6237500  -30.0208500   -21.0721700   51.5778700    -0.4521346  -36.2313200   -26.0955400 -135.9671000 
 		     -20.9503300   50.7477700   -33.0845100  -29.6725800   -26.1397200 -136.6267000    -0.4230276  -36.1619900
 		      -0.4578745  -36.1855700   -26.2893300 -136.7508000   -33.9900900  -27.3280000   -21.0913200   51.0740400
 		     -26.1989900 -136.9556000    -0.4408072  -36.0594400   -21.0645400   50.8752100   -34.0936800  -21.1282900
   12678190000   -31.4918900  -26.3733400   -21.0915100   50.5768400    -0.4459953  -36.4163800   -26.0964600 -136.9849000 
 		     -20.9694000   50.3495500   -31.2600100  -24.3596200   -26.0333400 -137.4198000    -0.4472869  -36.2883000
 		      -0.4544997  -36.4245700   -26.2447000 -137.3352000   -34.0479700  -26.6137800   -21.0580100   50.7004600
 		     -25.9946400 -136.9897000    -0.4410166  -36.3490300   -20.9752800   50.4679500   -34.6301200  -16.0562300
   12748180000   -31.5481600  -24.4200800   -21.1644900   50.8362200    -0.4449444  -36.6743000   -26.0873700 -137.2867000 
 		     -21.1059800   50.1183400   -31.5431900  -22.7571300   -26.0229400 -136.8702000    -0.4325082  -36.5383300
 		      -0.4476074  -36.6209100   -26.3294800 -136.8269000   -34.7120400  -24.0130400   -21.0487200   50.4236300
 		     -25.9946900 -136.1388000    -0.4448638  -36.5281000   -20.9709900   50.4812600   -34.1164200  -19.0919500
   12818170000   -31.7743500  -27.3931500   -21.0709000   50.3157700    -0.4523481  -36.8148100   -26.1130900 -136.9684000 
 		     -21.0834700   50.0283600   -32.4712900  -29.6863500   -25.9551900 -137.6847000    -0.4424787  -36.6918400
 		      -0.4577522  -36.8176000   -26.0236700 -138.4563000   -35.4049000  -31.7740300   -21.0550700   50.1980400
 		     -26.0674000 -136.5881000    -0.4412650  -36.7315100   -21.0476400   50.2935300   -34.2556000  -16.1258100
   12888160000   -31.7720600  -28.7601100   -21.0965500   50.1846300    -0.4623982  -37.0035700   -26.0353500 -136.9332000 
 		     -21.0028600   50.1128300   -31.5283500  -25.0609500   -25.9720700 -137.7715000    -0.4412435  -36.9588800
 		      -0.4484879  -37.0010900   -25.9519000 -138.6144000   -34.6523500  -24.3274600   -21.0179700   50.2374300
 		     -26.0424700 -136.8132000    -0.4531341  -36.9952300   -21.0007400   50.1825000   -35.2640500  -25.2393500
   12958150000   -31.6351800  -28.4304100   -21.1035700   50.2880800    -0.4589446  -37.1755300   -25.9327500 -136.8293000 
 		     -21.0143600   50.1879300   -32.2402900  -26.8803300   -25.8593000 -138.2483000    -0.4493792  -37.1242000
 		      -0.4548314  -37.1729600   -25.8746200 -138.0305000   -34.7256500  -28.1726200   -20.9548900   50.4995100
 		     -26.0472800 -136.5751000    -0.4462624  -37.1262200   -20.9386200   50.0352800   -34.3567000  -22.7996700
   13028140000   -31.5508500  -27.6510900   -21.0166400   49.6842500    -0.4558327  -37.3781000   -25.8885700 -137.5620000 
 		     -21.0437400   49.8595900   -32.5487200  -28.4640400   -25.8842300 -138.4007000    -0.4333756  -37.2602900
 		      -0.4494849  -37.2665400   -26.0832800 -138.0076000   -34.8309300  -33.8005000   -21.0043600   50.2392400
 		     -26.1746300 -137.2368000    -0.4444580  -37.2887300   -20.9849600   49.8275600   -34.6691500  -26.8888800
   13098130000   -31.7487700  -28.0905000   -21.0591900   49.9108100    -0.4648649  -37.5050400   -25.8926400 -137.9990000 
 		     -21.0441900   49.8754300   -31.4565600  -29.0869800   -25.8949800 -138.0194000    -0.4457804  -37.5152600
 		      -0.4559399  -37.5510400   -25.7580400 -137.3097000   -34.3380400  -33.3937100   -20.9936600   49.5795200
 		     -25.8987400 -137.9520000    -0.4626724  -37.4518700   -20.9943200   49.7448600   -34.8025500  -17.3001200
   13168120000   -30.9173600  -29.2009300   -20.9151100   49.2431500    -0.4639142  -37.7429800   -25.8233600 -137.8532000 
 		     -21.0504000   49.6766700   -31.5472700  -26.5486900   -25.8711300 -137.6637000    -0.4420328  -37.7340200
 		      -0.4610848  -37.7135900   -25.9687300 -137.4039000   -34.8012200  -26.2133600   -20.9482000   49.5085300
 		     -25.9252000 -137.2602000    -0.4237870  -37.6535500   -20.9347500   49.1655200   -34.7477500  -22.3994300
   13238110000   -31.5217100  -31.4178200   -20.9447900   49.4697900    -0.4599062  -37.9622100   -25.9141300 -137.1737000 
 		     -21.0411400   48.9832200   -32.9931800  -32.4430500   -25.8112500 -138.9540000    -0.4426363  -37.8926800
 		      -0.4550763  -37.8887200   -25.9113900 -138.3750000   -35.4880900  -34.7395100   -20.9171100   49.5825100
 		     -25.9429500 -137.4306000    -0.4358418  -37.8709100   -20.8928200   49.6579900   -34.9229300  -22.7261500
   13308100000   -31.5617900  -32.2252900   -21.0487000   49.2656300    -0.4610943  -38.1815800   -25.8822000 -137.0607000 
 		     -20.9523200   48.8631300   -32.1803800  -29.2003000   -25.7136100 -138.4735000    -0.4489282  -38.1017800
 		      -0.4601491  -38.1354700   -25.9679100 -138.4881000   -35.0201000  -34.1739000   -20.9762800   49.5766600
 		     -25.9600100 -138.8635000    -0.4544365  -38.1122400   -20.9621400   49.1266900   -35.0289200  -23.8188400
   13378090000   -31.5666900  -32.2398100   -21.0316500   49.1817400    -0.4684734  -38.3819500   -25.7447500 -137.8941000 
 		     -20.9578100   48.9254300   -32.4172700  -28.2250600   -25.7549600 -138.8651000    -0.4529132  -38.2845000
 		      -0.4627167  -38.4039500   -25.8464000 -138.3672000   -34.3138100  -29.3311700   -20.9275700   48.9599600
 		     -25.8113200 -138.9050000    -0.4518606  -38.2200200   -20.9417300   49.2565800   -35.0322500  -27.3538900
   13448080000   -31.1711600  -35.0381100   -20.9122200   48.5360700    -0.4568201  -38.6014300   -25.7025900 -138.4624000 
 		     -21.0016300   48.6331300   -32.8524200  -28.2835900   -25.6663200 -139.2502000    -0.4557162  -38.5066000
 		      -0.4599241  -38.5505300   -25.8233000 -139.1912000   -35.6770400  -31.7120600   -20.8971400   48.6570700
 		     -25.8065200 -138.4809000    -0.4489905  -38.4450300   -20.9298000   48.7983200   -34.7429000  -24.1819100
   13518070000   -31.4869500  -33.8560100   -20.9007500   48.4674100    -0.4602128  -38.7811900   -25.8138700 -138.4368000 
 		     -20.8917000   48.8041500   -32.7806100  -37.5984600   -25.6893900 -139.4067000    -0.4586218  -38.7183600
 		      -0.4640779  -38.7337900   -25.7840400 -139.1156000   -35.6183500  -34.2776100   -20.9396600   48.7592800
 		     -25.7520300 -138.8877000    -0.4426091  -38.6729900   -20.8811000   48.7125600   -34.9267000  -17.6839500
   13588060000   -31.8470500  -35.6990000   -21.0072000   49.0460200    -0.4634759  -38.9094100   -25.6116200 -137.9874000 
 		     -20.8568300   48.7949100   -31.4719200  -24.4525300   -25.6159200 -139.9428000    -0.4560888  -38.9540400
 		      -0.4627222  -38.9529900   -25.6004300 -139.3404000   -34.7989800  -33.8259200   -20.9304700   48.7464700
 		     -25.6949900 -137.6167000    -0.4543100  -38.8759900   -20.9079700   48.5560200   -34.1586700  -29.9730200
   13658050000   -31.4575400  -35.0731000   -20.8947700   48.5116300    -0.4589915  -39.1504700   -25.6506200 -137.9489000 
 		     -21.0245700   48.5325500   -33.3126200  -26.3968300   -25.5948800 -139.5788000    -0.4612598  -39.1209800
 		      -0.4693028  -39.1076300   -25.6624900 -139.9612000   -35.5439300  -33.3013200   -20.8626400   48.8055800
 		     -25.5717900 -138.6710000    -0.4604030  -39.1072300   -20.8699200   48.2616200   -35.0510900  -27.4140000
   13728040000   -31.6816400  -35.0367000   -21.0074600   48.0540200    -0.4706651  -39.3722500   -25.5747600 -138.2462000 
 		     -20.9599900   47.9166100   -32.9031100  -25.0480400   -25.5778800 -139.6596000    -0.4587504  -39.2683700
 		      -0.4671400  -39.3076500   -25.5677200 -139.0899000   -36.1700200  -37.7909300   -20.8817700   48.4973100
 		     -25.5574000 -138.2897000    -0.4446447  -39.2389700   -20.8831600   48.2579200   -35.3057900  -22.1401500
   13798030000   -31.6092100  -36.7597800   -20.9005300   47.6558300    -0.4722178  -39.4647200   -25.5300600 -139.2262000 
 		     -20.9447900   47.8842000   -32.6826700  -34.6715100   -25.5299500 -139.6170000    -0.4530910  -39.4139100
 		      -0.4670686  -39.4537000   -25.7950800 -139.7152000   -34.5979700  -35.0268800   -20.8534600   48.4637900
 		     -25.6531200 -139.0328000    -0.4545267  -39.3636500   -20.8848900   48.0878900   -34.6760300  -27.0474500
   13868020000   -30.9241200  -39.8767800   -20.8499800   47.9229100    -0.4547150  -39.6596600   -25.6020500 -138.9338000 
 		     -20.9649600   48.3089800   -33.1683800  -33.4895900   -25.5683000 -139.4863000    -0.4647661  -39.6613700
 		      -0.4662659  -39.6428700   -25.7529700 -139.5051000   -35.3383200  -32.8953200   -20.8927200   47.8990000
 		     -25.5380800 -137.6408000    -0.4522475  -39.5559600   -20.8405100   48.1822400   -34.9283500  -26.7864300
   13938010000   -31.6640800  -36.9073200   -20.8836500   47.8354700    -0.4705050  -39.8455700   -25.6023300 -138.6508000 
 		     -20.9499400   47.7312500   -33.4075500  -32.4299700   -25.4402700 -139.9166000    -0.4589300  -39.8740600
 		      -0.4714473  -39.7925700   -25.7024000 -139.8266000   -36.0610900  -37.6478900   -20.8466800   48.1760000
 		     -25.6157000 -138.2078000    -0.4594421  -39.7808400   -20.8319500   47.9593000   -35.3718300  -28.7106200
   14008000000   -31.5037400  -40.1284300   -20.9072300   47.6284800    -0.4713281  -40.0584900   -25.5570900 -138.8832000 
 		     -20.9056000   47.4057300   -32.3586200  -33.9993700   -25.3814700 -139.9864000    -0.4605693  -39.9652100
 		      -0.4658131  -40.0999400   -25.4835200 -139.6514000   -35.3043600  -33.7095200   -20.8281000   47.7636100
 		     -25.4604900 -138.6516000    -0.4516041  -39.9545100   -20.8291800   47.9879900   -35.8220400  -23.7765500
   14077990000   -31.6269900  -33.5719900   -20.8837600   47.0129800    -0.4745309  -40.3058400   -25.4444800 -139.0240000 
 		     -20.9565700   47.8247100   -32.9958200  -30.9785500   -25.4929600 -139.8986000    -0.4561567  -40.1956600
 		      -0.4712344  -40.3227700   -25.3350000 -140.2701000   -35.2745000  -38.1270100   -20.8204700   47.6515700
 		     -25.5450800 -138.8726000    -0.4600277  -40.1478000   -20.8533900   47.6655400   -35.2900500  -30.2994500
   14147980000   -32.0061600  -37.8530300   -20.9890200   48.0641300    -0.4733942  -40.4538300   -25.2783700 -139.4069000 
 		     -20.9517100   47.9419300   -32.1616700  -31.1827800   -25.4766900 -140.4804000    -0.4643316  -40.3893300
 		      -0.4711039  -40.4641600   -25.3293000 -140.2569000   -36.1544000  -36.9476400   -20.7911500   47.6026600
 		     -25.2922300 -139.2076000    -0.4787145  -40.3718600   -20.7851300   47.5352900   -36.2994100  -25.2453400
   14217970000   -31.2957200  -38.9853900   -20.8883800   47.4131800    -0.4774560  -40.6132600   -25.3539400 -139.6426000 
 		     -20.9242100   47.3589300   -32.0772400  -38.1347400   -25.4072700 -139.9904000    -0.4500683  -40.6314400
 		      -0.4831716  -40.6816100   -25.2838800 -139.9148000   -35.3885200  -38.2503400   -20.8040900   47.6048700
 		     -25.4891700 -139.6425000    -0.4637941  -40.5201900   -20.8228100   47.4158100   -35.8400700  -23.7136600
   14287960000   -31.4039500  -40.2796100   -20.9076300   47.2430500    -0.4843059  -40.8556700   -25.4016700 -139.6085000 
 		     -20.8457700   46.9624400   -32.5299700  -32.3695800   -25.3554200 -140.4915000    -0.4622140  -40.7166600
 		      -0.4708656  -40.8045600   -25.3115500 -140.0969000   -36.0345800  -34.3735000   -20.8026500   47.5172200
 		     -25.3240600 -139.2301000    -0.4444078  -40.7379700   -20.7702100   47.1325200   -35.8214700  -32.2411300
   14357950000   -31.6987700  -41.5423500   -21.0189800   47.2505000    -0.4787628  -41.0410800   -25.2867400 -139.1771000 
 		     -20.8375200   47.3801100   -32.7022600  -36.9384600   -25.3075200 -140.2007000    -0.4556527  -40.9729400
 		      -0.4785134  -41.0129700   -25.4766400 -139.3570000   -36.5945100  -37.6530200   -20.8169300   47.3360400
 		     -25.3199600 -139.9170000    -0.4561049  -40.8879600   -20.8204900   47.2123100   -36.1318300  -28.6386700
   14427940000   -31.5194500  -40.4641600   -20.9532600   46.5769200    -0.4764957  -41.2377100   -25.2288800 -138.9781000 
 		     -20.8696700   46.5753200   -32.8570000  -36.5842300   -25.2863700 -141.0675000    -0.4571994  -41.1517400
 		      -0.4734263  -41.1944800   -25.1384000 -140.2039000   -36.2773900  -41.8395000   -20.7606400   47.2627100
 		     -25.2281000 -140.2641000    -0.4543675  -41.0670800   -20.8172200   47.0551500   -35.9080200  -28.7946300
   14497930000   -31.6170200  -39.1299400   -20.8839300   46.8800900    -0.4814036  -41.3854900   -25.1132000 -139.6426000 
 		     -20.8181900   46.9663400   -32.3265500  -39.8475900   -25.2130900 -140.7312000    -0.4677823  -41.3482100
 		      -0.4839606  -41.3922600   -25.2441600 -141.1656000   -36.3199800  -39.2838300   -20.7531900   46.9312500
 		     -25.1288200 -140.2939000    -0.4665497  -41.3033000   -20.7756800   46.8187200   -36.0975500  -30.7569100
   14567920000   -31.6826100  -39.6648500   -20.8318300   46.8136100    -0.4791148  -41.6165000   -25.0424200 -139.9220000 
 		     -20.8419300   46.9103500   -33.2464000  -30.8955400   -25.1804000 -140.7610000    -0.4708472  -41.5205800
 		      -0.4732802  -41.5627800   -25.2139300 -140.7031000   -36.7727800  -34.7660600   -20.7235700   46.9340700
 		     -25.0906000 -140.0886000    -0.4636158  -41.5210200   -20.7949700   46.8388900   -36.3774700  -31.8893500
   14637910000   -31.9918700  -40.0635500   -20.8565500   46.5109700    -0.4802437  -41.7824100   -25.0027400 -140.4796000 
 		     -20.8504400   46.5554000   -32.4243500  -36.7947200   -25.1443700 -140.8898000    -0.4752162  -41.7376600
 		      -0.4842040  -41.7137600   -25.1660000 -141.3791000   -36.8895600  -41.5174500   -20.7497400   46.8621100
 		     -25.0167200 -139.5671000    -0.4671689  -41.7859400   -20.7906800   46.9589600   -35.9134100  -27.0871500
   14707900000   -31.4403500  -45.0945200   -20.8053100   46.9635500    -0.4774289  -41.9939800   -25.1041200 -140.0932000 
 		     -20.7916700   46.8340400   -33.0916300  -42.7875600   -25.0642600 -140.5966000    -0.4641182  -41.9133300
 		      -0.4832126  -41.9867700   -25.1285000 -140.9108000   -35.5185900  -38.4036600   -20.7793200   46.6152700
 		     -24.9412100 -139.8821000    -0.4558666  -41.8862500   -20.7839400   46.6334800   -36.0501700  -33.8390400
   14777890000   -31.3794800  -37.8158600   -20.7480800   46.7275100    -0.4837121  -42.2055300   -25.0319700 -140.4904000 
 		     -20.8349200   46.4148900   -32.7261700  -36.2196300   -25.0099000 -140.9056000    -0.4749349  -42.2405100
 		      -0.4761724  -42.1591500   -24.9937200 -139.8626000   -36.4145500  -37.3753700   -20.7558700   46.4269300
 		     -24.9176000 -139.6825000    -0.4753562  -42.1976600   -20.7806800   46.3930700   -36.3826300  -30.5605500
   14847880000   -31.5883400  -39.8984900   -20.7414500   46.4567100    -0.4713630  -42.4180500   -24.9609200 -140.3154000 
 		     -20.8760700   46.3072600   -32.6802600  -33.2221900   -25.0287800 -141.5407000    -0.4675889  -42.3227900
 		      -0.4748347  -42.3412400   -24.9770500 -140.9604000   -37.2831600  -35.0681000   -20.6736100   46.2187200
 		     -24.9208000 -140.4697000    -0.4628829  -42.2651600   -20.7291800   45.9432200   -36.1297900  -29.7657600
   14917870000   -31.8389100  -41.9382200   -20.7441900   46.6017700    -0.4840003  -42.5671000   -24.8899900 -140.7876000 
 		     -20.9046800   46.0782500   -32.3629300  -48.0953300   -24.9521700 -140.9705000    -0.4628653  -42.5754800
 		      -0.4836232  -42.5412900   -25.1925800 -140.6324000   -36.4503600  -47.6705300   -20.7293800   46.0604900
 		     -25.0184600 -140.2114000    -0.4683786  -42.4842000   -20.7574400   46.0346900   -36.0120400  -32.7283700
   14987860000   -31.3870700  -40.1543000   -20.8546500   46.1161200    -0.4976217  -42.8009000   -24.9362600 -140.8492000 
 		     -20.7938000   45.8777500   -32.6004000  -37.2288100   -24.9401900 -141.8292000    -0.4757022  -42.7244900
 		      -0.4971483  -42.8086100   -25.1041000 -141.7299000   -36.8780100  -40.6314600   -20.7632300   45.8344200
 		     -25.0128600 -141.1253000    -0.4709089  -42.6766400   -20.7433200   45.9110800   -35.2800400  -28.0758500
   15057850000   -31.6767400  -39.2998200   -20.8630100   45.6087200    -0.4862380  -43.0072500   -24.8196200 -141.2079000 
 		     -20.7957700   45.8477400   -32.8841500  -33.4554500   -24.9973800 -141.5251000    -0.4660131  -42.9615900
 		      -0.4846561  -43.0235400   -25.0439200 -141.8801000   -36.8496200  -37.9840300   -20.7418900   45.8375200
 		     -24.8925100 -140.2814000    -0.4718946  -42.8543400   -20.7752700   45.8370400   -36.8423500  -32.1808200
   15127840000   -31.7357200  -42.8363000   -20.7542000   45.3668700    -0.4986190  -43.2134100   -24.8640100 -140.5425000 
 		     -20.8781500   45.2002800   -32.4627700  -36.4896900   -24.8470100 -141.7070000    -0.4774887  -43.1425600
 		      -0.4816627  -43.2538400   -24.8795800 -141.4414000   -36.2062500  -44.7249200   -20.7081800   45.7537400
 		     -24.9424100 -140.2942000    -0.4762524  -43.0370300   -20.7024900   45.6183600   -36.5602600  -28.5046100
   15197830000   -31.7300400  -42.8257800   -20.7612400   45.5337200    -0.4759390  -43.4720700   -24.7479900 -140.5119000 
 		     -20.7981700   45.0816500   -33.2078700  -39.0022900   -24.8565500 -141.6593000    -0.4845628  -43.2922800
 		      -0.4836539  -43.4263000   -24.8028700 -141.4974000   -36.2843800  -43.5448800   -20.6760100   45.4387500
 		     -24.9034600 -141.1505000    -0.4725332  -43.3061400   -20.7127300   45.6162300   -37.2700700  -41.2376700
   15267820000   -31.6101100  -43.9761200   -20.8102500   45.9773400    -0.4916738  -43.5607100   -24.7265100 -141.1428000 
 		     -20.7743100   45.7839500   -32.6813000  -44.1979200   -24.7661900 -141.3925000    -0.4817466  -43.5271800
 		      -0.4928631  -43.5732100   -24.7883500 -141.1528000   -37.3692700  -46.0875400   -20.7081200   45.4469800
 		     -24.7743600 -141.5630000    -0.4754665  -43.5202900   -20.7314000   45.4630500   -36.3469500  -39.5829700
   15337810000   -31.3995100  -45.2621500   -20.7628800   45.1902400    -0.4852407  -43.7728200   -24.6826900 -141.5247000 
 		     -20.8486400   45.0529200   -32.6672700  -43.3715300   -24.7273100 -142.2581000    -0.4764174  -43.7611200
 		      -0.4819482  -43.7256600   -24.7359600 -141.4115000   -37.4226600  -48.9678300   -20.6552600   45.2435900
 		     -24.8165600 -140.9406000    -0.4745563  -43.7927100   -20.7258700   45.3075600   -36.5264500  -35.7369100
   15407800000   -31.4982800  -40.2823000   -20.7552400   44.9933700    -0.4917489  -43.9432500   -24.7088200 -142.1380000 
 		     -20.8096700   45.3270800   -33.4075900  -42.8824000   -24.6963300 -141.6597000    -0.4681998  -43.9293300
 		      -0.4814481  -43.9927000   -24.7257400 -142.0231000   -36.6630400  -51.9317900   -20.7291200   45.0944800
 		     -24.6622800 -142.3714000    -0.4560230  -43.8429900   -20.7613700   45.3524100   -36.9598700  -38.5907800
   15477790000   -31.6967700  -43.4062900   -20.8061000   45.0600800    -0.4869660  -44.2465500   -24.6754600 -141.7238000 
 		     -20.7902500   45.1186300   -31.5426600  -43.0554500   -24.6945700 -142.4500000    -0.4735801  -44.1150000
 		      -0.4847426  -44.1924200   -24.8394500 -141.9329000   -37.1225600  -40.5045900   -20.6739700   44.9541500
 		     -24.5767800 -141.5087000    -0.4769524  -44.0325000   -20.7029700   44.9693100   -37.4962000  -35.2320500
   15547780000   -32.1474700  -49.2391700   -20.8685600   44.5428800    -0.4869130  -44.3763800   -24.5727200 -141.0668000 
 		     -20.8241000   44.3929300   -32.6600000  -43.5242800   -24.6351200 -142.2214000    -0.4897305  -44.3589700
 		      -0.4878898  -44.4461400   -24.7438800 -143.2164000   -36.6799700  -46.8304700   -20.6728700   44.8890000
 		     -24.5387700 -141.2022000    -0.4913564  -44.2600400   -20.6622200   45.0628300   -36.7384900  -32.6246100
   15617770000   -31.6969700  -48.6760400   -20.7522200   44.7163700    -0.4936211  -44.5356200   -24.5188800 -141.2031000 
 		     -20.6715500   44.8477400   -33.2451200  -46.0617800   -24.6101900 -142.3710000    -0.4950985  -44.5556500
 		      -0.4872274  -44.4929700   -24.7300300 -142.6561000   -37.3119500  -48.4899500   -20.6286900   44.9700900
 		     -24.5745300 -141.3827000    -0.4999955  -44.5381600   -20.6802600   45.0448700   -37.1162100  -44.5178100
   15687760000   -31.6380600  -45.7074200   -20.8040400   44.2555800    -0.4905454  -44.7945700   -24.5341100 -142.5555000 
 		     -20.8132500   44.8249700   -32.7717300  -44.7958000   -24.5546500 -142.0676000    -0.4886452  -44.7110600
 		      -0.5014216  -44.8068600   -24.5909400 -142.8781000   -37.4181200  -49.2869900   -20.6338500   44.4263800
 		     -24.5655300 -141.4404000    -0.4978589  -44.6978900   -20.7063100   44.7601300   -36.9643000  -38.8060500
   15757750000   -31.7344000  -46.2897300   -20.7825000   44.7238100    -0.4964497  -45.0405300   -24.4837900 -142.6581000 
 		     -20.7748200   44.8312100   -32.9736600  -51.1990400   -24.4074400 -142.3529000    -0.4896132  -44.9184900
 		      -0.4958279  -44.9498400   -24.3622600 -142.6589000   -37.1001000  -45.5710000   -20.6423400   44.1498300
 		     -24.5336200 -141.6553000    -0.4924311  -44.9404100   -20.7087600   44.4285700   -36.2270700  -35.9421800
   15827740000   -31.5799300  -50.7701600   -20.7316800   44.0903100    -0.4967385  -45.2031100   -24.4677900 -142.3441000 
 		     -20.7498500   44.4825700   -33.0227200  -45.1580900   -24.4505700 -142.7286000    -0.4917718  -45.0433500
 		      -0.4888396  -45.1442800   -24.3560100 -143.9092000   -37.2779500  -50.4106600   -20.7056700   44.2121300
 		     -24.4847700 -142.2004000    -0.4673773  -45.0888900   -20.6299800   44.4394100   -37.4660300  -40.4376600
   15897730000   -31.5785900  -48.8892600   -20.7331800   43.9927800    -0.5051054  -45.3093300   -24.3884100 -142.0651000 
 		     -20.8417700   44.7101300   -32.5905500  -44.0225200   -24.4078500 -142.6828000    -0.5010139  -45.2692000
 		      -0.5120817  -45.3611400   -24.4717300 -142.5904000   -36.8334600  -45.7217000   -20.6844400   44.3226600
 		     -24.4473000 -141.6894000    -0.4987192  -45.2923100   -20.7302600   44.2693900   -37.3886900  -39.5179100
   15967720000   -31.5499500  -52.3028700   -20.7242800   44.3697100    -0.5023528  -45.5126600   -24.3337500 -142.3846000 
 		     -20.7809200   43.9251700   -33.3840800  -44.7575300   -24.3441900 -143.1166000    -0.4946813  -45.4707800
 		      -0.4862878  -45.5185800   -24.4827100 -142.4917000   -37.7976000  -46.7006300   -20.6327000   44.0219600
 		     -24.3821900 -141.9215000    -0.4913790  -45.4309000   -20.6599700   43.8236400   -36.7495700  -41.3124200
   16037710000   -31.9883800  -53.6808200   -20.6390000   44.4727600    -0.5024368  -45.6763500   -24.2477900 -142.2279000 
 		     -20.8227700   44.3028500   -32.9417300  -51.1313000   -24.2672300 -142.8075000    -0.4878962  -45.7145500
 		      -0.5184553  -45.6729300   -24.2771300 -143.4037000   -38.1831100  -56.0985300   -20.6396500   43.8068600
 		     -24.3161000 -142.3158000    -0.4845724  -45.6696000   -20.6497000   44.0660700   -37.5591500  -36.8565400
   16107700000   -32.0097500  -51.7116300   -20.7411000   43.9385100    -0.5058120  -45.9383800   -24.2213400 -142.9644000 
 		     -20.6735400   44.0941600   -32.4902100  -51.6521300   -24.2322700 -142.7894000    -0.4981762  -45.7683700
 		      -0.5122845  -45.8887700   -24.3231900 -143.7058000   -37.2245200  -53.8086600   -20.6669600   43.6376200
 		     -24.2989400 -143.1568000    -0.4968076  -45.7287400   -20.6890100   43.9591400   -37.5389400  -45.2754200
   16177690000   -31.5602900  -49.8546300   -20.7725000   43.8946300    -0.5144684  -46.1073200   -24.3184000 -143.1359000 
 		     -20.8425800   43.5927000   -33.2010500  -43.7070000   -24.3012400 -143.4807000    -0.4978096  -46.0613800
 		      -0.5006162  -46.0949600   -24.3373400 -144.0616000   -37.2513500  -46.3299000   -20.6825100   43.1856800
 		     -24.3020200 -142.5089000    -0.5016281  -46.1424500   -20.6766900   43.6566600   -36.5999500  -44.2738500
   16247680000   -31.5519400  -53.0162700   -20.8667100   43.6026500    -0.5111766  -46.2519500   -24.1929600 -142.7249000 
 		     -20.7517000   43.0669100   -33.0917700  -43.7970400   -24.1626200 -143.8510000    -0.4915680  -46.2457600
 		      -0.4937136  -46.2421500   -24.1198600 -143.6903000   -37.8636700  -57.3548000   -20.6786000   43.4879400
 		     -24.1667200 -143.7688000    -0.5096146  -46.1958500   -20.6167000   43.5655500   -37.3172700  -35.8491800
   16317670000   -31.6419900  -52.1867000   -20.7221900   43.4796500    -0.5047402  -46.4726400   -24.0510200 -142.7458000 
 		     -20.7255800   43.2714800   -33.3641400  -55.9629300   -24.1164300 -143.4006000    -0.5080221  -46.3989400
 		      -0.5078501  -46.4992300   -24.1956400 -142.9783000   -37.9020200  -57.6684300   -20.6579400   43.5266800
 		     -24.2154300 -143.9925000    -0.5034384  -46.4453600   -20.6430000   43.2576900   -37.6100200  -43.1987200
   16387660000   -32.0506300  -53.8647900   -20.7421900   43.4734500    -0.5154581  -46.6656000   -24.0587600 -143.2076000 
 		     -20.7525200   42.8400000   -32.0367200  -49.9565400   -24.0912000 -144.0045000    -0.4983296  -46.6403900
 		      -0.5131584  -46.6584300   -24.0140500 -143.6773000   -37.5889600  -59.5691500   -20.6490900   42.9182900
 		     -24.0718000 -143.3796000    -0.4990211  -46.7415800   -20.6520300   42.8808100   -38.1234300  -37.8125900
   16457650000   -31.3953400  -52.7227500   -20.6748200   43.1551300    -0.5091827  -46.8784600   -24.0460800 -143.2083000 
 		     -20.7662400   43.1318800   -33.0852600  -55.2940100   -24.0379700 -143.9233000    -0.5019460  -46.8285400
 		      -0.5178174  -46.9229300   -24.1210800 -144.4173000   -37.8587200  -60.8255800   -20.6327200   42.7061300
 		     -23.9177800 -143.2307000    -0.5090756  -46.8165200   -20.6612000   42.9639500   -37.5735400  -41.2197200
   16527640000   -31.5885500  -55.5185000   -20.6415700   43.4168200    -0.5133445  -47.0364000   -24.0087000 -143.6832000 
 		     -20.7163000   42.8666600   -33.4327300  -45.4853100   -23.9302600 -144.1544000    -0.5060977  -46.9473000
 		      -0.5143308  -47.0036400   -23.8388200 -144.5069000   -37.8305900  -61.1301300   -20.6958800   42.6979100
 		     -24.0174100 -144.4863000    -0.5159003  -46.9040900   -20.6888400   43.0058300   -37.7069800  -44.3620000
   16597630000   -31.3108700  -52.9340900   -20.7744700   42.9156800    -0.5183885  -47.2932000   -23.9967200 -143.6968000 
 		     -20.8057500   43.1250000   -33.4743100  -54.6605800   -23.9256100 -144.2704000    -0.5103506  -47.2638000
 		      -0.5161073  -47.2040300   -24.1699800 -144.5830000   -38.3441700  -58.7101800   -20.6850600   42.5849600
 		     -24.0161000 -143.3501000    -0.5149014  -47.2491300   -20.6466300   42.5043400   -37.5851600  -42.8036700
   16667620000   -31.3566500  -51.9455900   -20.8120300   42.5912200    -0.5169099  -47.3402800   -23.9118300 -143.4517000 
 		     -20.8226700   42.4954800   -34.1260800  -51.2553500   -23.9188300 -144.6078000    -0.5085953  -47.4630200
 		      -0.5130765  -47.3600500   -23.9753700 -145.1399000   -38.5488800  -61.6344000   -20.6420200   42.6133700
 		     -23.9775800 -142.7752000    -0.5144544  -47.3887100   -20.6598700   42.6842700   -38.2063700  -48.4401400
   16737610000   -31.8467800  -54.6496800   -20.9216000   42.7190000    -0.5269855  -47.5582300   -23.9005900 -143.8175000 
 		     -20.7861100   43.1489700   -33.6565700  -54.5485300   -23.8040200 -144.8036000    -0.5023510  -47.5596200
 		      -0.5229130  -47.5605100   -23.9214200 -145.5896000   -39.4116900  -67.9464400   -20.7313200   42.4132700
 		     -23.8317300 -144.0333000    -0.5120541  -47.5126400   -20.6748400   42.2582100   -37.6121600  -49.7892300
   16807600000   -31.5100300  -55.9106800   -20.8052800   42.1398200    -0.5283628  -47.7847400   -23.8080800 -144.5197000 
 		     -20.7935000   42.9270100   -32.9041000  -56.0146900   -23.7931500 -145.1259000    -0.5163070  -47.8081400
 		      -0.5198923  -47.7859700   -23.8233500 -145.3761000   -37.5318400  -60.3062200   -20.6725800   41.8111500
 		     -23.8660900 -144.0537000    -0.5214986  -47.8287000   -20.6860900   42.2251900   -38.7249000  -43.9973700
   16877590000   -31.5447800  -55.8729500   -20.7990200   41.3487600    -0.5121514  -47.9888000   -23.8843700 -144.0562000 
 		     -20.8644000   41.8401300   -32.9146000  -50.8551000   -23.8678900 -145.5504000    -0.5086545  -47.9651100
 		      -0.5079668  -47.9972300   -23.8370800 -145.9320000   -38.1857900  -63.9011300   -20.6631600   41.8967500
 		     -23.7653400 -143.7576000    -0.5148014  -47.9381700   -20.6799000   41.8834700   -37.2991900  -41.8519200
   16947580000   -31.7777900  -58.6122500   -20.7197500   41.6560000    -0.5142119  -48.1901200   -23.7950200 -144.4774000 
 		     -20.7528900   41.8283100   -33.7347800  -50.7276800   -23.7306700 -145.9238000    -0.5103438  -48.0182300
 		      -0.5123057  -48.1493100   -23.7006900 -145.8609000   -39.2404700  -64.4284700   -20.7192500   42.1257200
 		     -23.7699600 -144.8139000    -0.5168799  -48.0786200   -20.6807200   41.9794200   -38.9454600  -57.5582000
   17017570000   -31.8679700  -53.1265100   -20.7939200   42.1303400    -0.5272412  -48.4425300   -23.8039400 -145.0418000 
 		     -20.8301300   42.1622400   -33.9879100  -56.9498700   -23.7138800 -144.9992000    -0.5145447  -48.2652200
 		      -0.5199565  -48.3494100   -23.8039800 -145.0735000   -38.0172100  -67.2160400   -20.7184100   41.7431800
 		     -23.7438200 -145.2244000    -0.5046980  -48.3596500   -20.6908200   41.5936100   -37.4982600  -49.1221000
   17087560000   -31.4764300  -54.4332100   -20.9605900   42.3220600    -0.5147114  -48.6160000   -23.6931600 -145.1635000 
 		     -20.8770500   42.1936800   -33.3276900  -70.2649800   -23.7068700 -145.5121000    -0.5073864  -48.5623600
 		      -0.5304085  -48.5497500   -23.7174400 -145.0628000   -38.2422300  -65.4908800   -20.7111900   41.5138900
 		     -23.8348400 -145.2914000    -0.5134797  -48.4809400   -20.6920600   41.3686300   -37.2648000  -52.6608100
   17157550000   -32.2407000  -56.3651100   -20.8743700   42.4770700    -0.5267739  -48.7357500   -23.6559000 -145.0345000 
 		     -20.9402500   41.4231100   -33.3848200  -63.4186000   -23.5983500 -145.0885000    -0.5099290  -48.7085300
 		      -0.5130963  -48.7035700   -23.7623900 -145.6251000   -38.2323800  -76.7109900   -20.6875700   41.5245800
 		     -23.7190900 -145.4363000    -0.5357295  -48.7857500   -20.6784000   41.5020000   -39.3497100  -56.5369900
   17227540000   -31.2943600  -58.0161200   -20.9314200   41.7788600    -0.5213433  -48.9785300   -23.6664400 -145.2850000 
 		     -20.9272000   41.9974400   -31.8066900  -61.2181300   -23.5593100 -145.9090000    -0.5075327  -48.8293600
 		      -0.5143637  -48.9462900   -23.7002700 -146.2086000   -39.1879200  -65.7990700   -20.7344600   41.1703800
 		     -23.6950500 -145.6993000    -0.5071268  -48.8875400   -20.6751500   41.1824700   -39.2451700  -44.5812100
   17297530000   -31.7605200  -61.1845800   -20.9543700   41.8785800    -0.5262712  -49.2079600   -23.6183900 -145.2154000 
 		     -20.8426300   41.4592000   -33.7215200  -57.4821100   -23.5886500 -146.3729000    -0.5144386  -49.0860400
 		      -0.5144585  -49.1855300   -23.5505900 -146.3921000   -37.9226400  -70.4255700   -20.7053500   40.9233900
 		     -23.6676000 -145.2698000    -0.5188520  -49.0788700   -20.7354000   40.8845700   -38.0630600  -63.7681100
   17367520000   -32.3671600  -60.2036800   -20.7955800   41.0041800    -0.5362467  -49.3904300   -23.6128600 -145.3140000 
 		     -20.7086600   40.8745800   -34.0426900  -50.1884500   -23.4455700 -146.6992000    -0.5186490  -49.2711800
 		      -0.5332803  -49.3943000   -23.5934800 -146.8506000   -39.1677200  -80.4049400   -20.7229700   41.0988900
 		     -23.5871900 -145.4061000    -0.5321144  -49.3267000   -20.6864700   41.1239400   -40.7145900  -61.5155200
   17437510000   -31.1329300  -57.2904300   -20.7162600   41.7653500    -0.5344646  -49.5351200   -23.4647800 -145.6768000 
 		     -20.6931600   41.0093500   -33.5057100  -48.9011300   -23.4670400 -146.9290000    -0.5064880  -49.5263000
 		      -0.5322527  -49.5228100   -23.3944000 -147.5891000   -39.1382700  -66.9183000   -20.7302500   40.9107900
 		     -23.4356500 -145.8725000    -0.4983255  -49.4540200   -20.7493300   41.0277700   -39.7297200  -58.4650900
   17507500000   -31.8584900  -58.8336300   -20.9266500   41.2637000    -0.5147001  -49.8109700   -23.4606700 -145.9129000 
 		     -20.8724200   40.7352300   -33.0170300  -60.1308300   -23.4403600 -146.4906000    -0.5220488  -49.6288800
 		      -0.5277343  -49.7343800   -23.6423200 -145.9994000   -38.6244800  -71.8432700   -20.7197200   40.2738700
 		     -23.4012800 -145.5442000    -0.5356721  -49.6080100   -20.6892600   40.3160700   -38.5965200  -52.7897700
   17577490000   -31.3231100  -64.4129800   -20.8778800   41.0301800    -0.5176987  -49.9785700   -23.4311000 -145.6542000 
 		     -20.7596000   40.5614800   -33.7914500  -62.8747800   -23.4546000 -147.3572000    -0.5105360  -49.9460900
 		      -0.5177002  -49.9341500   -23.5010500 -146.1976000   -39.6129700  -67.8171500   -20.7630700   40.1968600
 		     -23.4191300 -145.3981000    -0.5028108  -50.0018200   -20.7199100   40.0072700   -38.7337200  -54.3243300
   17647480000   -31.1638800  -61.4918500   -20.8968300   41.0799800    -0.5206023  -50.2488600   -23.4287900 -146.0956000 
 		     -20.9067500   40.4342700   -33.4416000  -61.5635700   -23.3261800 -146.8762000    -0.5076523  -50.1088800
 		      -0.5273198  -50.1787100   -23.4764700 -146.8325000   -38.1388000  -77.8162900   -20.7556800   40.3034100
 		     -23.3553200 -146.0220000    -0.5000461  -50.0949200   -20.7739700   40.3038700   -37.8708300  -62.5654500
   17717470000   -30.9336800  -58.5356300   -20.9267800   40.7701700    -0.5301950  -50.3276400   -23.4238200 -146.3535000 
 		     -20.9194500   40.6892000   -33.3126100  -62.5840800   -23.3087900 -147.3598000    -0.5213088  -50.2750800
 		      -0.5326012  -50.2993300   -23.4077400 -147.5310000   -38.3824100  -76.2373800   -20.7946500   40.2371000
 		     -23.4708100 -147.2609000    -0.5227571  -50.2076900   -20.7435200   40.1217800   -38.8561600  -66.2353600
   17787460000   -31.6437900  -66.4087700   -20.9169400   40.4169800    -0.5260527  -50.5834000   -23.3662000 -146.4055000 
 		     -20.9396300   40.1076400   -33.1324100  -59.5617500   -23.3508900 -147.5674000    -0.5231583  -50.6586800
 		      -0.5404996  -50.5249200   -23.3417600 -146.5024000   -38.0681000  -81.3485900   -20.8029800   39.6250700
 		     -23.3922300 -146.8602000    -0.5188278  -50.5891800   -20.7795200   39.7466700   -38.6405400  -44.3233800
   17857450000   -31.1839500  -64.7173100   -20.9283400   40.3072900    -0.5310631  -50.7458400   -23.2610700 -146.9082000 
 		     -20.8818100   40.5313500   -33.1132900  -72.5235900   -23.3021200 -147.5767000    -0.5324672  -50.7043300
 		      -0.5292917  -50.6935400   -23.3693900 -147.4792000   -39.9301800  -77.9268200   -20.7684400   39.9020900
 		     -23.3591000 -146.4807000    -0.5243399  -50.5691500   -20.7679700   39.5969000   -39.1010900  -61.8982800
   17927440000   -30.9980500  -62.4140900   -21.0802600   40.2425700    -0.5265223  -50.9106300   -23.1886700 -147.0486000 
 		     -20.9357200   40.6570900   -33.7831000  -65.0500300   -23.2646200 -147.8043000    -0.5339341  -50.9461900
 		      -0.5279400  -50.8825200   -23.4544800 -147.7612000   -39.3969300  -69.5399900   -20.7872900   39.3610800
 		     -23.3578300 -146.7002000    -0.5285621  -50.8731900   -20.8217800   39.4724200   -38.9704900  -67.2306500
   17997430000   -31.0260500  -64.6009500   -21.0162800   39.4570100    -0.5272198  -51.1321600   -23.2635300 -146.4377000 
 		     -20.9443100   40.0151500   -33.4462300  -62.2447100   -23.1956500 -148.3577000    -0.5337904  -51.0036700
 		      -0.5219522  -51.1234300   -23.2187800 -148.9633000   -40.3421800  -76.2242200   -20.8252900   39.4766000
 		     -23.2464000 -146.4173000    -0.5372218  -51.0902400   -20.7953700   39.5054400   -38.3013900  -71.9827700
   18067420000   -31.6633400  -65.4721200   -20.9956700   40.1089600    -0.5330324  -51.3901400   -23.2129200 -146.8235000 
 		     -20.9959000   39.9624000   -33.2678100  -58.3908500   -23.1733000 -148.1726000    -0.5218918  -51.2772900
 		      -0.5374764  -51.4131800   -23.3163200 -147.4603000   -39.9993600  -76.9584900   -20.8249700   39.6435600
 		     -23.2845900 -146.6436000    -0.5502974  -51.2059700   -20.8125900   39.5151600   -39.6421200  -79.2418900
   18137410000   -31.4316500  -66.8084600   -21.0098200   39.1677100    -0.5395924  -51.6023100   -23.1440500 -147.2249000 
 		     -21.0024500   39.7867000   -33.3629500  -70.0562300   -23.1661500 -148.1415000    -0.5358706  -51.4774900
 		      -0.5423047  -51.5209600   -23.1842700 -148.5642000   -38.1446900  -78.9847800   -20.8426300   39.1999600
 		     -23.1811400 -147.2963000    -0.5345711  -51.4517200   -20.8634000   39.0424900   -38.5105700  -71.7326600
   18207400000   -31.0357800  -65.0980100   -21.0256500   40.3850700    -0.5359690  -51.7347800   -23.0921500 -147.4361000 
 		     -21.0711300   40.2536000   -33.8068700  -59.2038000   -23.0891300 -148.5524000    -0.5234404  -51.6403500
 		      -0.5368658  -51.6963900   -23.0052600 -148.2755000   -39.6077800  -82.2597800   -20.8365500   38.8537500
 		     -23.1797100 -147.3545000    -0.5118304  -51.6642000   -20.8612700   38.7878500   -39.4026800  -67.6070600
   18277390000   -31.0771800  -66.0379200   -20.9600500   39.5551300    -0.5371277  -51.9195400   -23.1060800 -147.9592000 
 		     -21.0039600   39.5665000   -32.6991200  -69.6134000   -23.0278600 -149.3681000    -0.5185466  -51.8251600
 		      -0.5351740  -51.8825600   -23.0414800 -148.8832000   -41.4612200  -78.5321400   -20.8178800   38.8011000
 		     -23.1825100 -147.6922000    -0.5252197  -51.7725000   -20.8402500   38.6777800   -40.8198500  -55.0295200
   18347380000   -31.0534500  -62.2700000   -21.1161300   39.5025000    -0.5424889  -52.0638500   -23.1016500 -148.6562000 
 		     -20.9253300   39.2076000   -32.9077800  -70.1268100   -22.9786800 -148.8267000    -0.5307584  -52.0132600
 		      -0.5163026  -52.1282000   -23.0787800 -149.3036000   -39.9860100  -80.0269600   -20.8520800   38.6945000
 		     -23.0845800 -147.4677000    -0.5299090  -52.0792000   -20.8785700   38.8508700   -39.0500300  -66.1347600
   18417370000   -31.7069900  -67.5313300   -21.0844700   39.8466600    -0.5485630  -52.3797900   -22.9585800 -147.6490000 
 		     -21.0923900   38.7641900   -33.6984400  -68.8467600   -23.0256000 -149.0119000    -0.5271125  -52.2649700
 		      -0.5402997  -52.2829900   -23.1494200 -149.0548000   -39.9734500  -88.5445300   -20.9045600   38.6517600
 		     -23.0749000 -148.3608000    -0.5288446  -52.2330300   -20.8977100   38.2918600   -40.3332500  -74.3327200
   18487360000   -31.4291400  -67.2060700   -21.0422200   38.8869900    -0.5450484  -52.5860300   -23.0786600 -147.9920000 
 		     -21.0294500   38.7506500   -33.3852900  -67.3172400   -23.0479200 -149.6085000    -0.5431406  -52.4207800
 		      -0.5364918  -52.4789700   -23.1742100 -148.6903000   -39.1351400  -87.9569000   -20.9385800   38.4601400
 		     -23.0769200 -147.9972000    -0.5359362  -52.3363800   -20.9197000   38.4525300   -40.0970500  -71.7604500
   18557350000   -31.3054300  -68.8705100   -21.2495300   39.0751800    -0.5491287  -52.6924100   -22.9150400 -148.3259000 
 		     -21.0723300   39.1884400   -32.7570000  -70.5959200   -22.9294300 -149.5494000    -0.5329738  -52.6708700
 		      -0.5321600  -52.6050400   -22.8938700 -149.3421000   -38.4105200  -78.8296100   -20.9450400   38.5308300
 		     -23.0742200 -147.6784000    -0.5348144  -52.6694500   -20.9119200   38.2877100   -38.9968000  -71.1291300
   18627340000   -31.6627300  -71.4152100   -21.1821000   39.4101300    -0.5479950  -52.8866000   -22.8941800 -148.5790000 
 		     -21.0763500   39.0809000   -33.4871100  -59.3705600   -22.9439400 -149.8324000    -0.5421792  -52.7969300
 		      -0.5412056  -52.8030100   -23.0683000 -149.8968000   -38.7701500  -88.5789100   -20.9266500   37.9229700
 		     -23.0362900 -147.8547000    -0.5372885  -52.7427400   -20.9432800   38.4145300   -38.7625900  -80.3334900
   18697330000   -31.0199400  -72.3497600   -21.0560300   39.1404200    -0.5502093  -53.0695200   -22.8812700 -148.4903000 
 		     -21.0728700   39.1159600   -33.1381200  -65.5484200   -22.8742500 -149.7601000    -0.5339968  -53.0533700
 		      -0.5446496  -53.0530900   -22.9652800 -149.7986000   -38.6249100  -89.7941700   -20.9596100   38.2032900
 		     -22.9809700 -148.0915000    -0.5290416  -53.1592400   -20.9784500   38.1990700   -39.1762900  -77.5286600
   18767320000   -30.8277000  -67.0502200   -21.1697800   38.8472100    -0.5515957  -53.2996800   -22.8795800 -148.5934000 
 		     -21.1306900   38.8797600   -33.4460800  -72.9044200   -22.8411600 -149.6729000    -0.5485275  -53.2588800
 		      -0.5456794  -53.1909300   -22.7528200 -149.2957000   -38.4528800  -97.3213700   -20.9853300   37.9824800
 		     -22.8856500 -149.2948000    -0.5435696  -53.1048200   -20.9931200   37.9033900   -40.0389600  -74.6694600
   18837310000   -31.4772600  -69.8196500   -21.1169500   38.6524500    -0.5574406  -53.5383300   -22.7994700 -149.3706000 
 		     -21.1867000   39.0022900   -34.1421500  -72.5979200   -22.8276600 -149.7525000    -0.5446020  -53.3811300
 		      -0.5485903  -53.4251300   -22.7881200 -150.3771000   -38.9725000  -88.6470400   -21.0496300   37.7252000
 		     -22.7672800 -148.9213000    -0.5297174  -53.1773900   -20.9998400   37.6764200   -40.4288400  -81.0731000
   18907300000   -31.3444200  -72.2209200   -21.2674100   38.8146500    -0.5494460  -53.6659200   -22.7109700 -149.0923000 
 		     -21.1797700   38.5913800   -32.3623400  -81.3183700   -22.7416600 -150.0352000    -0.5368214  -53.7059400
 		      -0.5441605  -53.6228700   -22.8343300 -149.7116000   -38.8665400  -93.1156700   -20.9712700   37.7121200
 		     -22.8258000 -148.8621000    -0.5618275  -53.6626800   -20.9968600   37.5255600   -40.9874900  -72.8145500
   18977290000   -31.5772100  -72.2895700   -21.1420600   38.2707600    -0.5529750  -53.9140000   -22.6728800 -149.3548000 
 		     -21.2040200   38.5280600   -33.4853800  -69.4899800   -22.7577300 -150.4149000    -0.5336385  -53.7566400
 		      -0.5441191  -53.9197900   -22.8277500 -151.2610000   -37.7653400 -101.1476000   -21.0231400   37.5615700
 		     -22.7255200 -149.1185000    -0.5350237  -53.8467500   -21.0480400   37.4783200   -39.2459700  -67.0901800
   19047280000   -31.0860700  -74.1566800   -21.2941400   38.0467000    -0.5475478  -54.0077300   -22.6984700 -149.2943000 
 		     -21.0988100   37.9303700   -34.2057800  -76.8295400   -22.6853200 -150.4747000    -0.5286025  -53.9927700
 		      -0.5419264  -54.0104000   -22.8445200 -150.3384000   -39.7660500 -102.9859000   -21.0598600   37.1986500
 		     -22.7325000 -149.0251000    -0.5214157  -53.9285700   -21.0763100   37.3483300   -38.1333500  -76.0193400
   19117270000   -31.6063700  -75.4695700   -21.3178300   38.5517200    -0.5569875  -54.1486400   -22.6733200 -149.4078000 
 		     -21.2960800   38.0567400   -32.3692800  -70.7371200   -22.6789200 -150.4128000    -0.5435191  -54.1930400
 		      -0.5559396  -54.1131600   -22.7988700 -150.2292000   -38.3124100 -100.3068000   -21.1049200   37.1989100
 		     -22.7727400 -149.6652000    -0.5355541  -54.1309700   -21.0901100   37.2013400   -39.0208700  -80.1592600
   19187260000   -31.5492300  -77.2488900   -21.2094400   38.0687100    -0.5556908  -54.4562900   -22.6844800 -149.3496000 
 		     -21.2791700   38.2043800   -33.8519100  -79.2569300   -22.6094400 -150.6423000    -0.5359406  -54.3491100
 		      -0.5531123  -54.4493400   -22.6065000 -150.5681000   -38.9037400 -103.3247000   -21.0782800   36.7328600
 		     -22.7542600 -149.9387000    -0.5513959  -54.3502300   -21.0743400   37.0576700   -39.4987100  -75.8463900
   19257250000   -31.4344400  -75.0604100   -21.1962000   37.7074000    -0.5495937  -54.6837200   -22.5890900 -149.5638000 
 		     -21.2765500   38.3105500   -34.1503400  -87.5656900   -22.6400000 -151.0213000    -0.5431011  -54.5858900
 		      -0.5396070  -54.5922100   -22.6595900 -150.0721000   -39.0317800  -93.0050800   -21.1096600   36.8333500
 		     -22.5747200 -149.9567000    -0.5344151  -54.6513900   -21.1456300   36.7149400   -38.6943600  -90.6430500
   19327240000   -31.3209700  -75.8394900   -21.1715900   37.9776500    -0.5540271  -54.7251700   -22.5258300 -149.8216000 
 		     -21.2596100   37.8083300   -33.7772500  -74.8178700   -22.5073700 -151.3276000    -0.5507017  -54.7510000
 		      -0.5399593  -54.7919900   -22.5119600 -150.4237000   -39.3329100 -105.7374000   -21.1091600   36.6930000
 		     -22.6326100 -149.3784000    -0.5682967  -54.7728700   -21.0899300   36.8564100   -40.4416000  -80.7515300
   19397230000   -31.5798200  -76.6529500   -21.2376600   37.8009000    -0.5651535  -54.9517100   -22.5525600 -150.5731000 
 		     -21.2224000   38.2584200   -32.5946200  -73.1002600   -22.4936400 -150.8433000    -0.5546759  -54.8822000
 		      -0.5669889  -54.9446400   -22.5516600 -151.6244000   -38.3610800 -106.5817000   -21.1951400   36.6742200
 		     -22.5708900 -150.4731000    -0.5477134  -54.7879400   -21.1253400   36.5924100   -40.5905200  -84.6503800
   19467220000   -31.2201800  -76.1216300   -21.3916100   37.8298000    -0.5556140  -55.2917100   -22.5509200 -150.6511000 
 		     -21.3358100   38.0308300   -33.5054100  -84.4829000   -22.5191900 -150.9463000    -0.5466575  -55.1102100
 		      -0.5554333  -55.2325700   -22.4183700 -151.6128000   -37.9949900 -106.8507000   -21.1546000   36.4094800
 		     -22.6180800 -150.3982000    -0.5425625  -54.9800900   -21.1859100   36.4090300   -39.1638600  -90.2649900
   19537210000   -30.9773100  -79.5773600   -21.2949800   37.6454300    -0.5624354  -55.4643900   -22.4804100 -150.5294000 
 		     -21.2802900   37.4972000   -31.7629100  -80.0653900   -22.4465700 -151.8289000    -0.5470092  -55.3225100
 		      -0.5548657  -55.3161400   -22.5443400 -151.9836000   -38.3940700 -102.1183000   -21.2188500   36.4315400
 		     -22.5009000 -150.5832000    -0.5459409  -55.3182300   -21.2005100   36.3824900   -39.1322900  -93.8072800
   19607200000   -31.4507500  -74.0803200   -21.3414600   37.1415200    -0.5613660  -55.5077300   -22.4198000 -150.7135000 
 		     -21.4155600   37.6758600   -33.0851700  -75.5439400   -22.4430000 -151.5043000    -0.5591902  -55.4668700
 		      -0.5513330  -55.5316100   -22.3755900 -152.1096000   -39.1498500 -107.7585000   -21.1500600   36.4877200
 		     -22.4310300 -150.5349000    -0.5578201  -55.3700900   -21.1774400   36.0639500   -41.3506700 -103.2783000
   19677190000   -31.7156300  -69.6823800   -21.3635300   36.0491800    -0.5551907  -55.7197500   -22.3806200 -151.2225000 
 		     -21.3481500   36.5731600   -33.6412100  -78.8847400   -22.4099000 -152.3232000    -0.5437248  -55.7157000
 		      -0.5428699  -55.6963900   -22.4130800 -152.1007000   -38.5627800 -113.9594000   -21.2336800   36.2126800
 		     -22.4613700 -150.8345000    -0.5542601  -55.7264200   -21.2120000   36.3271000   -40.0033600  -87.0356900
   19747180000   -31.4961100  -76.4158500   -21.3280400   37.0219400    -0.5525755  -55.8482700   -22.3858000 -151.3802000 
 		     -21.3385900   37.1246900   -32.8224200  -84.9817000   -22.3816200 -151.9803000    -0.5413191  -55.8774200
 		      -0.5637497  -55.8870800   -22.2876200 -151.3914000   -37.6900400 -111.1432000   -21.2114900   35.8843700
 		     -22.3367900 -150.7740000    -0.5461784  -55.7864900   -21.3104400   35.9576800   -39.4341400 -103.3787000
   19817170000   -31.0080000  -79.0850600   -21.3929400   37.0033600    -0.5582504  -56.1097500   -22.3460800 -151.2047000 
 		     -21.4639600   36.9577400   -32.6304200  -77.6711200   -22.1956100 -152.0126000    -0.5555260  -55.9305300
 		      -0.5546082  -56.1404200   -22.3185000 -151.4940000   -38.8184500 -112.3768000   -21.2659100   35.4825100
 		     -22.3591100 -151.0565000    -0.5700083  -56.0294700   -21.3066100   35.8996900   -39.1920400 -103.6254000
   19887160000   -30.8167000  -76.3778200   -21.7009400   37.3096600    -0.5551760  -56.3960300   -22.3084000 -151.4846000 
 		     -21.5540400   36.0886500   -32.6793700  -74.6115800   -22.2572300 -152.8684000    -0.5530550  -56.2851700
 		      -0.5536766  -56.3393500   -22.3161200 -152.3921000   -39.3525300 -116.3759000   -21.2721700   35.2951400
 		     -22.2172400 -152.2458000    -0.5438365  -56.2166500   -21.2355500   35.1486300   -40.4979900  -95.7872900
   19957150000   -31.0181400  -80.2296900   -21.5215900   36.8862800    -0.5577827  -56.5645400   -22.2350400 -151.5628000 
 		     -21.5662200   35.6856100   -32.8610300  -83.3482000   -22.2843200 -153.0495000    -0.5645500  -56.5337900
 		      -0.5580367  -56.5321700   -22.2900900 -152.5683000   -38.8672400 -111.0605000   -21.3089700   35.8019000
 		     -22.2792100 -151.6174000    -0.5649763  -56.4021200   -21.2812300   35.5276300   -40.0932500 -116.7621000
   20027140000   -30.9921200  -77.0033800   -21.5544200   36.3489100    -0.5655079  -56.8293900   -22.3034300 -151.8040000 
 		     -21.5293300   36.7710900   -33.3174400  -87.1068000   -22.1980500 -152.6755000    -0.5582339  -56.6795600
 		      -0.5774937  -56.7726200   -22.3125900 -152.7443000   -38.6588100 -126.3929000   -21.3708400   35.5057500
 		     -22.3422500 -152.0927000    -0.5517339  -56.6587300   -21.3513700   35.5104000   -38.6778300  -93.9244000
   20097130000   -30.9388800  -74.5344500   -21.5326600   35.4493100    -0.5585963  -56.9799700   -22.2251300 -152.3477000 
 		     -21.7827900   36.8529500   -31.6668700  -80.7945900   -22.2070400 -152.9620000    -0.5413607  -56.9015400
 		      -0.5448169  -56.8764900   -22.2645500 -152.5541000   -38.2550400 -111.4124000   -21.3719800   35.2279200
 		     -22.0552600 -152.0412000    -0.5463111  -57.0299800   -21.4174900   34.6545500   -37.2874800  -96.0513000
   20167120000   -31.4617300  -84.7002000   -21.4998900   36.0725400    -0.5637347  -57.1870700   -22.1579900 -152.4114000 
 		     -21.4753100   35.6774000   -32.8570800  -81.3389000   -22.1998400 -153.4290000    -0.5521298  -57.1599900
 		      -0.5529262  -57.0455700   -22.2981200 -153.5577000   -38.2868900 -119.4917000   -21.3998300   34.9980500
 		     -22.1629500 -151.8709000    -0.5540395  -57.2176300   -21.3423500   34.6273800   -39.4342000 -117.9576000
   20237110000   -31.6924900  -73.7714100   -21.7601000   36.3949100    -0.5715629  -57.3061000   -22.0898400 -152.2788000 
 		     -21.6563500   35.4705200   -32.5626900  -84.0848900   -22.1246000 -153.4058000    -0.5561503  -57.2947500
 		      -0.5723525  -57.3660000   -22.1131600 -153.3331000   -38.3163000 -121.3643000   -21.5014700   34.8741900
 		     -22.1536100 -152.6753000    -0.5859052  -57.1981700   -21.4680300   34.8126500   -39.6373600 -106.9424000
   20307100000   -30.3706100  -86.4060900   -21.6133600   36.5378300    -0.5760371  -57.5599500   -22.1575000 -152.6498000 
 		     -21.6685800   36.8049300   -31.0247600  -87.1711300   -22.1038700 -153.9734000    -0.5561479  -57.4073900
 		      -0.5645064  -57.3526700   -22.2302800 -153.2891000   -38.0816000 -111.9869000   -21.4537600   34.6391300
 		     -22.2047900 -153.2885000    -0.5601863  -57.3341300   -21.5051300   34.5919200   -39.2525300  -98.8645800
   20377090000   -30.4166200  -85.0234100   -21.8397800   35.5338500    -0.5735210  -57.7982800   -22.0887500 -151.9191000 
 		     -21.7715400   35.9446600   -32.3565300  -96.1761900   -22.0573000 -153.9179000    -0.5726671  -57.7284500
 		      -0.5840294  -57.7238200   -21.8924300 -152.7083000   -38.4097200 -124.9618000   -21.5211900   34.9208700
 		     -22.1773800 -153.2669000    -0.5763047  -57.6520300   -21.4916000   35.1180100   -37.6779100 -114.1673000
   20447080000   -30.0447100  -84.9464800   -21.8234900   35.6549200    -0.5808127  -57.9518200   -22.0293400 -153.0837000 
 		     -21.6693500   36.9108800   -35.8965600  -88.3814300   -21.9747400 -153.6634000    -0.5486535  -57.8999700
 		      -0.5939727  -57.8356700   -22.0054900 -153.3364000   -37.6505800 -121.4124000   -21.5369300   34.3704800
 		     -22.2051200 -153.2668000    -0.5322530  -57.8900100   -21.5454700   34.1519700   -40.4191000 -104.1364000
   20517070000   -30.9763400  -84.5754200   -21.6746200   36.6509300    -0.5699773  -58.1897300   -21.9395000 -153.3372000 
 		     -21.6853400   35.6032800   -32.7529100  -83.2615400   -22.0988300 -154.2383000    -0.5559588  -58.0120500
 		      -0.5946417  -58.0594400   -22.1092500 -154.8891000   -37.0524900 -119.5476000   -21.5336500   34.5429600
 		     -21.9312200 -153.4139000    -0.5638119  -58.0666700   -21.5913800   34.8929700   -39.9874900 -117.4482000
   20587060000   -30.5479900  -89.9030900   -21.6239500   35.8950600    -0.5769106  -58.2649500   -22.0206700 -153.2056000 
 		     -21.7558100   36.4664200   -33.3142500  -85.8381800   -21.9139400 -154.4784000    -0.5634506  -58.3544800
 		      -0.5797902  -58.3445100   -21.9813800 -154.7030000   -38.7080600 -121.9447000   -21.5189700   34.3854300
 		     -21.9940700 -153.8881000    -0.5856643  -58.2598500   -21.5877200   34.1370800   -41.3512700 -125.8590000
   20657050000   -29.8553200  -84.2329700   -22.0515400   35.1589200    -0.5696630  -58.5466800   -21.9103600 -153.4623000 
 		     -21.8252600   36.2065300   -32.3180100  -92.4002600   -21.9266900 -154.9481000    -0.5632667  -58.4098800
 		      -0.5675426  -58.4960700   -21.8002500 -155.3090000   -37.9394900 -126.5118000   -21.6347500   34.2324300
 		     -21.9579700 -154.1045000    -0.5660670  -58.3494600   -21.6180100   34.3996300   -37.6449900 -103.6322000
   20727040000   -30.2422000  -85.4680900   -21.8056000   35.7202700    -0.5719409  -58.7179200   -21.9283400 -153.4042000 
 		     -21.8347500   35.5736900   -30.9835100  -96.4790300   -21.9611500 -154.4018000    -0.5622727  -58.5932600
 		      -0.5766753  -58.6695400   -21.8294500 -154.6787000   -38.0885000 -130.4933000   -21.6660800   34.1038800
 		     -22.0890000 -153.0108000    -0.5652172  -58.5164800   -21.6469700   33.6756000   -39.0840600 -112.6615000
   20797030000   -30.1974200  -89.3651000   -21.7161100   35.2203600    -0.5837422  -58.9169300   -21.8492500 -153.7267000 
 		     -21.8096000   35.0355100   -32.8015200  -87.0695600   -21.9145400 -154.9812000    -0.5701090  -58.8443200
 		      -0.5710749  -58.9568900   -22.0478800 -155.5372000   -37.4880200 -134.8821000   -21.5785400   33.9633100
 		     -21.7968700 -153.9758000    -0.5719187  -58.6494300   -21.6594200   33.6682800   -41.3679900 -127.3754000
   20867020000   -31.3949900  -87.8576400   -21.8204500   35.0231800    -0.5897273  -59.0900500   -21.7860500 -154.3066000 
 		     -22.0507700   35.9045900   -32.9701900  -95.8544500   -21.8260100 -154.4543000    -0.5574003  -58.9405200
 		      -0.5923243  -59.0997700   -21.9122300 -156.4294000   -36.2207000 -133.2242000   -21.6801200   33.8875700
 		     -21.9866700 -154.7901000    -0.5732168  -58.8141400   -21.6586100   34.0810000   -40.1501100 -109.7190000
   20937010000   -31.6940300  -91.8591200   -22.0861500   35.8971300    -0.5806639  -59.2628200   -21.8355700 -154.4442000 
 		     -21.9300200   34.8300600   -32.9879700 -101.1183000   -21.7584400 -154.9229000    -0.5652862  -59.1724700
 		      -0.5772510  -59.2025900   -21.9026600 -155.8507000   -36.5240400 -137.1569000   -21.6830100   33.4372600
 		     -21.8325700 -154.4437000    -0.5666748  -59.0447100   -21.7213500   33.5791700   -38.8365200 -113.4835000
   21007000000   -30.7305000  -91.1724200   -22.1316800   35.0938000    -0.5693897  -59.4557400   -21.7580600 -154.4838000 
 		     -21.9343500   35.0823000   -32.4607200  -92.8791700   -21.8182600 -155.5042000    -0.5685225  -59.3750700
 		      -0.5690005  -59.4686200   -21.9182400 -156.7303000   -36.0200900 -130.7939000   -21.7362700   33.6248200
 		     -21.7303500 -153.8092000    -0.5614796  -59.2837000   -21.8061000   34.0347000   -42.0781100 -116.4366000
   21076990000   -30.5641200  -90.9968000   -22.0979600   35.2338600    -0.5846741  -59.6737400   -21.7425400 -154.4960000 
 		     -21.9202500   34.8448400   -33.4388300  -97.4290500   -21.7511700 -155.8741000    -0.5885456  -59.6116300
 		      -0.5738581  -59.7213700   -21.6948900 -155.9154000   -36.6797200 -137.4858000   -21.8297200   33.5238800
 		     -21.8373300 -154.3416000    -0.5808414  -59.5582200   -21.8247900   33.1750000   -37.4245900 -122.6555000
   21146980000   -29.6188600  -86.8153900   -22.1483600   36.1697500    -0.5612575  -59.8925400   -21.7470800 -154.8341000 
 		     -22.1710800   35.1056500   -31.2708500  -88.7888300   -21.7558700 -155.8447000    -0.5731677  -59.7202500
 		      -0.5652744  -59.8805000   -21.7759100 -155.7499000   -38.0034100 -136.2291000   -21.7396600   33.0772700
 		     -21.7875800 -155.1023000    -0.5633784  -59.7435100   -21.7833700   33.1768400   -37.9804200 -125.2148000
   21216970000   -30.1010700  -90.6197400   -22.2583500   35.1533900    -0.5850298  -60.1288000   -21.7038200 -154.9386000 
 		     -22.1264600   34.2357300   -34.4567300  -95.9890100   -21.7121400 -156.9545000    -0.5631841  -59.9971400
 		      -0.5792876  -60.2158900   -21.8082800 -156.8451000   -37.6477200 -127.4438000   -21.8366300   32.8266000
 		     -21.7239400 -155.5786000    -0.5991873  -60.0626000   -21.8310800   32.7845200   -38.5839200 -134.5378000
   21286960000   -30.4084700  -90.4511500   -22.0801400   33.5239500    -0.5884424  -60.3071300   -21.5999600 -154.5139000 
 		     -22.0798500   34.1669300   -33.1264300  -99.9416300   -21.6393600 -156.5458000    -0.5688331  -60.2181200
 		      -0.5862758  -60.2499700   -21.5354900 -157.0642000   -36.9871500 -144.9393000   -21.8652500   33.4105100
 		     -21.6213700 -154.5079000    -0.5558988  -60.1448700   -21.8232400   32.8894600   -38.9208600 -134.4616000
   21356950000   -30.5838300  -96.0579100   -22.1689800   35.1436700    -0.5839110  -60.4126700   -21.6088600 -155.1360000 
 		     -22.2403800   35.8826400   -32.4666300 -104.2722000   -21.6176700 -155.8704000    -0.5693956  -60.4069500
 		      -0.5787182  -60.4466200   -21.6904000 -156.0855000   -37.2985000 -137.1376000   -21.9584700   33.0247400
 		     -21.6233400 -155.3816000    -0.5864035  -60.5772800   -21.8989200   32.8676100   -38.5041800 -130.0421000
   21426940000   -29.7539600  -99.5374700   -22.1295200   35.7069900    -0.5870305  -60.6867700   -21.5768100 -155.6703000 
 		     -22.2510300   34.9396900   -30.5822800  -97.0465200   -21.6401400 -157.0234000    -0.5615872  -60.6219700
 		      -0.5937629  -60.6512000   -21.6962600 -156.2623000   -37.3550000 -127.6494000   -21.9948600   32.4652200
 		     -21.7395700 -155.8580000    -0.5434989  -60.7639500   -22.0322000   32.2592400   -39.5410800 -106.2946000
   21496930000   -30.0839300  -96.1934300   -22.4830200   34.8715400    -0.5856661  -60.8431900   -21.5013500 -155.1450000 
 		     -22.1260400   34.7266800   -31.7717000  -97.8320000   -21.4950000 -156.9856000    -0.5745541  -60.9140000
 		      -0.5766443  -60.7653200   -21.5959500 -157.3385000   -36.8176800 -141.9888000   -22.0058100   32.8694800
 		     -21.6106900 -155.5124000    -0.5663209  -60.8171800   -22.0089500   32.2965500   -36.9932700 -131.0095000
   21566920000   -29.7342600  -93.5166200   -22.4814800   35.2876100    -0.5901228  -61.1449400   -21.5543400 -156.1835000 
 		     -22.3207400   33.5282900   -31.5103200  -99.4032300   -21.5336800 -156.9651000    -0.5775815  -61.0144000
 		      -0.5614614  -61.0685200   -21.3101200 -157.4586000   -38.3609500 -140.0798000   -22.1058400   32.2224600
 		     -21.5787800 -156.4478000    -0.5839874  -60.8472900   -22.0220900   32.1960400   -38.1782300 -122.9390000
   21636910000   -31.0112100  -94.3411300   -22.5201500   34.3962700    -0.5832832  -61.3497400   -21.4430800 -155.8378000 
 		     -22.5197700   34.0441200   -33.6042500  -96.4600000   -21.5550600 -157.0729000    -0.5668571  -61.1522700
 		      -0.5657468  -61.3457600   -21.5965500 -156.4444000   -35.8885500 -136.1519000   -22.0834900   32.3855900
 		     -21.6503900 -155.8885000    -0.5624604  -61.3581600   -22.0821400   32.6602700   -37.6436000 -130.5108000
   21706900000   -29.9646200 -101.3837000   -22.4664200   33.9896500    -0.5905875  -61.4578700   -21.4439100 -156.5699000 
 		     -22.3752700   35.3626000   -30.4580500 -104.3945000   -21.4079300 -157.1330000    -0.5667019  -61.3536900
 		      -0.5986783  -61.4509400   -21.5057300 -157.1197000   -36.3110700 -139.9796000   -22.1040200   31.8684300
 		     -21.6162300 -155.8065000    -0.5574851  -61.4652100   -22.1531000   31.9562300   -39.3655400 -134.8998000
   21776890000   -29.8527200  -96.0316800   -22.3860600   35.4066600    -0.5959504  -61.7035800   -21.4088500 -156.4824000 
 		     -22.4202500   34.3576400   -32.0688600  -96.5373700   -21.4007300 -157.6339000    -0.5997941  -61.5467400
 		      -0.6010895  -61.7199900   -21.3289700 -157.5836000   -37.0942800 -138.9139000   -22.1965800   31.7241000
 		     -21.4599800 -157.1521000    -0.6001341  -61.4701300   -22.2097500   31.5950900   -42.4721900 -133.5143000
   21846880000   -30.7187300 -105.2112000   -22.4356400   34.1524500    -0.6039242  -61.8380300   -21.3748700 -156.7799000 
 		     -22.5063600   34.3624500   -29.9708700  -99.5597200   -21.4859300 -157.5160000    -0.5801780  -61.8341200
 		      -0.5867635  -61.8126600   -21.4915400 -158.9980000   -36.6397700 -131.0994000   -22.2112800   31.5915100
 		     -21.3700900 -156.2478000    -0.5583405  -61.9562400   -22.2912400   31.6766600   -38.5518900 -128.3795000
   21916870000   -30.7888600 -105.7228000   -22.3715800   36.2111000    -0.6064344  -62.0574300   -21.3143000 -156.7758000 
 		     -22.4242100   33.3504600   -31.8953300  -92.9147500   -21.3732200 -157.6698000    -0.5800487  -61.8921700
 		      -0.6003017  -62.0846300   -21.5418100 -158.2352000   -36.3180500 -146.6871000   -22.2692700   31.5963100
 		     -21.3444000 -157.0131000    -0.5999374  -62.0753700   -22.2441400   31.9286400   -40.2075900 -143.4423000
   21986860000   -29.4200300  -97.8771300   -22.5357200   35.6617100    -0.5820965  -62.2493700   -21.3029300 -156.5807000 
 		     -22.7708000   35.1932100   -32.5704300  -97.2503500   -21.4277200 -158.1122000    -0.5892994  -62.2091900
 		      -0.5887329  -62.2742000   -21.4945400 -157.9446000   -36.7413700 -142.8932000   -22.2251900   31.2655300
 		     -21.3537000 -156.6798000    -0.5733807  -62.2579200   -22.2840200   31.1171000   -39.5872200 -129.1049000
   22056850000   -29.9086000 -105.4576000   -22.7301500   35.5826500    -0.5844185  -62.4291500   -21.2847400 -157.2123000 
 		     -22.6681100   34.1458400   -32.1063200 -102.7446000   -21.4186000 -158.1847000    -0.5861745  -62.4805600
 		      -0.5869051  -62.4249800   -21.4339800 -157.6618000   -35.3960600 -141.7583000   -22.2311200   31.4633600
 		     -21.4612700 -156.3167000    -0.5963423  -62.3475600   -22.2738900   31.6101600   -35.8712300 -138.4643000
   22126840000   -29.8831000  -99.1392700   -22.5967800   35.9852000    -0.5804352  -62.6248100   -21.2929400 -156.7690000 
 		     -22.6441200   34.6500600   -33.3471100 -110.1480000   -21.2122400 -157.8598000    -0.5865528  -62.5582700
 		      -0.5877174  -62.5987500   -21.4279600 -158.6155000   -35.9519600 -152.8916000   -22.3581000   31.6799800
 		     -21.3262200 -157.0917000    -0.5792450  -62.5499500   -22.3165100   31.4096500   -36.9257300 -141.6378000
   22196830000   -29.9648900  -97.3116400   -22.6913200   34.2313200    -0.6005131  -62.8492400   -21.2372400 -157.2970000 
 		     -22.6343500   33.7350500   -32.3707600 -102.1814000   -21.2582400 -158.2940000    -0.5942166  -62.8126000
 		      -0.6133988  -62.8436200   -21.3396000 -158.6857000   -36.1316900 -142.0039000   -22.5291900   31.1431200
 		     -21.2972700 -158.1653000    -0.5851151  -62.7646100   -22.4802100   31.2024100   -37.8373000 -129.2022000
   22266820000   -30.3151800  -99.4001600   -22.8654900   35.5402100    -0.5956104  -63.0267900   -21.2731900 -157.7630000 
 		     -22.8064100   35.3047900   -31.0316100  -99.2871900   -21.1990800 -158.5848000    -0.5957049  -62.9346800
 		      -0.6031808  -62.9449700   -21.4112200 -159.4472000   -36.3053900 -137.6516000   -22.5577000   31.3996100
 		     -21.2727100 -158.3029000    -0.5677382  -62.9000800   -22.4931300   31.4976700   -36.9875400 -132.2574000
   22336810000   -29.4567600 -104.7810000   -22.7993100   35.7558000    -0.6046622  -63.2551100   -21.1262000 -157.5033000 
 		     -22.6650800   35.1130200   -32.4254900 -109.8726000   -21.1888600 -158.6086000    -0.5828155  -63.0506000
 		      -0.5998529  -63.1419400   -21.1123700 -157.8851000   -35.7816800 -151.6031000   -22.4874700   31.0652600
 		     -21.1451400 -156.8914000    -0.5644209  -63.2153900   -22.4467600   31.0434600   -37.0106200 -144.9743000
   22406800000   -30.0358700 -101.4905000   -22.7820400   35.1815500    -0.6050056  -63.4810100   -21.1957000 -158.7610000 
 		     -22.8564800   35.2433400   -30.4265400 -109.4338000   -21.2132500 -158.5095000    -0.6119236  -63.3463100
 		      -0.6084780  -63.3933000   -21.1953200 -159.2976000   -36.5968600 -149.6190000   -22.6154500   30.9451500
 		     -21.4303400 -157.9708000    -0.6030000  -63.1906700   -22.6855800   31.0270200   -38.2078900 -121.6231000
   22476790000   -29.6094600 -100.8079000   -22.9252800   33.7720400    -0.6043606  -63.6188200   -21.1487200 -158.6297000 
 		     -22.7481300   35.2459400   -31.3640000 -105.4673000   -21.1015000 -159.1129000    -0.6154304  -63.5075800
 		      -0.6106095  -63.6489900   -21.1427600 -158.6902000   -35.4301900 -146.4797000   -22.6097400   30.7058000
 		     -21.0957200 -158.0685000    -0.6123128  -63.5576500   -22.6442200   30.7220800   -38.3118900 -156.8281000
   22546780000   -29.3976200 -101.1677000   -22.9946600   34.4297500    -0.5983613  -63.7965000   -21.1520700 -157.9184000 
 		     -22.9146900   34.7000900   -30.5358200 -108.5380000   -21.1220200 -159.4705000    -0.6138415  -63.6808500
 		      -0.6119200  -63.8478300   -21.2433500 -159.4751000   -35.5845400 -146.2356000   -22.7036700   31.2640000
 		     -21.1701900 -158.7407000    -0.5818896  -63.6422800   -22.6926200   30.9653900   -37.4941700 -143.6667000
   22616770000   -29.8383900 -102.1061000   -22.9534700   35.3306500    -0.5975209  -63.9520900   -21.0809300 -158.5559000 
 		     -22.9885600   33.9445200   -30.6219700 -103.5022000   -21.0890300 -160.0561000    -0.5923768  -63.9245800
 		      -0.6045754  -64.0287100   -21.2718000 -158.2717000   -34.4351700 -152.2850000   -22.6623400   30.9829700
 		     -21.1259300 -158.1934000    -0.5778866  -63.9572300   -22.7245800   31.4885100   -37.8316300 -137.4434000
   22686760000   -29.4233500 -105.4827000   -23.0971900   34.4288400    -0.6089152  -64.2056800   -21.0599200 -158.6737000 
 		     -22.8637800   33.9696000   -32.5740500 -114.5137000   -21.0404600 -160.6142000    -0.6061963  -64.0816600
 		      -0.6073983  -64.1923800   -21.1108100 -160.4820000   -36.3851900 -151.3140000   -22.7531700   30.5480100
 		     -21.0261000 -158.6815000    -0.6089914  -63.9126100   -22.6978600   31.0012400   -35.9813700 -151.8059000
   22756750000   -29.2828900 -105.8129000   -22.9186300   34.1694100    -0.6066597  -64.3749500   -21.0341800 -158.9660000 
 		     -23.0056800   34.1739800   -30.9765100 -116.0771000   -20.9415100 -159.7832000    -0.6208133  -64.2863000
 		      -0.6051835  -64.3961700   -21.0168600 -159.8451000   -34.7084200 -147.6521000   -22.8493500   30.9210000
 		     -21.0556800 -159.5035000    -0.6269011  -64.2468500   -22.8175400   31.1031100   -36.9278900 -144.1839000
   22826740000   -29.1337800 -103.4315000   -23.0896400   34.9529300    -0.6080673  -64.6365200   -20.9278300 -158.8565000 
 		     -23.2091500   34.6209300   -31.3513800 -112.0080000   -20.8706100 -159.9490000    -0.6045510  -64.4021000
 		      -0.6106166  -64.6112400   -20.9702300 -161.1468000   -34.3807800 -151.0517000   -22.8933800   30.0941600
 		     -20.9503200 -158.5027000    -0.5983194  -64.5688900   -22.8213600   30.3199600   -37.2918200 -146.1361000
   22896730000   -29.6673200 -106.0579000   -23.2874500   35.6001400    -0.6128920  -64.7689100   -20.9827600 -159.2005000 
 		     -23.1963900   35.0827700   -30.6764500 -104.1362000   -20.9626900 -160.1387000    -0.6189556  -64.6899600
 		      -0.6255757  -64.7425800   -21.0138400 -159.9182000   -33.7892800 -153.4938000   -22.9010500   30.8573600
 		     -20.9528900 -158.7242000    -0.6006525  -64.6078500   -22.8555800   30.5166400   -35.2899700 -161.7547000
   22966720000   -29.6617100 -112.9130000   -23.2718100   34.6414800    -0.6213763  -65.0163000   -20.8885800 -159.1663000 
 		     -23.1155900   34.5546600   -30.1379300 -113.3229000   -20.9177700 -160.6282000    -0.6089220  -64.7564200
 		      -0.6203501  -64.9202700   -20.8492500 -159.6462000   -33.8024300 -148.4887000   -22.9779700   30.2481100
 		     -20.9294500 -159.5930000    -0.6132691  -64.7538500   -22.9828400   30.4154500   -37.5270100 -153.3559000
   23036710000   -29.6598800 -115.9953000   -22.8891400   35.3805300    -0.5982659  -65.1185200   -20.8693400 -159.5012000 
 		     -23.1671600   33.9818800   -32.2504500 -106.5242000   -20.8641500 -160.2046000    -0.6130947  -64.8923300
 		      -0.6080057  -65.1069600   -20.8936000 -161.5691000   -33.7979400 -162.0580000   -22.9975900   30.9081400
 		     -20.8842300 -158.9909000    -0.5971115  -64.9084900   -23.0247700   30.5183900   -35.8665500 -144.9466000
   23106700000   -29.4482700 -105.8817000   -23.3904400   34.1797000    -0.6106572  -65.3842500   -20.8498600 -159.8425000 
 		     -23.4403400   35.0044300   -31.0598600 -115.7994000   -20.7748400 -160.6863000    -0.6084431  -65.2221100
 		      -0.6160141  -65.4019900   -20.7957200 -160.2791000   -34.4320800 -148.1835000   -23.0753200   30.0391300
 		     -20.7875700 -159.6684000    -0.6132339  -65.1754800   -22.9816200   30.3698200   -36.7039900 -159.7840000
   23176690000   -29.0200800 -111.5073000   -23.3739200   33.9094100    -0.6044691  -65.5956200   -20.7464900 -159.8879000 
 		     -23.3074600   34.3285600   -30.6950100 -109.3100000   -20.8865200 -160.7943000    -0.6125030  -65.4244500
 		      -0.6195189  -65.5480000   -20.9061500 -161.4250000   -34.0519100 -150.8632000   -23.1877900   30.2849700
 		     -20.8226900 -159.9019000    -0.6066083  -65.4452400   -23.0765500   30.5364100   -37.2747700 -150.9859000
   23246680000   -29.0920200 -106.4962000   -23.3734600   35.5470800    -0.6227579  -65.7094100   -20.8380800 -159.8061000 
 		     -23.2314000   34.8396200   -31.1755000 -121.6442000   -20.6947900 -161.0161000    -0.6235969  -65.5559200
 		      -0.6159882  -65.7736600   -20.7956200 -161.2106000   -34.9783500 -164.3312000   -23.1885600   30.6435200
 		     -20.9201500 -159.9180000    -0.6131418  -65.8028100   -23.2780100   30.3575200   -35.6116100 -145.7258000
   23316670000   -29.2007800 -110.0523000   -23.5119500   33.7738000    -0.5965636  -65.9962300   -20.7593900 -160.3636000 
 		     -23.4163100   34.1251300   -31.6345400 -111.0487000   -20.7529900 -161.4667000    -0.6144367  -65.8562700
 		      -0.5866622  -65.9697700   -20.8965100 -162.1991000   -33.4836200 -155.0190000   -23.2680000   29.3587000
 		     -20.8356400 -160.2691000    -0.6077452  -65.8336600   -23.2191900   29.7692300   -35.8835600 -147.0975000
   23386660000   -29.0337500 -110.8143000   -23.3216200   33.5214900    -0.6110123  -66.1593400   -20.7132000 -160.2492000 
 		     -23.5365200   34.3531600   -30.3388000 -109.8488000   -20.7288400 -161.6329000    -0.6003380  -66.0262300
 		      -0.5965194  -65.9816600   -20.8575800 -161.2527000   -33.6725100 -152.9410000   -23.3829200   29.9808100
 		     -20.6735500 -160.9026000    -0.5928776  -66.0083200   -23.3606300   29.5232000   -37.6571200 -149.0953000
   23456650000   -29.5821000 -113.3956000   -23.4707000   33.1973100    -0.6325756  -66.2286500   -20.7096600 -160.5586000 
 		     -23.6512400   34.2377400   -31.2263100 -120.3103000   -20.7077800 -161.2518000    -0.6106399  -66.2953500
 		      -0.6189237  -66.4547300   -20.7385000 -162.2339000   -33.5149500 -155.0143000   -23.3875300   30.3977700
 		     -20.7043100 -160.5536000    -0.6041830  -66.2202400   -23.3152700   30.5782100   -34.5453000 -144.3827000
   23526640000   -30.1814100 -109.8652000   -23.5439800   33.6107600    -0.6313846  -66.5962400   -20.6851000 -161.2066000 
 		     -23.6686600   34.6402800   -31.4814600 -118.2017000   -20.7042000 -162.3006000    -0.6230608  -66.3711200
 		      -0.6383108  -66.5606200   -20.7249500 -161.8597000   -33.4294300 -158.3699000   -23.4054600   29.5749600
 		     -20.8022800 -161.1524000    -0.6147910  -66.5751600   -23.3782800   29.8200600   -36.1173800 -141.2448000
   23596630000   -29.4848300 -113.4677000   -23.7285900   34.7022600    -0.6270731  -66.7112300   -20.6491900 -161.2521000 
 		     -23.8092800   34.3444800   -31.0094500 -109.1619000   -20.6302700 -162.7710000    -0.6149555  -66.6997600
 		      -0.6099201  -66.7530200   -20.6878800 -162.1760000   -32.9439200 -161.7665000   -23.4402400   29.4000100
 		     -20.6865500 -160.7194000    -0.6162471  -66.5909200   -23.4153200   28.9197600   -36.5830800 -162.1141000
   23666620000   -29.1728200 -114.3914000   -23.7923500   33.4226900    -0.6258931  -66.8921800   -20.6134900 -160.9043000 
 		     -23.6865400   33.2285500   -30.9140600 -124.5753000   -20.5770200 -162.4307000    -0.6152309  -66.7586400
 		      -0.6108600  -66.9060100   -20.6296300 -161.4943000   -33.7278400 -163.5321000   -23.5157800   29.9105200
 		     -20.7530400 -160.6954000    -0.6205962  -66.8924400   -23.4222200   29.9979300   -33.6424500 -150.3947000
   23736610000   -29.3814700 -108.3690000   -23.6378800   34.5007900    -0.6316498  -67.2567900   -20.6052800 -161.7334000 
 		     -23.8931900   34.1933300   -32.0195300 -118.8660000   -20.5583700 -162.5280000    -0.6159410  -67.0129200
 		      -0.6105767  -67.0870700   -20.6777700 -161.9923000   -33.2671200 -161.7572000   -23.5426900   29.3126200
 		     -20.5483200 -161.4609000    -0.6193550  -66.9172100   -23.6075000   29.1561900   -35.9222100 -148.8010000
   23806600000   -29.6422700 -119.6850000   -23.8088100   34.4961400    -0.6321096  -67.3134300   -20.5086000 -161.5029000 
 		     -23.9119100   33.6322400   -31.4047500 -129.4734000   -20.5820000 -162.8657000    -0.6016981  -67.1715900
 		      -0.6174657  -67.2502600   -20.6999000 -162.9541000   -32.8404800 -162.7721000   -23.5928000   29.5351000
 		     -20.5053100 -161.8842000    -0.6088871  -67.2566200   -23.6101700   29.7069900   -34.5418600 -161.6063000
   23876590000   -28.3352200 -115.7467000   -23.7071600   35.0665000    -0.6216621  -67.5688600   -20.5554500 -161.3127000 
 		     -23.8296200   34.3052300   -30.4681200 -125.4951000   -20.4836800 -162.9883000    -0.6275579  -67.3698600
 		      -0.6241265  -67.3773400   -20.5638200 -163.9730000   -33.5036500 -162.5269000   -23.6718400   29.7629900
 		     -20.5093300 -161.2892000    -0.6214566  -67.4515800   -23.7473500   29.3563600   -35.0502800 -153.2541000
   23946580000   -28.4961300 -116.1032000   -23.9467700   35.6306700    -0.6241510  -67.6741600   -20.4847600 -161.9031000 
 		     -24.0547300   34.2881200   -32.1695000 -126.4562000   -20.4834100 -162.9304000    -0.6225559  -67.6748400
 		      -0.6270477  -67.6508000   -20.4675200 -162.3877000   -32.7061500 -163.7490000   -23.7342200   29.5220900
 		     -20.5826400 -162.1048000    -0.6249697  -67.5881700   -23.7595600   29.2147400   -34.9131100 -159.5642000
   24016570000   -28.9547200 -114.0854000   -24.0336400   34.2507200    -0.6268895  -67.8700300   -20.4909300 -162.0404000 
 		     -24.1333300   35.5218500   -29.2304100 -122.8448000   -20.5261400 -163.5106000    -0.6176632  -67.8129000
 		      -0.6292970  -67.7931900   -20.5571100 -163.2632000   -33.0335700 -161.1982000   -23.8171000   29.1335200
 		     -20.5314800 -161.8633000    -0.6268204  -67.7735900   -23.8588400   29.0859100   -34.4681900 -157.3681000
   24086560000   -29.4157700 -121.6909000   -24.1469300   33.3449500    -0.6384143  -68.1409500   -20.3814600 -162.2302000 
 		     -24.0340800   32.8635100   -30.6101100 -121.6046000   -20.4521400 -163.8339000    -0.6383569  -67.9726000
 		      -0.6563352  -68.1976700   -20.2373000 -163.9299000   -32.8722200 -169.3001000   -23.9367800   30.0516200
 		     -20.4080100 -162.1667000    -0.6333721  -67.9791000   -23.8556900   29.4302800   -33.7802200 -165.9886000
   24156550000   -28.2632900 -114.2517000   -24.1050400   34.1561400    -0.6346902  -68.3899800   -20.5026500 -162.4976000 
 		     -24.1482500   35.4596500   -30.3358200 -130.9413000   -20.4258100 -163.8366000    -0.6220176  -68.2036400
 		      -0.6311620  -68.2741000   -20.3417900 -163.0809000   -32.8081300 -162.7488000   -23.9384700   30.1727500
 		     -20.5936900 -162.4757000    -0.6155112  -68.2411900   -23.9621800   29.8439300   -33.2182300 -149.1978000
   24226540000   -29.1126600 -118.3549000   -24.2510400   32.9629600    -0.6382241  -68.4674800   -20.3481600 -162.9078000 
 		     -24.4717700   34.0658900   -29.8463800 -121.9503000   -20.3944300 -164.1652000    -0.6225317  -68.4118700
 		      -0.6373925  -68.5188400   -20.4727600 -163.7099000   -32.4518200 -163.0714000   -24.0229600   29.1604800
 		     -20.3586900 -162.8025000    -0.6189601  -68.2313900   -23.9926000   29.4102300   -34.5918400 -166.3952000
   24296530000   -28.6755200 -120.9897000   -24.3691900   35.4654500    -0.6359127  -68.6812500   -20.3755800 -162.4065000 
 		     -24.5110200   33.3355600   -29.8461500 -129.4786000   -20.4449400 -164.3104000    -0.6289406  -68.6481000
 		      -0.6288023  -68.7656000   -20.4734800 -163.9459000   -32.7129800 -164.3212000   -24.0152800   28.5656800
 		     -20.3061900 -162.6239000    -0.6386982  -68.6839400   -24.0201100   29.4600300   -33.7233500 -164.4836000
   24366520000   -28.6969200 -117.1689000   -24.4226500   33.7021800    -0.6580334  -68.9524200   -20.3552500 -162.7861000 
 		     -24.3784700   33.9632800   -30.3576700 -123.8983000   -20.3573400 -164.3683000    -0.6318501  -68.7789300
 		      -0.6421916  -69.0103000   -20.3195200 -163.9989000   -32.4681900 -163.9394000   -24.1582100   29.0070200
 		     -20.4189600 -163.2041000    -0.6435747  -68.7345400   -24.2402200   29.0716400   -34.3772600 -155.1378000
   24436510000   -28.3952300 -117.9752000   -24.3754500   36.2398900    -0.6261503  -69.1744600   -20.2469500 -163.5157000 
 		     -24.3117600   36.3418000   -30.0579000 -127.4145000   -20.3451500 -164.5000000    -0.6213802  -68.8762800
 		      -0.6291722  -69.1517600   -20.3954500 -163.5464000   -31.7771800 -162.7438000   -24.1974700   28.9054400
 		     -20.2977900 -163.3319000    -0.6193911  -68.8415000   -24.2242700   28.2210500   -34.6405100 -167.9468000
   24506500000   -28.4733200 -117.9875000   -24.5937700   32.9900200    -0.6302010  -69.2469200   -20.2392000 -163.2439000 
 		     -24.6736500   33.5653300   -29.8243300 -128.5590000   -20.3104600 -164.8564000    -0.6457803  -69.1358400
 		      -0.6348765  -69.2353900   -20.2070500 -164.4819000   -32.5404900 -166.5855000   -24.2535700   29.3862600
 		     -20.2062800 -163.9420000    -0.6250280  -69.0672100   -24.2526600   28.9763600   -33.9130400 -167.0070000
   24576490000   -28.7579600 -117.0562000   -24.4126200   34.1516600    -0.6450986  -69.4281700   -20.2026800 -163.8143000 
 		     -24.7841700   35.9416300   -30.1679500 -131.2956000   -20.2929900 -165.0333000    -0.6326591  -69.3211200
 		      -0.6397611  -69.3340200   -20.1966300 -164.7392000   -32.5204300 -171.4311000   -24.2497400   29.1689200
 		     -20.2300800 -163.2474000    -0.6307065  -69.3583900   -24.3148300   29.6701000   -32.6343500 -162.5399000
   24646480000   -28.2444600 -118.4311000   -24.4872900   35.8032400    -0.6563613  -69.6905400   -20.2471200 -163.7233000 
 		     -24.8530900   35.4362500   -28.9032600 -133.2512000   -20.2600900 -164.9854000    -0.6479272  -69.5282300
 		      -0.6493768  -69.5935600   -20.2208300 -164.5623000   -31.4139300 -164.1851000   -24.4681100   29.4869800
 		     -20.2932000 -163.6515000    -0.6202695  -69.5907800   -24.4436600   29.6201400   -33.3848500 -162.6276000
   24716470000   -29.2130500 -124.2365000   -24.8550900   35.9482400    -0.6419882  -69.8142900   -20.1380800 -164.3598000 
 		     -24.8547500   35.3575200   -29.2914800 -127.6822000   -20.1958700 -165.5035000    -0.6420649  -69.7987100
 		      -0.6560730  -69.8438000   -20.2411500 -164.8167000   -31.9976300 -169.2072000   -24.4938100   29.0584400
 		     -20.0910800 -164.4687000    -0.6347663  -69.8727200   -24.5233000   28.7125100   -34.4025700 -168.2238000
   24786460000   -28.1850800 -117.0173000   -24.9029200   35.4851700    -0.6496029  -70.0516400   -20.1526200 -163.8977000 
 		     -24.8004000   35.6599700   -30.6404700 -123.9316000   -20.1876700 -165.5087000    -0.6324468  -69.9755200
 		      -0.6335327  -70.0713300   -20.2168000 -165.2619000   -31.5797300 -169.7834000   -24.4860800   29.2488900
 		     -20.2712400 -164.1829000    -0.6277395  -69.9489200   -24.5099100   29.2606300   -32.7262200 -162.3414000
   24856450000   -28.1774900 -121.1088000   -25.0387500   36.8973400    -0.6522531  -70.3541600   -20.0887500 -164.3750000 
 		     -24.8937400   35.2645000   -30.1807800 -130.9275000   -20.1216600 -165.9606000    -0.6395043  -70.1064100
 		      -0.6459981  -70.2136500   -20.2354200 -165.9239000   -31.3506400 -169.9588000   -24.6674300   29.0106300
 		     -20.1294400 -164.8138000    -0.6494381  -70.0918000   -24.6881300   29.3711700   -33.4269600 -169.5678000
   24926440000   -28.6229300 -120.8674000   -25.1131600   36.3624300    -0.6538585  -70.3737500   -20.0609500 -164.4282000 
 		     -25.2549400   34.7700000   -29.2015800 -129.4602000   -20.1361100 -165.8845000    -0.6283356  -70.3765600
 		      -0.6354219  -70.4170200   -20.1806500 -166.0738000   -31.6090300 -168.8874000   -24.7051400   29.2125600
 		     -20.0823000 -164.6067000    -0.6348754  -70.3106400   -24.7468000   29.8285900   -32.9731200 -170.1476000
   24996430000   -28.2774800 -121.2183000   -25.1010300   36.5450600    -0.6355154  -70.7299300   -20.0105600 -164.7621000 
 		     -25.1138600   34.9953300   -30.1911800 -125.5508000   -20.0506500 -166.1545000    -0.6384901  -70.4595600
 		      -0.6509688  -70.6950800   -20.2041000 -165.4671000   -31.5434600 -171.7309000   -24.7140700   28.3842600
 		     -20.0024400 -164.8440000    -0.6394020  -70.5039000   -24.7615200   29.0676600   -33.7088300 -164.1459000
   25066420000   -28.1509100 -124.5553000   -25.1367100   35.5649500    -0.6449499  -70.8747900   -20.0232300 -165.0057000 
 		     -25.1347500   37.1304700   -29.4079100 -130.5755000   -20.0344900 -166.7301000    -0.6456776  -70.8304100
 		      -0.6366431  -70.8039500   -20.0244900 -165.9740000   -31.0897500 -174.2549000   -24.8175200   29.6166100
 		     -20.0062800 -164.2297000    -0.6587127  -70.7850500   -24.8929500   28.3270800   -32.1518600 -164.8182000
   25136410000   -28.6900900 -123.6808000   -25.0344400   36.4690300    -0.6446079  -71.1618200   -20.0124900 -165.2898000 
 		     -25.3800800   34.6135900   -29.7416900 -133.9632000   -20.0279800 -166.5249000    -0.6327780  -70.9674300
 		      -0.6470733  -71.0158500   -19.9633800 -166.8443000   -31.5300400 -170.2092000   -25.0603000   28.9344300
 		     -19.9559200 -165.4220000    -0.6250991  -70.9235200   -24.9863600   28.7916400   -33.8543300 -166.8977000
   25206400000   -28.0029300 -123.8239000   -25.5413900   34.7768100    -0.6505247  -71.1713400   -19.9418300 -165.2104000 
 		     -25.2250900   36.4920800   -29.4795800 -126.7477000   -20.0300400 -166.5249000    -0.6463217  -71.1622800
 		      -0.6502730  -71.1582500   -20.0546300 -166.9609000   -31.3121300 -173.6088000   -24.8786800   29.0715800
 		     -19.9619500 -165.2042000    -0.6615846  -71.0695500   -25.0490500   28.4851700   -33.1656300 -171.4526000
   25276390000   -27.2405100 -120.6290000   -25.2711500   37.7043000    -0.6531873  -71.4280200   -19.9543300 -165.8175000 
 		     -25.3398000   38.0458300   -29.3479900 -130.8208000   -20.0617300 -166.4682000    -0.6629953  -71.3126700
 		      -0.6575930  -71.4454500   -20.0311900 -166.8840000   -31.6290600 -174.2332000   -25.0674900   28.7944800
 		     -20.0060500 -165.4086000    -0.6720670  -71.1662900   -25.1273700   29.0209600   -31.8970100 -176.2871000
   25346380000   -27.7015700 -126.5833000   -25.5603600   37.3085500    -0.6522327  -71.6779600   -19.9199800 -165.7638000 
 		     -25.4595300   37.2741400   -28.6887900 -136.3235000   -19.9999400 -167.0990000    -0.6547256  -71.5568000
 		      -0.6416272  -71.6754800   -19.9367800 -166.7265000   -31.0844600 -171.7664000   -25.2156000   28.9318700
 		     -19.9355400 -166.2002000    -0.6552637  -71.6777200   -25.2687700   29.2740600   -32.7145300 -168.4019000
   25416370000   -28.0336900 -125.0648000   -25.6982500   37.4884800    -0.6516855  -71.8983000   -19.8846600 -166.0229000 
 		     -25.7948400   36.0663500   -28.8206300 -133.0984000   -19.8582700 -167.3167000    -0.6516753  -71.8054900
 		      -0.6569416  -71.8768400   -20.0186300 -166.7590000   -30.9686200 -174.5770000   -25.2545400   28.5849000
 		     -19.9014300 -166.1831000    -0.6452674  -71.6345900   -25.3006100   28.8459800   -32.3206200 -168.4222000
   25486360000   -27.7678700 -127.4760000   -25.7195400   37.8026800    -0.6605971  -72.0650400   -19.8148300 -166.4115000 
 		     -25.6144300   37.0007700   -29.3522900 -135.5313000   -19.9387400 -167.2482000    -0.6371614  -71.9088000
 		      -0.6489431  -72.0828600   -19.9687900 -166.6783000   -31.2110000 -172.1302000   -25.3993300   28.7436900
 		     -19.8176500 -165.9408000    -0.6524393  -71.9164300   -25.4106800   28.7732700   -32.1748000 -171.1605000
   25556350000   -27.8496000 -127.3230000   -25.7134800   38.1320900    -0.6586165  -72.2595100   -19.8565400 -166.4266000 
 		     -25.8876200   38.3141400   -28.8760800 -140.5968000   -19.8121100 -167.3708000    -0.6572647  -72.0487200
 		      -0.6597256  -72.2912500   -19.8431800 -167.8261000   -30.7473400 -176.0288000   -25.4409600   29.0765000
 		     -19.7570800 -166.7646000    -0.6491926  -72.1396700   -25.4802800   29.6988200   -31.2576400 -173.6752000
   25626340000   -27.1806900 -123.0047000   -25.7329500   36.8916900    -0.6487844  -72.4513000   -19.7596000 -166.8035000 
 		     -26.0695600   38.4432900   -28.9600200 -136.7407000   -19.8610600 -167.8711000    -0.6465466  -72.3608500
 		      -0.6553983  -72.4467500   -19.7604000 -167.2035000   -31.0213100 -175.6292000   -25.5467100   28.8875700
 		     -19.8405400 -167.0268000    -0.6614152  -72.2763400   -25.5818100   28.3778300   -32.3677900 -174.5362000
   25696330000   -27.2958900 -129.8997000   -25.8582900   38.1582900    -0.6676402  -72.6195500   -19.8143300 -166.6407000 
 		     -25.9991700   39.4892800   -28.3194200 -133.9934000   -19.7718500 -168.2992000    -0.6503446  -72.4954200
 		      -0.6742911  -72.6785900   -19.9950200 -167.9630000   -30.7885600 -177.7472000   -25.6112400   28.6223800
 		     -19.7657700 -166.6359000    -0.6522089  -72.4408300   -25.6866800   29.1459900   -32.6251000 -173.8878000
   25766320000   -27.6333200 -126.4652000   -25.8877600   36.3597800    -0.6740162  -72.7871300   -19.7822200 -166.9379000 
 		     -25.9596700   38.2604700   -28.8415800 -132.5522000   -19.8002300 -168.0890000    -0.6560766  -72.6965400
 		      -0.6859001  -72.7516700   -19.7513700 -167.6826000   -30.4192600 -176.9646000   -25.6448300   29.1161000
 		     -19.7317700 -166.9327000    -0.6593734  -72.5275900   -25.6503600   29.0199800   -31.3204500 -177.9865000
   25836310000   -27.7421700 -129.1973000   -26.3497000   37.7596200    -0.6680924  -73.0718000   -19.7212600 -167.0349000 
 		     -25.7391200   38.2489100   -30.1571200 -142.2829000   -19.7554500 -168.6614000    -0.6531057  -72.7690400
 		      -0.6487943  -73.1001700   -19.8190900 -168.5301000   -30.4931400 -175.7440000   -25.6613600   29.5190000
 		     -19.6970500 -167.2049000    -0.6615120  -72.7840500   -25.8075400   29.3358600   -31.3505700 -173.2416000
   25906300000   -27.1784200 -130.2205000   -26.1069900   38.5863300    -0.6639251  -73.2100400   -19.7049600 -167.3772000 
 		     -26.1611700   37.4728500   -28.7351000 -131.7939000   -19.7353900 -169.0805000    -0.6480917  -73.1279600
 		      -0.6678075  -73.0791600   -19.6634400 -167.8217000   -30.4780800 -177.2580000   -25.8872400   29.6880300
 		     -19.6821400 -167.1852000    -0.6400055  -72.9790100   -25.9240900   29.5243700   -32.3287100 -171.3112000
   25976290000   -27.2395200 -130.3327000   -26.7128500   40.6233100    -0.6605468  -73.3800200   -19.7053900 -167.7140000 
 		     -26.2469100   38.1707500   -28.8311800 -129.9744000   -19.6197200 -168.8165000    -0.6655273  -73.2962700
 		      -0.6544640  -73.3185800   -19.7242100 -168.6646000   -30.7371300 -172.1682000   -26.1504500   29.4728200
 		     -19.6793000 -167.9973000    -0.6609965  -73.1763000   -26.0959500   29.7707300   -31.6786400 -177.2248000
   26046280000   -27.4647100 -126.7886000   -26.2356100   38.3153500    -0.6627845  -73.6367300   -19.6639300 -167.5460000 
 		     -26.1492000   38.6670500   -29.1972000 -131.1653000   -19.6711700 -168.9701000    -0.6535116  -73.2855300
 		      -0.6530079  -73.7582000   -19.7340500 -169.7967000   -30.1035900 -175.1524000   -26.0981900   29.4299300
 		     -19.5871200 -167.6477000    -0.6636808  -73.2916300   -26.1585400   28.9348200   -31.9935600 -173.4510000
   26116270000   -27.2569600 -131.4431000   -26.4852000   41.3143700    -0.6658679  -73.7071200   -19.6113600 -167.8796000 
 		     -26.4321900   40.0304600   -28.5420600 -133.4372000   -19.6644800 -169.2002000    -0.6556115  -73.5743800
 		      -0.6687778  -73.7032300   -19.6785900 -168.8759000   -30.5943500 -178.0852000   -26.0934800   29.0749700
 		     -19.6155900 -167.6596000    -0.6476054  -73.6142000   -26.2919000   29.3498200   -32.3731300  179.7120000
   26186260000   -27.3774300 -128.1872000   -26.8242600   39.1342300    -0.6690692  -73.9515800   -19.6444500 -167.9255000 
 		     -26.3568700   39.1884100   -29.4295500 -142.5015000   -19.6753500 -169.4404000    -0.6533494  -73.7836100
 		      -0.6733546  -73.9531000   -19.5370300 -169.3423000   -30.1708600 -177.6467000   -26.2778500   29.4048300
 		     -19.6567700 -167.9334000    -0.6519827  -73.8086100   -26.4295100   29.3547900   -31.7678200 -169.0155000
   26256250000   -27.1044400 -126.2720000   -26.7469500   39.9825400    -0.6715954  -74.1742400   -19.5905900 -168.1128000 
 		     -26.4431600   40.7061500   -28.3483000 -136.0758000   -19.5860100 -169.4576000    -0.6569344  -74.0544100
 		      -0.6759712  -74.0557500   -19.5224000 -169.2545000   -29.7345400  179.8816000   -26.5638600   30.1617200
 		     -19.5818500 -167.9187000    -0.6731962  -73.9127400   -26.4574800   29.4250100   -31.2990900 -167.5535000
   26326240000   -27.2901600 -130.7605000   -26.3069100   40.2521100    -0.6765786  -74.3776100   -19.5227800 -168.6255000 
 		     -26.6799400   40.8173200   -29.0745800 -144.3111000   -19.5555000 -169.5115000    -0.6709310  -74.1976000
 		      -0.6752617  -74.4334000   -19.5730600 -169.8617000   -29.4264300 -178.0481000   -26.5350100   29.3700100
 		     -19.5539800 -168.1161000    -0.6595644  -74.4154400   -26.5610500   30.6966600   -31.0397200  178.9321000
   26396230000   -27.1382500 -133.8957000   -26.6961500   41.3014300    -0.6721088  -74.5746700   -19.4719000 -168.8699000 
 		     -26.7613800   41.7267800   -27.8053200 -137.5099000   -19.5827100 -169.7725000    -0.6800923  -74.4891700
 		      -0.6895643  -74.5518600   -19.4458500 -170.1444000   -29.9869900 -176.0699000   -26.6854600   29.6935900
 		     -19.5146400 -168.7352000    -0.6827158  -74.3846500   -26.6713000   29.4710700   -31.7872200 -177.2425000
   26466220000   -26.9467800 -129.5861000   -26.4872700   42.2106700    -0.6698046  -74.8040800   -19.5203400 -169.2322000 
 		     -26.7959700   40.2356900   -28.7304200 -144.4115000   -19.5010600 -169.9904000    -0.6627432  -74.6308700
 		      -0.6597955  -74.8618900   -19.5412900 -170.0887000   -29.1534900  178.8515000   -26.6163900   30.3096000
 		     -19.4280000 -168.6377000    -0.6754864  -74.5959000   -26.6069800   30.4483000   -30.3881400 -172.5211000
   26536210000   -26.9346600 -136.4124000   -27.0602400   41.7617500    -0.6887312  -74.9726300   -19.4828100 -169.0069000 
 		     -27.3311600   41.5910600   -29.1747400 -146.4138000   -19.5201900 -170.4735000    -0.6660264  -74.8429000
 		      -0.6966254  -74.8481800   -19.5700500 -171.2130000   -29.4690300  179.6993000   -26.7828800   30.2710200
 		     -19.4714700 -168.4604000    -0.6604494  -74.7484000   -26.9645300   29.9513000   -30.7888300  177.4189000
   26606200000   -26.9236900 -136.4510000   -26.9271700   42.4659900    -0.6756968  -75.2336700   -19.4108200 -169.5071000 
 		     -27.3251400   43.6534800   -27.6968000 -139.5837000   -19.3996300 -170.4125000    -0.6670072  -74.9814400
 		      -0.6674730  -75.1336400   -19.5601200 -171.2265000   -29.5572900 -176.5167000   -26.9048800   29.9208500
 		     -19.3845300 -168.8092000    -0.6447280  -74.8941800   -27.0701800   31.2258600   -30.7894400 -175.5441000
   26676190000   -26.3763600 -138.1710000   -27.1894400   41.3417200    -0.6670099  -75.4620100   -19.3848700 -169.6050000 
 		     -27.0166600   44.1726800   -29.1451800 -143.5729000   -19.3376500 -170.5484000    -0.6598335  -75.3105400
 		      -0.6776205  -75.3606100   -19.5191400 -171.4023000   -28.7117000  178.3825000   -26.9722600   29.9731800
 		     -19.4565200 -169.0043000    -0.6676659  -75.2770000   -27.0403900   30.4705700   -30.2890400  179.2668000
   26746180000   -26.7207600 -136.4207000   -27.3761000   43.5566600    -0.6816638  -75.5658300   -19.3429900 -169.7055000 
 		     -27.7459000   44.5829600   -28.0532200 -137.5502000   -19.3673600 -170.5778000    -0.6620036  -75.4335300
 		      -0.6725340  -75.6316400   -19.4318600 -171.0026000   -28.6160900  176.9239000   -27.1979000   30.7043300
 		     -19.3893200 -169.7091000    -0.6643456  -75.4261500   -27.0877400   31.1418300   -30.9104900  178.3021000
   26816170000   -26.4501300 -141.6626000   -27.3126400   43.9577500    -0.6862327  -75.8138600   -19.3276900 -169.9883000 
 		     -27.4613300   44.0811900   -27.4320300 -138.1587000   -19.4033900 -171.1784000    -0.6722472  -75.5997800
 		      -0.6758956  -75.8056100   -19.3460400 -172.0273000   -29.2458400 -177.0041000   -27.3539800   31.5858800
 		     -19.4262800 -169.9112000    -0.6760653  -75.4329100   -27.2196000   30.9246000   -30.6753100  177.9228000
   26886160000   -26.8783400 -137.4722000   -27.7697100   42.7047000    -0.6784000  -75.8954400   -19.2966900 -170.1434000 
 		     -27.2191500   44.8916400   -28.6431500 -148.7175000   -19.3513100 -171.7321000    -0.6786097  -75.7645200
 		      -0.6792402  -75.8739500   -19.4399200 -170.2571000   -29.2993400  176.9270000   -27.4605800   29.9634300
 		     -19.2734900 -170.1393000    -0.6861659  -75.9061300   -27.3199900   30.6224800   -29.3017500  176.6030000
   26956150000   -26.7907100 -138.0958000   -27.4046300   44.9012200    -0.6735562  -76.2210500   -19.3048900 -170.2925000 
 		     -27.2201900   42.5922700   -28.3376600 -151.2606000   -19.3320800 -171.6918000    -0.6854927  -76.0171000
 		      -0.6849480  -76.1723600   -19.2571700 -171.0370000   -28.8700000  175.5692000   -27.4305800   30.0890000
 		     -19.2940500 -170.8768000    -0.6779537  -76.0318500   -27.3555200   31.3284800   -30.2484000  172.9809000
   27026140000   -26.5803700 -143.4945000   -27.1656600   44.6358400    -0.6850699  -76.3643400   -19.3079100 -170.7797000 
 		     -27.7546100   44.3150900   -26.8629000 -147.0866000   -19.2785800 -171.1394000    -0.6803094  -76.1764400
 		      -0.6869345  -76.2926900   -19.3655400 -172.5671000   -28.8719500 -178.2783000   -27.7025900   32.1947300
 		     -19.3190800 -170.4576000    -0.6798390  -76.2743000   -27.7710000   31.2380400   -29.8416900 -178.7832000
   27096130000   -26.2829100 -142.0934000   -27.6116600   42.4341000    -0.6913686  -76.6063200   -19.1988700 -170.7099000 
 		     -27.7586200   45.6492700   -27.4764500 -145.1829000   -19.2981400 -171.9598000    -0.6817955  -76.4273600
 		      -0.6821512  -76.5235600   -19.4450300 -172.3375000   -28.6585800  177.9211000   -27.9071200   31.3888700
 		     -19.2279100 -170.3126000    -0.6859316  -76.4859200   -27.8509200   30.9539500   -29.8417500  177.2907000
   27166120000   -26.2731100 -139.9684000   -27.9546600   46.3314100    -0.6861272  -76.8305300   -19.1630200 -171.1440000 
 		     -28.1806800   46.2387600   -27.8970500 -145.7854000   -19.3208100 -172.0916000    -0.6638160  -76.5601500
 		      -0.6805080  -76.8955100   -19.2468700 -172.4958000   -28.3979700  179.5304000   -28.0461600   32.3261700
 		     -19.1219600 -170.7774000    -0.6776738  -76.4790300   -27.9108800   31.9899600   -30.1139300 -178.2184000
   27236110000   -26.7953600 -145.1998000   -27.9500700   43.0017400    -0.6897615  -76.9825900   -19.1739300 -170.8383000 
 		     -27.9636900   45.3143800   -27.0254300 -152.0389000   -19.1886100 -172.2430000    -0.6788561  -76.7055500
 		      -0.6969560  -76.9999200   -19.2570700 -172.3189000   -28.3226100  176.6844000   -28.1820600   32.2326100
 		     -19.2435200 -171.0930000    -0.6561636  -76.8359100   -27.9038200   31.9203700   -29.6692100  174.0692000
   27306100000   -26.6298600 -139.7159000   -27.9198800   44.6094600    -0.7016629  -77.1973000   -19.1618600 -171.4037000 
 		     -28.2836200   47.6433100   -27.2969800 -147.4128000   -19.1951500 -172.6681000    -0.6728921  -77.0314000
 		      -0.6889259  -77.1513500   -19.1103300 -173.1356000   -28.6033600  173.9691000   -28.0669800   31.3921100
 		     -19.0735600 -171.6185000    -0.6742877  -76.8246100   -28.1112800   30.8059700   -29.7663500  172.0524000
   27376090000   -26.4246800 -139.7777000   -27.7822400   50.2888100    -0.6907231  -77.3745900   -19.1339800 -171.5587000 
 		     -28.3069500   47.0124200   -27.0778700 -148.0208000   -19.1023900 -172.1109000    -0.6885058  -77.3652900
 		      -0.7085645  -77.2799800   -19.0893600 -172.6449000   -28.0684700  172.3325000   -28.3847100   32.9518200
 		     -19.0865400 -171.1597000    -0.6714020  -77.1871100   -28.3951900   31.4590700   -29.5021200  178.4037000
   27446080000   -26.9172400 -141.4999000   -28.4674200   47.6494700    -0.6799900  -77.5908000   -19.0717900 -171.7947000 
 		     -27.9206100   48.3595200   -27.1626000 -152.2861000   -19.1532200 -172.4854000    -0.6762618  -77.4545400
 		      -0.6898780  -77.6133000   -19.2278300 -173.2753000   -28.0049100  177.6060000   -28.5202000   32.7855500
 		     -19.0629200 -171.7957000    -0.6869397  -77.3745000   -28.5867300   33.2496800   -30.1486400  176.9454000
   27516070000   -25.8290400 -141.9631000   -28.1990100   47.7923200    -0.6836674  -77.8508000   -19.0283900 -171.9716000 
 		     -28.3157500   44.9677500   -28.2571700 -149.2329000   -19.1059900 -173.1005000    -0.6730288  -77.6024700
 		      -0.6966037  -77.8353500   -19.0423900 -173.2920000   -28.2465400  176.4132000   -28.5256800   32.8730900
 		     -19.1057000 -171.9240000    -0.6827272  -77.4651000   -28.5999900   32.7295300   -30.2107300  168.1733000
   27586060000   -26.4846400 -141.9685000   -28.6533500   49.0175700    -0.6889714  -77.9414000   -18.9962000 -172.2006000 
 		     -28.9190400   48.9734000   -27.8632600 -143.7935000   -19.0424800 -173.6349000    -0.6638639  -77.7024600
 		      -0.6856269  -77.8868800   -18.9947700 -173.6772000   -28.6021000  172.7259000   -28.6839600   33.0649000
 		     -19.1014700 -171.5665000    -0.6614164  -77.7069000   -28.7220100   32.6240800   -29.5899400  175.7572000
   27656050000   -26.3298500 -142.2258000   -28.8908300   50.6243600    -0.6898136  -78.1007700   -19.0062400 -172.1066000 
 		     -28.7271800   48.7884300   -27.4022800 -147.1990000   -19.0414400 -173.6145000    -0.6876539  -78.0086100
 		      -0.6747791  -78.2445800   -19.1264300 -174.4163000   -27.6125400  174.3951000   -28.8866000   34.1972400
 		     -19.0675500 -171.9588000    -0.6874761  -77.8576900   -28.9234800   33.3963100   -30.2045600  172.8341000
   27726040000   -25.6348200 -144.1553000   -29.0553600   52.5734400    -0.6950043  -78.4878300   -18.9320400 -172.9752000 
 		     -29.0034200   49.6645100   -26.3442100 -145.6085000   -18.9856000 -173.6380000    -0.6872250  -78.2125500
 		      -0.7072885  -78.3214000   -19.0123000 -173.5597000   -27.7706500  176.2617000   -29.0733700   33.7076900
 		     -18.9622900 -172.4907000    -0.6976235  -78.1888500   -29.1479200   32.9021500   -30.1002400  169.8958000
   27796030000   -26.0953100 -139.9687000   -28.9984500   52.5430500    -0.6864375  -78.6001700   -18.9120700 -173.4259000 
 		     -28.9067100   51.4047700   -27.2221800 -148.9216000   -19.0150600 -174.1611000    -0.6602334  -78.6043800
 		      -0.6842661  -78.5136600   -19.1248800 -173.6141000   -28.4430100  175.5167000   -29.4023600   33.9705200
 		     -18.9574200 -173.5503000    -0.6762450  -78.5232300   -29.4590400   34.4887900   -29.4475300  178.6034000
   27866020000   -26.0222100 -142.5591000   -29.2981300   52.1786400    -0.6911292  -78.7621100   -18.9774000 -173.2735000 
 		     -29.1742200   53.8463700   -26.8637600 -157.5301000   -18.9831000 -174.0137000    -0.6976812  -78.6394000
 		      -0.6906211  -78.7725500   -18.9305500 -174.9794000   -27.6192000  172.7632000   -29.3385400   36.0960800
 		     -18.8692400 -173.1691000    -0.6879950  -78.5864300   -29.2421500   33.7671900   -29.2342000  176.5412000
   27936010000   -26.4488000 -144.0073000   -29.3173700   53.1839600    -0.7040839  -79.0408000   -18.8723400 -173.4263000 
 		     -28.5992300   52.9689300   -27.1811600 -150.5276000   -18.9623000 -174.6485000    -0.6998342  -78.8144400
 		      -0.6936852  -78.9673800   -18.9750300 -174.8228000   -27.7417400  171.9528000   -29.4394100   33.7983200
 		     -18.9970200 -173.2281000    -0.6903993  -78.9059700   -29.3795100   33.9461700   -29.6664700  168.8461000
   28006000000   -25.5640200 -143.7537000   -28.5544600   54.2226000    -0.6847098  -79.1137800   -18.9106600 -173.2221000 
 		     -29.1734300   52.8125000   -27.9994200 -157.2048000   -18.8174400 -174.5607000    -0.6893916  -78.9922600
 		      -0.7103747  -79.1427900   -18.8953900 -174.0864000   -27.6681500  168.8683000   -29.7311600   36.0445900
 		     -18.8365600 -173.2805000    -0.6897845  -79.0962000   -29.8041100   34.7617600   -29.0462400  172.0551000
   28075990000   -25.9234100 -142.1035000   -29.3890200   54.4836600    -0.6930393  -79.4389300   -18.8568300 -173.8039000 
 		     -29.2315300   56.3023000   -26.8541000 -151.5324000   -18.9192300 -174.4496000    -0.6889827  -79.1471900
 		      -0.6858385  -79.3839600   -19.0157300 -175.5848000   -27.1308600  175.4933000   -29.8336300   37.3573800
 		     -18.8429700 -173.8049000    -0.7078247  -79.0717500   -29.7760300   35.8963200   -29.3414900  168.1971000
   28145980000   -25.5668800 -145.8713000   -29.0244900   55.2051900    -0.7020864  -79.6314500   -18.8618300 -173.7088000 
 		     -29.1676900   57.1163300   -26.5810400 -153.1290000   -18.9073800 -174.9205000    -0.6968217  -79.4343200
 		      -0.6986170  -79.5996800   -19.0011600 -174.9163000   -27.4375000  174.6036000   -30.0491700   37.4228600
 		     -18.8714700 -173.8909000    -0.7173849  -79.2841600   -30.1949100   35.6316700   -30.0358600  171.5731000
   28215970000   -25.7288600 -144.2804000   -29.4846100   53.8788400    -0.6934845  -79.7278100   -18.8153600 -173.9547000 
 		     -29.4036300   56.8397000   -27.3226900 -155.7064000   -18.8627400 -175.3100000    -0.7080383  -79.6162300
 		      -0.6894248  -79.5905700   -18.8828100 -175.2719000   -28.0750900  169.3977000   -30.2295600   35.3680800
 		     -18.8193900 -174.1684000    -0.7237354  -79.5431400   -30.1545300   35.4305500   -28.7687200  168.5692000
   28285960000   -25.5077900 -146.2386000   -29.5040800   55.9236800    -0.7054504  -79.9043600   -18.7900300 -174.2092000 
 		     -29.1843400   56.1832700   -26.7864600 -151.1069000   -18.8453600 -175.4107000    -0.7051188  -79.8268800
 		      -0.7001206  -80.0652600   -18.7549700 -176.3340000   -27.4569300  169.9635000   -30.3135000   38.9366300
 		     -18.6719500 -174.1583000    -0.7055886  -79.7576500   -30.3478400   38.1201000   -28.9824900  175.6304000
   28355950000   -25.1537600 -148.8705000   -29.5516600   62.5037400    -0.7080822  -80.2103800   -18.7524600 -174.3665000 
 		     -29.5157300   59.1925100   -26.4901900 -156.5519000   -18.7955800 -175.7605000    -0.7138885  -79.8960100
 		      -0.7062635  -80.1800000   -18.8409700 -175.8765000   -27.1356100  172.6331000   -30.3990700   39.7963000
 		     -18.8076900 -174.4443000    -0.7173830  -79.9591800   -30.4852700   37.7033100   -28.6460700  169.7768000
   28425940000   -25.5375700 -144.4945000   -29.4295500   61.6089200    -0.7058712  -80.3941800   -18.6914900 -174.8618000 
 		     -29.1826800   61.3060500   -26.1030400 -156.6250000   -18.7854200 -175.5658000    -0.7132783  -80.1828000
 		      -0.7137127  -80.3533800   -18.9355800 -176.1782000   -27.7910800  170.3904000   -30.6433700   39.2549600
 		     -18.7226200 -174.9156000    -0.7149000  -80.2847700   -30.6864900   38.6774300   -27.7862300  169.5541000
   28495930000   -25.5505400 -146.9565000   -29.6562100   62.6311600    -0.7249618  -80.4878900   -18.7100600 -175.2045000 
 		     -30.0800800   62.7588300   -26.7072400 -155.2446000   -18.7508900 -176.1615000    -0.7084640  -80.4541500
 		      -0.7053934  -80.5085400   -18.7802100 -176.3379000   -27.5499700  170.2603000   -30.7096900   40.1055500
 		     -18.6310900 -175.2777000    -0.7268434  -80.5477800   -31.0990000   39.6284300   -28.6773900  172.5833000
   28565920000   -25.6113600 -144.2937000   -29.9589800   62.8186100    -0.7128637  -80.7884900   -18.6950600 -175.2198000 
 		     -29.7253400   63.7586600   -25.4715400 -154.9765000   -18.7089100 -176.5273000    -0.7200578  -80.6348800
 		      -0.7067950  -80.6483800   -18.8438700 -176.8347000   -27.1963500  170.6740000   -31.0272300   41.8695800
 		     -18.6848600 -175.1877000    -0.7133216  -80.5776800   -30.9254400   40.3191300   -27.8513600  174.3229000
   28635910000   -25.6873700 -144.1280000   -30.3710800   61.0457300    -0.7173305  -81.0721300   -18.6531600 -175.1520000 
 		     -30.0246600   65.5229000   -26.7363900 -155.2711000   -18.7398100 -176.2750000    -0.7157869  -80.7849800
 		      -0.7127570  -81.1051700   -18.7694500 -176.5533000   -27.8417100  167.8046000   -31.0381300   41.2318600
 		     -18.6897300 -175.6807000    -0.7054665  -80.7650600   -31.2433400   40.3000000   -28.0521500  166.3253000
   28705900000   -25.7377900 -146.0435000   -29.6464200   64.3808300    -0.7265252  -81.1130100   -18.6970000 -175.4885000 
 		     -29.9060800   63.8806900   -26.7780400 -158.4239000   -18.6701200 -177.0617000    -0.7223518  -80.9424100
 		      -0.7158736  -81.0476200   -18.7884500 -176.2664000   -27.8680500  168.1969000   -31.2966200   41.4182400
 		     -18.6073900 -175.4585000    -0.7415044  -80.8063700   -31.3960500   40.9532000   -28.4844400  168.0880000
   28775890000   -25.4748400 -149.6016000   -30.1257900   62.6509400    -0.7280891  -81.2937200   -18.6208600 -175.8413000 
 		     -30.3387300   64.2659100   -26.0556500 -152.3017000   -18.7055500 -176.8221000    -0.7158983  -81.2703800
 		      -0.7322346  -81.3668100   -18.7345100 -176.5494000   -26.8065500  170.7653000   -31.5100200   44.9092800
 		     -18.6551300 -175.5862000    -0.7199824  -81.1707700   -31.7581800   43.7880400   -28.0610600  171.6552000
   28845880000   -24.9768700 -145.9055000   -30.4262200   68.0161500    -0.7152354  -81.6216400   -18.5691100 -175.9542000 
 		     -30.6102100   68.6854200   -26.0205100 -151.4619000   -18.6757200 -177.2289000    -0.7135510  -81.4751500
 		      -0.7161633  -81.5248000   -18.6220700 -176.3417000   -27.4241900  169.1382000   -31.9206300   43.7085400
 		     -18.5967600 -175.5620000    -0.7341466  -81.3755300   -32.0516200   42.9905100   -28.2779000  167.4578000
   28915870000   -25.2334500 -149.0979000   -29.8560900   64.6715700    -0.7309843  -81.8009300   -18.5798500 -176.1002000 
 		     -30.3785800   69.7010700   -26.6302500 -152.9486000   -18.6357800 -177.0534000    -0.7149851  -81.6349900
 		      -0.7237529  -81.6995200   -18.6638600 -177.5020000   -27.1020600  169.8939000   -31.8764000   44.2797800
 		     -18.5790900 -176.5754000    -0.7187253  -81.4906800   -32.1414900   44.4309700   -28.7077500  171.0726000
   28985860000   -26.2618500 -151.1555000   -29.9376000   70.2049800    -0.7421788  -81.8680400   -18.5330100 -176.4577000 
 		     -30.0809000   65.9242600   -25.3897900 -160.4135000   -18.5766300 -177.1754000    -0.7262250  -81.7425000
 		      -0.7384610  -81.8064000   -18.5578000 -176.7299000   -26.7820400  165.0089000   -32.1469200   46.1355400
 		     -18.4692400 -177.1169000    -0.7204264  -81.6651300   -32.2828200   47.5075100   -27.7896700  170.2648000
   29055850000   -25.4050800 -151.5385000   -30.4973000   71.1238900    -0.7296907  -82.1894700   -18.5218000 -176.4051000 
 		     -30.6022000   71.7436700   -26.7561800 -156.8735000   -18.5579600 -177.4037000    -0.7284209  -82.0867000
 		      -0.7417722  -82.0721000   -18.5091100 -177.7387000   -26.6724500  165.2103000   -32.2419200   45.2245900
 		     -18.4860600 -176.4318000    -0.7303414  -81.8860100   -32.5159400   46.4473700   -28.2736800  168.2039000
   29125840000   -25.0310000 -149.2947000   -31.1046100   71.2187900    -0.7281598  -82.4045600   -18.4988800 -176.8984000 
 		     -30.2600900   71.6669500   -26.1258500 -158.3585000   -18.5306500 -177.7518000    -0.7335492  -82.1082800
 		      -0.7225524  -82.3470500   -18.4634000 -177.5466000   -26.8201200  170.2584000   -32.4939800   48.3589100
 		     -18.5157700 -177.0070000    -0.7470598  -81.9559600   -32.5574100   48.6362200   -27.8329100  169.6584000
   29195830000   -25.3044300 -154.0092000   -30.1503300   72.5243800    -0.7460475  -82.5049300   -18.4469500 -177.2633000 
 		     -30.3194100   73.7301100   -25.6117600 -160.1827000   -18.5353600 -177.9608000    -0.7313764  -82.3909700
 		      -0.7383463  -82.4935500   -18.4759200 -177.3817000   -26.5488300  165.7417000   -32.6539000   49.4230500
 		     -18.4977500 -177.2838000    -0.7269686  -82.3515300   -32.7372700   50.1030000   -27.9539500  170.2603000
   29265820000   -25.0549200 -148.1336000   -30.3942100   74.8478300    -0.7305506  -82.7611400   -18.4117300 -177.0865000 
 		     -30.4241400   74.8364400   -25.6729200 -160.1600000   -18.4954600 -178.5122000    -0.7478703  -82.7258000
 		      -0.7271531  -82.8522100   -18.6062600 -178.0867000   -26.9030300  167.5961000   -32.8814900   52.4665400
 		     -18.4941000 -177.4312000    -0.7520246  -82.6214900   -32.8301800   51.3649100   -27.8210800  168.3533000
   29335810000   -25.1488200 -155.2276000   -30.6404900   70.5356500    -0.7292589  -83.0112600   -18.4081800 -177.5712000 
 		     -30.7178300   74.5476000   -26.5688300 -160.3941000   -18.4930300 -178.2808000    -0.7244375  -82.7008700
 		      -0.7238036  -82.9312400   -18.5276400 -178.9492000   -26.3218300  165.9511000   -32.7079400   51.4907200
 		     -18.4570100 -177.4996000    -0.7406766  -82.4106100   -32.8682000   51.6843300   -27.8005400  164.8711000
   29405800000   -25.1577500 -152.9051000   -30.5939400   78.0034000    -0.7498121  -83.2074100   -18.3841100 -177.4639000 
 		     -30.7009400   79.8967600   -26.5437800 -163.2588000   -18.4050400 -178.1273000    -0.7473559  -82.9773900
 		      -0.7608258  -83.1508000   -18.4778800 -179.0332000   -26.2116300  166.0523000   -32.9524000   55.0466000
 		     -18.4308300 -177.1306000    -0.7705111  -82.9362200   -32.7633000   54.6994800   -27.5091900  168.0824000
   29475790000   -24.9073600 -152.4005000   -30.3436000   80.5380400    -0.7428640  -83.3239400   -18.3280000 -178.0180000 
 		     -30.5262100   79.4725700   -25.9089700 -163.9395000   -18.3938200 -178.7511000    -0.7346877  -83.1194500
 		      -0.7386047  -83.3219800   -18.3916300 -179.0158000   -26.4549700  165.5768000   -33.3161000   54.9879600
 		     -18.4230700 -178.0970000    -0.7456080  -83.1067700   -33.1884700   57.6508300   -27.4164300  166.8095000
   29545780000   -25.3499000 -154.7513000   -30.8665300   76.9412600    -0.7500409  -83.4845000   -18.3144800 -178.0258000 
 		     -30.4651700   79.3367300   -26.5822400 -162.2748000   -18.3303600 -178.5036000    -0.7495570  -83.3350400
 		      -0.7674325  -83.5276900   -18.4851900 -178.8051000   -26.2099600  166.4091000   -33.5021300   56.5830300
 		     -18.4134500 -178.2646000    -0.7318892  -83.2315100   -33.3009800   55.6938100   -27.4394000  165.2030000
   29615770000   -24.6543500 -155.6304000   -30.8042100   79.7747800    -0.7363656  -83.8316600   -18.3484400 -178.1183000 
 		     -29.9173300   81.3718600   -24.7829900 -163.2595000   -18.3610200 -179.2642000    -0.7309999  -83.5391200
 		      -0.7299626  -83.6621900   -18.4076200 -178.8766000   -26.0742700  164.1080000   -33.3625300   56.9610900
 		     -18.4050800 -177.9917000    -0.7241862  -83.5813600   -33.6066600   57.0144700   -27.3032500  167.0716000
   29685760000   -24.4457300 -154.2976000   -30.0573000   81.4256500    -0.7540405  -83.9798000   -18.3393700 -178.6563000 
 		     -30.1348400   83.2777300   -26.1049000 -167.4716000   -18.2642600 -179.0930000    -0.7707322  -83.7235300
 		      -0.7475693  -83.8486200   -18.4143000 -179.5986000   -26.4979200  165.6127000   -33.4652300   61.5542800
 		     -18.3379400 -178.5392000    -0.7798409  -83.6088300   -33.5967000   60.6474500   -26.8457800  161.7554000
   29755750000   -25.0765200 -155.7131000   -31.0268400   85.9262300    -0.7514782  -84.2275700   -18.2721900 -178.8446000 
 		     -30.5653200   83.3611400   -25.7209200 -163.0923000   -18.2950300 -179.6957000    -0.7526753  -83.9561200
 		      -0.7586870  -84.2289900   -18.2554800 -179.9442000   -26.0017500  164.4643000   -33.9098400   61.2553400
 		     -18.2932700 -179.0797000    -0.7615712  -83.8502600   -33.8513400   60.6882900   -26.9475600  164.9272000
   29825740000   -25.1356300 -156.9988000   -30.0083500   87.4755900    -0.7622302  -84.2997100   -18.2335800 -178.6870000 
 		     -30.4106300   82.5527900   -25.4912000 -164.7129000   -18.2085400  179.8282000    -0.7573993  -84.0920300
 		      -0.7596610  -84.2674300   -18.1568800  179.6718000   -26.0500500  163.4219000   -33.8363100   62.7436800
 		     -18.3699800 -179.3270000    -0.7581306  -84.0331000   -33.7548200   61.6489700   -27.0503600  161.5063000
   29895730000   -24.9932900 -156.8199000   -30.1883500   84.1152300    -0.7414215  -84.5372300   -18.1851900 -179.4275000 
 		     -30.3136200   82.6195800   -25.6792700 -162.1914000   -18.2387400  179.7311000    -0.7464674  -84.2193300
 		      -0.7619458  -84.4290700   -18.3074800  179.6133000   -26.4996300  164.8328000   -33.8423300   63.3186800
 		     -18.2482100 -178.5299000    -0.7511831  -84.0954600   -33.7142000   63.6403500   -26.4681400  156.2212000
   29965720000   -24.6370100 -154.3612000   -30.7190000   87.3685700    -0.7522314  -84.6661800   -18.2266900 -179.4643000 
 		     -30.7661000   87.0963700   -26.2281400 -167.0634000   -18.2243600  179.3800000    -0.7438107  -84.5289300
 		      -0.7577885  -84.6788600   -18.2182400  179.6916000   -25.6703600  165.1236000   -34.3582600   67.7998400
 		     -18.2633400 -179.1447000    -0.7578042  -84.5161300   -34.0949600   65.3385200   -26.2498300  164.0602000
   30035710000   -24.3754200 -162.5433000   -30.5913300   82.8068100    -0.7703442  -84.8721300   -18.2121800 -179.5621000 
 		     -30.2429200   87.7134200   -26.1180000 -165.2089000   -18.1864900  179.5435000    -0.7500991  -84.5699900
 		      -0.7713798  -84.8160200   -18.2367500  179.5282000   -25.8743200  162.5652000   -34.3368900   68.3855000
 		     -18.2042100 -179.4198000    -0.7387221  -84.4373900   -34.3446000   67.4505900   -26.7448600  159.5049000
   30105700000   -24.6067400 -157.2763000   -30.7059500   90.7144200    -0.7519802  -85.0945200   -18.1616600 -179.5993000 
 		     -30.2254300   92.9978700   -24.8520900 -159.7974000   -18.1497000  178.9029000    -0.7561732  -84.8371400
 		      -0.7622836  -85.1512700   -18.1391400  179.7961000   -25.8259900  165.8024000   -34.4576500   71.9137600
 		     -18.2106500 -179.8248000    -0.7536220  -84.8605000   -34.2008800   70.7860900   -26.7250200  160.7056000
   30175690000   -24.2077000 -155.1679000   -30.3280100   91.5992400    -0.7387743  -85.2449500   -18.1597100  179.8731000 
 		     -30.4011400   91.8421500   -26.1138200 -160.4285000   -18.1105000  178.7027000    -0.7338333  -85.0125700
 		      -0.7451209  -85.2363600   -18.0831300  178.9100000   -25.7556800  163.1636000   -34.6680700   73.4191400
 		     -18.1229400  179.8023000    -0.7316962  -85.0595900   -34.7406900   71.4288000   -26.4349200  160.8428000
   30245680000   -24.9248500 -160.9566000   -29.9546400   88.5979600    -0.7503846  -85.4899800   -18.1356100  179.6893000 
 		     -30.1728000   91.7083600   -25.6348100 -165.8893000   -18.0970700  178.4604000    -0.7479334  -85.2256400
 		      -0.7514604  -85.4250000   -18.2096000  177.8632000   -25.9187600  162.3399000   -34.5223900   73.3026000
 		     -18.1920000  179.8272000    -0.7627523  -85.3571500   -34.7993700   73.4394900   -27.0907700  159.8956000
   30315670000   -24.4902400 -155.4427000   -30.6522800   95.9865600    -0.7579479  -85.6565200   -18.0761900  179.6426000 
 		     -30.4568600   95.3811700   -25.2684400 -164.0162000   -18.1371700  178.3473000    -0.7486124  -85.4180800
 		      -0.7575971  -85.5628700   -18.0638600  177.7307000   -25.8665700  164.5612000   -34.7553300   76.7686000
 		     -18.0965300  179.1114000    -0.7693747  -85.3580800   -34.3871900   77.2685900   -27.0269700  161.4861000
   30385660000   -23.9172400 -159.0483000   -30.2197600   93.2021500    -0.7579269  -85.9310800   -18.0172200  179.0285000 
 		     -30.5003500   94.2315300   -25.7934700 -166.2580000   -18.0276700  178.4350000    -0.7414078  -85.5472500
 		      -0.7666743  -85.8610200   -18.0803300  178.3408000   -25.1846800  164.1612000   -34.6462900   76.8620000
 		     -18.0367500  179.3575000    -0.7751299  -85.5979400   -34.4743400   78.5999300   -26.0898600  158.8189000
   30455650000   -24.5030200 -158.7965000   -30.4803000   95.1705800    -0.7690262  -86.0869000   -18.0468700  179.2933000 
 		     -30.0756000   97.2128100   -25.9166700 -167.8539000   -18.0033700  178.0435000    -0.7627063  -85.8401400
 		      -0.7591926  -86.0504400   -18.0728000  179.1998000   -25.0757400  163.0419000   -34.6562700   80.3878600
 		     -18.0209600  179.1642000    -0.7576495  -85.6586800   -34.5163800   81.5095100   -26.4127800  158.1833000
   30525640000   -24.3838300 -159.3219000   -29.8084500   95.3755000    -0.7612168  -86.1693300   -18.0065600  178.7406000 
 		     -30.2129900   98.9050100   -24.9671400 -165.4325000   -17.9794500  177.6596000    -0.7525885  -85.9999700
 		      -0.7581803  -86.3125000   -18.0343100  176.9254000   -24.9534300  163.8957000   -34.4119100   84.6038000
 		     -17.9924200  178.5035000    -0.7672457  -85.9123900   -34.5004500   82.9018600   -26.5584500  162.7185000
   30595630000   -24.0762400 -161.7819000   -30.1265700   96.5029100    -0.7626668  -86.4706600   -17.9947800  178.6526000 
 		     -30.0240900   97.5353100   -24.5768200 -170.7979000   -17.9811900  177.4523000    -0.7594162  -86.3038600
 		      -0.7523111  -86.3786500   -18.0267800  177.0933000   -25.0595800  159.4697000   -34.7306100   85.5158200
 		     -18.0050200  178.8399000    -0.7712895  -86.3100700   -34.8573700   84.8440500   -25.7673300  161.7523000
   30665620000   -24.4493000 -158.2475000   -29.8942200  102.3323000    -0.7609497  -86.5166800   -17.9384100  178.4435000 
 		     -30.2033600  101.0169000   -25.4526000 -165.9838000   -17.9533800  177.1937000    -0.7422906  -86.4283800
 		      -0.7781656  -86.5125500   -17.9498300  177.8755000   -25.1594700  158.7054000   -34.6541600   89.4050500
 		     -18.0502100  178.0855000    -0.7629137  -86.4348100   -34.6101800   89.8068800   -26.3578700  161.9716000
   30735610000   -24.1571000 -159.6235000   -29.4737700   94.3496400    -0.7714627  -86.8736200   -17.9400100  178.0775000 
 		     -29.5228900  102.0799000   -25.0655700 -172.0866000   -17.9795100  176.6826000    -0.7574492  -86.5591300
 		      -0.7655067  -86.9074900   -18.0537900  177.2686000   -24.8863500  161.8237000   -34.7216800   89.9861700
 		     -17.9032000  177.8032000    -0.7472769  -86.6976300   -34.7371800   90.1701200   -26.5272900  161.9369000
   30805600000   -24.3761000 -160.1513000   -29.4619900  102.3232000    -0.7712694  -87.0423400   -17.9146200  177.7139000 
 		     -29.9596900  100.8735000   -24.7239400 -168.0630000   -17.9178900  176.7475000    -0.7679027  -86.8280100
 		      -0.7609935  -87.0744400   -17.8969900  177.3296000   -25.3965900  159.6539000   -34.9454300   93.7817800
 		     -17.9065800  177.6653000    -0.7817104  -86.8142500   -34.9773200   92.0353800   -26.2943700  156.1998000
   30875590000   -24.5029700 -158.4152000   -29.9212700  103.6790000    -0.7722499  -87.1666900   -17.9133300  178.0650000 
 		     -29.9548800  103.0660000   -26.0565600 -166.0541000   -17.9013800  176.3078000    -0.7565817  -87.0561000
 		      -0.7731509  -87.3045400   -17.8814200  176.2084000   -24.9574500  154.5124000   -34.6497000   93.3529200
 		     -17.9264300  178.1225000    -0.7665133  -86.8365300   -34.7363700   94.1579600   -26.3989600  157.3974000
   30945580000   -24.0540100 -161.4148000   -28.8905800  109.1335000    -0.7605355  -87.4394500   -17.8144700  177.4195000 
 		     -29.8917500  105.3951000   -25.1459600 -168.0225000   -17.8951700  176.1051000    -0.7407851  -87.2019200
 		      -0.7590813  -87.3154100   -17.8828600  175.9482000   -24.9046700  161.3322000   -34.8093100   96.5347600
 		     -17.8557000  177.8854000    -0.7344740  -87.0669800   -34.9255600   97.5926400   -26.1731400  158.0121000
   31015570000   -23.4723900 -161.3569000   -29.9696300  105.8248000    -0.7725450  -87.6609300   -17.8600500  177.6503000 
 		     -29.1741900  108.9172000   -25.7737200 -168.1920000   -17.8026000  175.9869000    -0.7698370  -87.4367800
 		      -0.7619417  -87.5859000   -17.8067400  176.6007000   -25.0598700  155.8525000   -34.5711600  100.9927000
 		     -17.7859900  177.6706000    -0.7948557  -87.3397100   -34.7734300   98.6320900   -25.6835900  155.9510000
   31085560000   -24.0121100 -161.3463000   -29.5219000  109.9081000    -0.7641351  -87.7857400   -17.8088200  177.1887000 
 		     -29.3767800  106.4401000   -24.5179600 -168.7311000   -17.8250100  176.0093000    -0.7516891  -87.6800600
 		      -0.7633438  -87.8724400   -17.8908700  174.7922000   -24.9768400  155.4296000   -34.4682800  101.7652000
 		     -17.8153700  177.6017000    -0.7629016  -87.4818900   -34.4345800   99.6911200   -25.9614500  160.1948000
   31155550000   -23.8358700 -161.1090000   -29.1702200  109.3427000    -0.7692028  -88.0325700   -17.7950300  176.6198000 
 		     -29.2710400  109.4163000   -24.2141900 -168.4607000   -17.9018400  175.7210000    -0.7579050  -87.8372600
 		      -0.7706759  -87.9722800   -17.9644100  176.3588000   -24.7088700  161.7884000   -34.1761300  103.4863000
 		     -17.8611800  176.9482000    -0.7655966  -87.6624100   -34.1818300  102.9235000   -25.4549500  158.3714000
   31225540000   -23.7342800 -159.6667000   -29.1229300  106.8170000    -0.7822340  -88.3384400   -17.7840400  176.4461000 
 		     -29.3618000  108.0081000   -23.8551700 -165.2871000   -17.8732800  175.5234000    -0.7887660  -88.0553800
 		      -0.7693070  -88.2692800   -17.9730900  176.0877000   -24.8564100  155.6261000   -34.7708900  105.9909000
 		     -17.7392800  176.6811000    -0.7801689  -88.0325900   -34.3370600  107.0845000   -25.9327200  157.6051000
   31295530000   -23.9010100 -158.0994000   -28.8639100  110.4370000    -0.7742329  -88.4247800   -17.7546500  176.2862000 
 		     -28.4817200  112.4123000   -24.6742500 -169.6885000   -17.7682800  175.0956000    -0.7594374  -88.2292800
 		      -0.7588816  -88.2868700   -17.8001700  175.5039000   -25.2481700  154.6515000   -34.2814600  108.8961000
 		     -17.7923600  176.0997000    -0.7741698  -88.2328600   -34.0282200  106.8240000   -25.2173900  157.7978000
   31365520000   -23.7912000 -160.3883000   -29.0501800  113.2601000    -0.7719979  -88.6216700   -17.6539100  176.5867000 
 		     -28.5483600  111.7268000   -24.1496400 -165.9830000   -17.7548000  175.1954000    -0.7514179  -88.5226400
 		      -0.7628461  -88.5518000   -17.7652400  176.2656000   -24.7612600  159.2644000   -33.8466700  111.0493000
 		     -17.6312300  176.2360000    -0.7430323  -88.2758900   -34.2048800  110.4872000   -25.6795800  157.9377000
   31435510000   -23.2019900 -162.5965000   -28.7087500  112.2187000    -0.7635345  -88.9212600   -17.6902800  176.0118000 
 		     -28.3908800  111.8434000   -24.3789400 -168.4407000   -17.7008700  174.8161000    -0.7645451  -88.6902900
 		      -0.7866330  -88.8675700   -17.7356500  175.0437000   -24.5851600  157.3375000   -33.8358000  112.3193000
 		     -17.6845100  176.3244000    -0.7719321  -88.7783400   -34.0600000  112.1881000   -25.5742600  154.6982000
   31505500000   -23.5701700 -163.3829000   -28.2461200  114.4086000    -0.7711306  -89.0577900   -17.6767200  175.6171000 
 		     -28.8323200  115.6141000   -24.0724200 -170.3885000   -17.7671300  174.6104000    -0.7683967  -88.9822600
 		      -0.7753258  -89.1077500   -17.8806800  174.3819000   -24.8247800  157.5798000   -33.6869500  113.5052000
 		     -17.7260000  175.5242000    -0.7648698  -88.8452000   -33.4183000  114.2900000   -25.2322000  159.6666000
   31575490000   -23.4116700 -161.9895000   -28.3400200  114.7478000    -0.7845210  -89.2866600   -17.6355900  175.6644000 
 		     -28.4848100  117.7920000   -23.6238900 -166.6135000   -17.7288200  174.3314000    -0.7622370  -89.1470900
 		      -0.7788141  -89.2238100   -17.6690100  174.5189000   -24.3812300  157.8957000   -33.2602700  116.6463000
 		     -17.6640800  175.1838000    -0.7767650  -88.9329600   -33.5582200  116.9005000   -25.4458400  157.5247000
   31645480000   -23.1993500 -163.6100000   -28.1921600  116.2175000    -0.7787475  -89.5166900   -17.6669300  175.4202000 
 		     -28.2281500  116.5778000   -24.5431700 -166.2616000   -17.7417600  174.3942000    -0.7753837  -89.1870900
 		      -0.7885506  -89.5661500   -17.6620600  174.3116000   -24.3332100  158.0442000   -33.4707500  116.7045000
 		     -17.6525500  175.2024000    -0.8016515  -88.9700200   -33.5332000  117.8474000   -25.2317400  153.4300000
   31715470000   -23.4390500 -162.8437000   -28.2557300  117.3486000    -0.7738128  -89.6634100   -17.6111200  174.9524000 
 		     -28.0643100  117.4808000   -24.2400800 -174.0100000   -17.6723000  174.0679000    -0.7882005  -89.6139500
 		      -0.7786339  -89.6125100   -17.6734500  174.1280000   -24.4919600  156.0716000   -32.9492600  120.6231000
 		     -17.6440400  174.7901000    -0.7780346  -89.7016800   -32.8388300  120.2907000   -25.2009300  157.6422000
   31785460000   -23.2880100 -164.1995000   -27.9388100  115.3108000    -0.7937877  -90.0371300   -17.6027800  174.8524000 
 		     -28.2428900  117.9922000   -24.1163200 -170.4814000   -17.7035200  173.9885000    -0.7782223  -89.7866100
 		      -0.8122851  -89.9032700   -17.8051500  174.1812000   -24.3675400  157.9261000   -32.8224300  122.1362000
 		     -17.6157300  174.6933000    -0.8002753  -89.6942400   -32.6969900  120.2079000   -24.7861900  155.0432000
   31855450000   -23.1793000 -164.9649000   -27.8547400  115.9322000    -0.7929403  -90.1593600   -17.5685900  174.5406000 
 		     -27.9564800  119.4533000   -24.1418800 -175.0070000   -17.6464000  173.6260000    -0.7966232  -89.7036500
 		      -0.7943493  -90.0733500   -17.7686600  173.1589000   -24.0934300  157.9172000   -32.6218600  123.6552000
 		     -17.5482000  174.8468000    -0.8178234  -89.8005400   -32.5921400  122.8415000   -25.4840900  155.0462000
   31925440000   -23.2177000 -162.4189000   -27.7864300  118.5524000    -0.7922766  -90.3052900   -17.6130400  174.2791000 
 		     -27.6201500  119.1182000   -23.6732200 -169.3904000   -17.6349100  173.3812000    -0.7900752  -90.1378700
 		      -0.7954857  -90.2171000   -17.7304400  174.5927000   -24.5720100  155.1814000   -32.1696300  126.4859000
 		     -17.5558600  173.5163000    -0.8066398  -90.1518300   -32.3036900  123.9961000   -25.1155500  158.9826000
   31995430000   -22.9417600 -165.4927000   -27.9527500  117.1965000    -0.7973748  -90.4996600   -17.4600100  174.4058000 
 		     -27.5491000  118.5938000   -24.2440200 -168.2853000   -17.6053900  173.0775000    -0.7852551  -90.2044900
 		      -0.8072302  -90.4640700   -17.7407200  173.6283000   -23.8403800  156.8323000   -32.1956500  124.1272000
 		     -17.5544800  173.8404000    -0.7898936  -90.0445100   -32.0309900  124.6614000   -25.3281700  155.9156000
   32065420000   -22.9247900 -164.4104000   -27.4550000  120.1276000    -0.8109998  -90.7298500   -17.4902300  174.0208000 
 		     -27.1518400  118.1291000   -23.9413300 -172.8040000   -17.5484100  173.5882000    -0.8121459  -90.4614200
 		      -0.8141169  -90.6875100   -17.6700400  173.5270000   -23.6622600  156.5925000   -31.6975000  126.3984000
 		     -17.4896300  173.5244000    -0.7976816  -90.3412900   -31.9655500  125.5383000   -25.1302900  153.5642000
   32135410000   -23.3101000 -166.0160000   -27.4206000  118.9566000    -0.8007493  -90.9729500   -17.4967700  173.7045000 
 		     -27.3942600  121.6856000   -24.0217100 -174.6276000   -17.5599300  172.7016000    -0.8101459  -90.6270800
 		      -0.8077714  -90.9823900   -17.6225200  172.3732000   -24.0865100  155.1882000   -31.6347800  126.4093000
 		     -17.4844000  174.2709000    -0.8110462  -90.4359300   -31.6644000  126.0762000   -24.7966300  153.8770000
   32205400000   -22.9478400 -166.6510000   -26.5748100  117.3551000    -0.8080884  -91.0881700   -17.4430900  173.4318000 
 		     -27.3781700  119.8625000   -23.2050300 -174.1789000   -17.5786100  172.2457000    -0.8053184  -90.8873400
 		      -0.8052467  -91.0016700   -17.5650000  172.0781000   -23.8250600  156.3048000   -31.2787800  129.2445000
 		     -17.5321100  173.5124000    -0.7823712  -91.0161600   -31.3832100  128.7161000   -25.0687400  157.8618000
   32275390000   -22.9356300 -168.1337000   -27.3782100  119.4559000    -0.8114871  -91.2844800   -17.4694800  173.0922000 
 		     -27.2377200  122.0860000   -24.3455900 -177.5655000   -17.4815900  172.8204000    -0.8478426  -91.0314100
 		      -0.8229933  -91.3493000   -17.6023300  173.4016000   -23.8624600  154.4588000   -31.3518900  127.7037000
 		     -17.4628800  172.9450000    -0.8097172  -90.8660000   -31.4402700  129.4763000   -24.7184700  150.8193000
   32345380000   -22.9342800 -168.5907000   -27.2806500  123.7800000    -0.8171957  -91.4719600   -17.4509600  172.7198000 
 		     -26.8546800  122.6287000   -23.7071200 -172.0841000   -17.4822500  172.1025000    -0.8193952  -91.2670100
 		      -0.8157848  -91.2775700   -17.5437500  172.6443000   -24.2031200  153.9659000   -31.2087900  131.0882000
 		     -17.4317600  172.8115000    -0.8010488  -91.2198400   -31.0644700  130.7913000   -24.4911800  154.0007000
   32415370000   -22.7312800 -168.0394000   -26.9994000  120.9924000    -0.8249933  -91.7075500   -17.4099900  172.9503000 
 		     -26.6448200  119.5848000   -23.1092900 -175.3740000   -17.4780900  171.9760000    -0.8081586  -91.3732000
 		      -0.8303147  -91.6976900   -17.5295600  172.1744000   -23.3402400  153.6443000   -31.1713100  129.1468000
 		     -17.4559400  173.0098000    -0.8051404  -91.2589400   -30.7713000  130.0925000   -24.9363200  154.0200000
   32485360000   -22.8744900 -169.2957000   -26.7045100  121.2010000    -0.8435571  -91.9745600   -17.3879900  172.1140000 
 		     -26.8751500  124.0925000   -23.1592500 -174.7202000   -17.4212400  171.9024000    -0.8143336  -91.6164600
 		      -0.8464382  -91.9340600   -17.4313400  171.5260000   -23.4848400  154.4903000   -30.2627200  132.8853000
 		     -17.4421000  172.2005000    -0.8110125  -91.4491100   -30.3235700  131.9670000   -24.6555000  155.8193000
   32555350000   -23.0501000 -168.5999000   -26.2025900  124.6464000    -0.8251213  -92.1591600   -17.3701400  172.5297000 
 		     -26.3868400  125.0881000   -23.3179200 -176.4022000   -17.4641100  171.3796000    -0.8206862  -91.9431200
 		      -0.8076788  -92.1456100   -17.4935500  171.6481000   -23.9711100  154.0236000   -30.4030800  132.3613000
 		     -17.4297300  171.8727000    -0.8224339  -91.8389700   -30.2940700  132.7865000   -24.2789900  152.4465000
   32625340000   -22.7478800 -169.6973000   -26.6636900  124.1700000    -0.8306366  -92.1804400   -17.3595700  172.1695000 
 		     -26.6573200  122.8834000   -23.6572600 -179.5478000   -17.3543200  171.3867000    -0.8307033  -92.0205000
 		      -0.8159919  -92.2065700   -17.3757200  170.8232000   -23.4795700  152.2255000   -30.3341400  131.4045000
 		     -17.3397400  172.1913000    -0.8271897  -91.9980100   -30.5457100  132.9692000   -24.4111600  151.8974000
   32695330000   -22.6945100 -171.8336000   -26.0693300  125.3930000    -0.8335692  -92.4936000   -17.3561000  171.8281000 
 		     -26.1856500  127.3568000   -23.2577100 -176.1922000   -17.2945700  171.0815000    -0.8379375  -92.1656600
 		      -0.8316979  -92.4673500   -17.3225400  171.7990000   -23.1916800  153.2131000   -30.0747900  133.3071000
 		     -17.3899400  172.3892000    -0.8451355  -92.1114600   -29.9705600  132.1994000   -24.0335400  150.3228000
   32765320000   -22.8260600 -171.2754000   -26.3152400  124.2886000    -0.8375276  -92.6722600   -17.3317900  171.3298000 
 		     -26.3157200  127.6629000   -23.4035300 -174.6960000   -17.3913800  170.7884000    -0.8193252  -92.4830600
 		      -0.8317656  -92.5663900   -17.4298400  170.3067000   -23.4430300  153.1897000   -29.7837100  134.0814000
 		     -17.3007800  171.8702000    -0.8293366  -92.4616000   -29.7627600  134.7518000   -24.2832600  154.2570000
   32835310000   -22.6695100 -171.9841000   -25.9987900  123.6052000    -0.8399466  -92.8470500   -17.2926800  171.6331000 
 		     -26.2163500  125.2270000   -22.8300300 -179.1855000   -17.3706000  170.8843000    -0.8191032  -92.4747200
 		      -0.8452808  -92.6938500   -17.3533200  171.0575000   -23.3528600  151.3126000   -29.7547200  135.4378000
 		     -17.2577700  171.5996000    -0.8377168  -92.4704100   -29.7814400  136.0278000   -24.3908000  152.0865000
   32905300000   -22.5000000 -175.0184000   -26.2637900  122.4929000    -0.8549744  -93.0760700   -17.2610000  171.2007000 
 		     -26.0425700  126.5770000   -22.7773400 -178.3808000   -17.2909300  170.7086000    -0.8250080  -92.9012100
 		      -0.8335059  -93.0483200   -17.3583800  170.3618000   -23.5141900  151.8275000   -29.4559600  135.9888000
 		     -17.2706600  170.6527000    -0.8278736  -92.6308200   -29.3099300  136.0633000   -24.0934800  151.3388000
   32975290000   -22.9921000 -171.4794000   -25.8529100  126.1538000    -0.8361352  -93.1759600   -17.2464200  171.1393000 
 		     -26.1167300  124.6995000   -23.1022500 -179.9208000   -17.2774000  170.2167000    -0.8295021  -93.0556900
 		      -0.8253852  -92.9611100   -17.1618200  170.8240000   -23.2469000  150.8443000   -29.0983600  136.1216000
 		     -17.2622700  170.9792000    -0.8318632  -92.9587900   -29.2751900  135.2453000   -23.7536400  151.3414000
   33045280000   -22.1648200 -176.5622000   -26.1715400  126.2459000    -0.8457471  -93.4304400   -17.2517400  170.6848000 
 		     -25.9889700  124.9655000   -23.5714800  178.9084000   -17.2489800  170.1638000    -0.8382066  -93.1401400
 		      -0.8370611  -93.3717000   -17.3345900  170.3557000   -22.8365800  149.2972000   -29.0292700  136.1877000
 		     -17.2205400  170.8458000    -0.8132411  -93.1898800   -29.1306300  136.1552000   -23.8970500  152.5831000
   33115270000   -22.8302600 -174.0854000   -25.7742000  127.3401000    -0.8485082  -93.5228000   -17.1979800  170.4330000 
 		     -25.6925700  127.1121000   -22.8064700 -176.9845000   -17.2506600  170.0031000    -0.8164942  -93.2903600
 		      -0.8647968  -93.5820500   -17.3009700  170.0383000   -23.1317600  150.4777000   -28.7041100  137.3689000
 		     -17.1773100  170.0334000    -0.8578992  -93.3049500   -28.8638600  137.0764000   -24.2162000  154.2244000
   33185260000   -22.6580400 -173.1523000   -25.4908900  127.5880000    -0.8457763  -93.8422900   -17.1833900  170.5407000 
 		     -25.5438000  127.0229000   -22.6278000  179.9348000   -17.2280800  169.6576000    -0.8370733  -93.6357300
 		      -0.8360941  -93.7772000   -17.2265600  169.6255000   -22.9884100  150.1078000   -28.8964000  138.0164000
 		     -17.1389400  170.4174000    -0.8304187  -93.6354800   -28.8082000  138.3760000   -23.7223500  151.3131000
   33255250000   -22.8283200 -177.8664000   -25.8530100  125.3860000    -0.8454546  -93.8606000   -17.1643600  170.1633000 
 		     -25.7551000  127.4102000   -23.4926600  178.4345000   -17.1965200  169.6576000    -0.8379784  -93.6770400
 		      -0.8636749  -93.8715300   -17.4138600  169.0745000   -23.0218700  148.9977000   -28.8627600  138.8341000
 		     -17.2617800  170.0899000    -0.8565792  -93.7296600   -28.8497700  139.1414000   -24.0969700  145.5606000
   33325240000   -22.6825400 -173.9164000   -25.5462300  127.2980000    -0.8478596  -94.1809200   -17.1526000  170.0609000 
 		     -25.0861400  126.8291000   -23.2088000 -176.5768000   -17.1657100  169.1945000    -0.8278549  -93.9360500
 		      -0.8528212  -94.1444800   -17.1934700  169.3783000   -23.0743900  148.4593000   -28.5549800  139.0852000
 		     -17.1073500  169.5818000    -0.8412846  -93.9602600   -28.4638100  139.1278000   -24.4423800  149.3120000
   33395230000   -22.2192900 -171.8695000   -25.0740800  126.6554000    -0.8507740  -94.4066900   -17.1200200  169.4114000 
 		     -24.8567900  127.5697000   -22.5878800  177.6689000   -17.1648600  168.6951000    -0.8521847  -94.2015500
 		      -0.8482727  -94.3637000   -17.1950400  168.2355000   -22.9493000  149.1538000   -28.3177400  139.2768000
 		     -17.1178000  169.4722000    -0.8557800  -94.1436100   -28.3424100  139.0864000   -23.7512400  148.9805000
   33465220000   -22.3018100 -176.1523000   -25.5115300  128.1016000    -0.8476340  -94.6400500   -17.1383000  169.1518000 
 		     -24.9122300  127.4465000   -23.8062600  179.3794000   -17.1317700  168.7773000    -0.8184872  -94.3341800
 		      -0.8521720  -94.6030200   -17.2074500  169.1118000   -22.9334700  149.7240000   -28.0498600  138.6027000
 		     -17.1011400  169.0249000    -0.8586342  -94.3488200   -28.0375300  139.8803000   -24.0050700  148.3312000
   33535210000   -22.6172000 -174.6826000   -25.0315400  127.3649000    -0.8506497  -94.7126400   -17.0829800  168.9567000 
 		     -25.2891500  129.6272000   -23.7629700  177.4060000   -17.1322300  169.0488000    -0.8327260  -94.2925100
 		      -0.8461375  -94.7378800   -17.1412500  168.4264000   -22.9223400  149.2144000   -28.0671100  139.2310000
 		     -17.0790100  169.0107000    -0.8439302  -94.2967700   -28.0365000  139.8805000   -23.7723800  148.2731000
   33605200000   -22.0515900 -172.6182000   -24.7187300  130.8186000    -0.8453555  -94.9548300   -17.0691700  168.7983000 
 		     -24.9488100  128.3771000   -22.3038500  176.1220000   -17.1513200  168.2952000    -0.8605337  -94.6691800
 		      -0.8314387  -94.9432800   -17.1792700  168.3080000   -22.7529500  149.4224000   -27.9076400  140.6395000
 		     -17.0691600  168.9967000    -0.8613441  -94.7404400   -27.7258000  140.3171000   -23.6166200  146.5496000
   33675190000   -22.5920800 -175.8412000   -24.6091900  130.9962000    -0.8354744  -95.0669000   -16.9953400  168.7384000 
 		     -24.6265900  130.4947000   -23.3803300  175.9178000   -17.0343200  167.9319000    -0.8488823  -95.0524200
 		      -0.8498299  -95.0519000   -17.0371500  167.7720000   -23.1585100  147.8731000   -27.6414500  141.5983000
 		     -17.0488500  168.6973000    -0.8638773  -95.0394500   -27.6461600  141.3021000   -23.8603900  145.8441000
   33745180000   -22.4162400 -175.6944000   -24.5196000  132.8256000    -0.8612744  -95.3292000   -17.0425800  168.6741000 
 		     -24.6676000  130.1152000   -23.3202200  176.5480000   -17.0218100  168.2052000    -0.8490776  -95.0352600
 		      -0.8613738  -95.1825100   -17.1050100  168.4133000   -22.5288500  147.2835000   -27.6309800  140.9039000
 		     -16.9998100  168.5277000    -0.8317183  -95.0027600   -27.5518400  140.5228000   -23.6667800  147.5281000
   33815170000   -22.0717400 -174.4361000   -24.6268500  130.2278000    -0.8520914  -95.7101100   -17.0081500  168.3988000 
 		     -24.7523100  129.3669000   -23.4433200  173.1066000   -17.0237000  167.4705000    -0.8653755  -95.1644600
 		      -0.8544903  -95.7517500   -17.2379500  167.1800000   -22.6077100  147.5796000   -27.3810500  141.1522000
 		     -17.0271800  168.6547000    -0.8809361  -95.1505700   -27.4532700  141.7554000   -23.7661200  144.8650000
   33885160000   -22.4255300 -175.3246000   -24.3992100  131.1037000    -0.8388141  -95.8123200   -16.9334900  168.1084000 
 		     -24.4315600  129.8950000   -22.8545600  178.3550000   -17.0124600  167.0023000    -0.8363951  -95.5391500
 		      -0.8375006  -95.6610700   -16.8646000  167.2365000   -22.9544600  149.3621000   -27.0663000  141.8322000
 		     -16.9431900  168.5151000    -0.8486152  -95.6204500   -27.0184000  141.7500000   -23.7161200  148.9791000
   33955150000   -22.4607800 -177.5420000   -24.3871300  129.2988000    -0.8639790  -95.8576700   -16.9492200  167.7947000 
 		     -24.3327400  129.5708000   -22.6202800  179.0550000   -16.9016200  166.8346000    -0.8335539  -95.6314800
 		      -0.8706871  -95.8102900   -17.0344400  166.8205000   -22.4065900  145.9205000   -27.1344200  141.9352000
 		     -16.9621000  167.8079000    -0.8550024  -95.3154500   -26.9558500  142.2024000   -23.9148300  147.3960000
   34025140000   -21.9713200 -177.2373000   -24.2543400  131.4819000    -0.8796031  -96.1452600   -17.0009800  167.8379000 
 		     -24.0912300  130.0797000   -23.0573300  177.8932000   -16.9610300  166.8974000    -0.8785968  -95.9263200
 		      -0.8779520  -96.0871200   -17.0487200  167.2971000   -22.4783500  145.9985000   -26.9665900  142.0148000
 		     -17.0002000  167.6557000    -0.8850988  -95.8513500   -26.9030400  141.4543000   -23.2526700  143.7509000
   34095130000   -22.5259400 -176.4437000   -23.8909200  132.0171000    -0.8566975  -96.4587100   -16.9298200  167.3585000 
 		     -24.0069800  131.4520000   -22.4978400  175.7800000   -16.8921500  166.4849000    -0.8724324  -96.2654900
 		      -0.8288273  -96.4226100   -17.0421200  166.3461000   -23.0136500  148.6510000   -26.7024700  143.1570000
 		     -16.9637300  167.2994000    -0.8819202  -96.3243400   -26.6760200  142.1357000   -22.8364400  146.7078000
   34165120000   -22.2669700 -177.0033000   -23.9973600  130.0713000    -0.8796085  -96.4896200   -16.8998700  167.0894000 
 		     -24.0193300  130.4777000   -22.8972200  179.5184000   -16.9011900  166.0738000    -0.8285099  -96.3490200
 		      -0.8926672  -96.4909100   -17.0715000  166.1448000   -22.5796200  145.1916000   -26.7259300  142.8864000
 		     -16.9999400  167.3893000    -0.8680540  -96.3149600   -26.7754900  142.5605000   -23.2027400  144.6308000
   34235110000   -21.9871400 -178.4746000   -23.6712400  132.8094000    -0.8950240  -96.8486700   -16.9119200  167.1380000 
 		     -23.7352900  130.3512000   -22.7951800  178.0441000   -16.9163100  165.9770000    -0.8614392  -96.4835100
 		      -0.8790994  -96.8771300   -16.8843800  166.7925000   -22.4523000  143.4254000   -26.6283800  144.1869000
 		     -16.9451400  166.9898000    -0.8721903  -96.3782500   -26.6379700  143.0034000   -23.3084300  140.3552000
   34305100000   -22.2678700 -178.4958000   -23.8487500  132.3372000    -0.8550623  -97.0704300   -16.8642000  166.6890000 
 		     -23.6660500  131.7014000   -22.6596400  174.8911000   -16.9552400  166.3444000    -0.8536867  -96.7967800
 		      -0.8420312  -96.9571700   -16.9670800  166.0485000   -22.9332300  148.0721000   -26.2601900  143.7674000
 		     -16.8967400  166.6233000    -0.8595977  -96.7788500   -26.2864500  143.5710000   -22.8641800  146.3667000
   34375090000   -22.2162800 -179.2860000   -23.3478300  132.2336000    -0.8714002  -97.1017700   -16.8329800  166.2365000 
 		     -23.4356000  133.0839000   -22.7489000 -179.3812000   -16.8914500  165.3210000    -0.8572714  -96.9634000
 		      -0.8659086  -97.0124700   -16.8962500  165.8809000   -22.3005600  145.2042000   -26.1084600  143.3903000
 		     -16.7908400  166.5406000    -0.8744702  -97.0015900   -26.0873800  143.1772000   -22.9726100  146.2469000
   34445080000   -21.5542000 -176.7379000   -23.3654700  131.4305000    -0.8801578  -97.4449600   -16.7956300  166.1396000 
 		     -23.4421600  132.2589000   -22.3366300  174.3196000   -16.8580300  165.4493000    -0.8864031  -97.0736500
 		      -0.8875937  -97.4512100   -16.8680500  164.8252000   -22.1735300  143.8772000   -26.1179900  144.0564000
 		     -16.7827300  166.6361000    -0.8947670  -97.0707300   -26.0348600  143.4945000   -23.2504600  142.7882000
   34515070000   -21.7277200 -178.8715000   -23.2862100  132.0971000    -0.8798624  -97.5748100   -16.8250900  165.9484000 
 		     -23.2700800  131.7411000   -22.6449700  171.8207000   -16.8769500  165.3730000    -0.8726239  -97.3463700
 		      -0.8729159  -97.6576200   -16.8768200  165.0362000   -22.3432700  147.4722000   -25.8844300  143.2814000
 		     -16.8343400  165.7683000    -0.8935822  -97.2201400   -25.8650500  144.1570000   -22.5876000  144.4070000
   34585060000   -21.9213900 -177.8372000   -23.6295000  132.7483000    -0.8872676  -97.8381400   -16.7711400  165.9703000 
 		     -23.2861400  133.1319000   -22.2541900  175.9757000   -16.8596200  164.6830000    -0.8793178  -97.5695000
 		      -0.8880288  -97.7602300   -16.9278500  164.9440000   -22.0179600  144.2698000   -25.6934000  143.5345000
 		     -16.8302900  165.6544000    -0.8907813  -97.4570800   -25.7681900  143.8654000   -22.9767500  145.3664000
   34655050000   -21.7413400 -178.0268000   -23.3705700  133.4677000    -0.8958495  -97.9499200   -16.7597000  165.6423000 
 		     -23.2222500  132.6141000   -22.4599100  175.9953000   -16.8047800  164.6218000    -0.9011954  -97.6877400
 		      -0.9041446  -97.9579700   -16.8455000  164.9908000   -22.1841400  142.6234000   -25.6682800  144.1671000
 		     -16.7810500  166.1095000    -0.8841302  -97.5929100   -25.6982400  144.1929000   -23.2499500  144.5842000
   34725040000   -21.7301400  178.6490000   -23.1952600  132.7783000    -0.8874109  -98.2706100   -16.7556700  165.2200000 
 		     -23.1631000  132.7366000   -22.2209000  173.6969000   -16.8360600  164.6408000    -0.8981014  -97.9812000
 		      -0.8745100  -98.2333800   -16.6229100  165.3916000   -21.9197300  144.8615000   -25.4167700  144.4722000
 		     -16.8044700  165.1624000    -0.9018934  -97.8950200   -25.4844900  144.7028000   -22.5065600  143.4973000
   34795030000   -21.5920300 -178.6899000   -22.9701500  134.5393000    -0.8863732  -98.3429000   -16.7133900  165.1198000 
 		     -22.9543800  133.0944000   -22.2395600  178.2078000   -16.7765200  164.4876000    -0.8806914  -98.0928300
 		      -0.8672723  -98.4097900   -16.8043200  163.9181000   -21.9179800  143.6883000   -25.3669800  144.7121000
 		     -16.6798600  165.4510000    -0.8780321  -98.1346700   -25.2797000  145.6094000   -23.2559100  145.0809000
   34865020000   -21.8132300  177.9159000   -23.0720300  132.1740000    -0.9047976  -98.5352700   -16.7256600  165.0726000 
 		     -23.1082000  132.9524000   -21.9154000  175.4873000   -16.7984200  164.1752000    -0.8817993  -98.3810200
 		      -0.9066605  -98.5185200   -16.7056100  164.3702000   -22.1033100  142.0411000   -25.2799600  144.6879000
 		     -16.7948400  164.8587000    -0.8832729  -98.0838800   -25.3534200  144.3206000   -23.0606600  143.4402000
   34935010000   -21.3161800  179.2508000   -22.9300700  134.1064000    -0.9146976  -98.9554700   -16.7170300  164.6427000 
 		     -22.8855600  134.2110000   -22.5229600  171.9852000   -16.8075500  164.2320000    -0.9059212  -98.4959000
 		      -0.9179103  -98.8984000   -16.8235200  163.7820000   -21.7364900  144.0601000   -25.1439900  144.6501000
 		     -16.6894000  164.4500000    -0.9200671  -98.5457100   -25.2015100  144.8731000   -22.8219800  143.1282000
   35005000000   -21.6131600  179.1535000   -22.6953500  133.0435000    -0.8844098  -99.0525000   -16.6569100  164.2524000 
 		     -22.5924900  132.2536000   -22.6844300  174.6695000   -16.7147100  163.7909000    -0.9006023  -98.6048900
 		      -0.8736989  -98.9981500   -16.7506700  164.3871000   -21.9294100  143.0571000   -24.8537100  145.1792000
 		     -16.6687000  164.5578000    -0.8795441  -98.6132300   -24.9128300  145.4559000   -22.8929400  141.6950000
   35074990000   -21.9647800 -179.5780000   -22.4614100  133.0996000    -0.9001732  -99.0911300   -16.6469700  164.3405000 
 		     -22.7285200  132.7585000   -21.8484000  171.7693000   -16.6961000  163.4865000    -0.9222817  -99.0800700
 		      -0.9096453  -99.0203800   -16.8285100  163.7584000   -22.2007000  141.9546000   -24.9829600  145.6266000
 		     -16.6395900  164.7348000    -0.9056814  -98.8687500   -24.7801200  144.4471000   -22.6655500  146.0121000
   35144980000   -21.6227100  177.2585000   -22.5928000  135.2083000    -0.9113395  -99.3983500   -16.6740000  164.0514000 
 		     -22.3566500  133.3701000   -22.0278500  172.3847000   -16.6809900  163.3940000    -0.9081059  -99.2347700
 		      -0.9118926  -99.4196200   -16.6684900  163.2937000   -21.5758300  143.9569000   -24.6963800  144.4612000
 		     -16.7259700  163.9739000    -0.8916903  -99.1114600   -24.6344100  143.9519000   -22.3388000  143.2069000
   35214970000   -21.4833100  178.2601000   -22.4415000  135.4511000    -0.9018896  -99.6036700   -16.6301600  164.1018000 
 		     -22.1597000  134.5447000   -21.9993600  174.3975000   -16.6135900  163.4049000    -0.9088746  -99.2489100
 		      -0.8970434  -99.4995700   -16.6119600  162.5214000   -21.8639300  143.0671000   -24.6555800  145.8306000
 		     -16.5727800  163.5975000    -0.9307965  -99.3609800   -24.5841700  144.9959000   -22.8295000  139.0801000
   35284960000   -21.3449400  178.2345000   -22.3772100  133.9960000    -0.9156407  -99.6900800   -16.6040700  163.5555000 
 		     -22.4025200  133.9829000   -21.8596900  170.7639000   -16.6774300  163.3120000    -0.9106659  -99.5458900
 		      -0.9179524  -99.6865200   -16.6276400  163.1952000   -21.9557100  140.7605000   -24.4845800  146.3084000
 		     -16.5603900  163.6883000    -0.9423592  -99.5420800   -24.5925300  145.8480000   -22.5303600  141.8161000
   35354950000   -21.2150400  176.2207000   -22.0881000  134.1083000    -0.9279217 -100.0068000   -16.5459700  163.5278000 
 		     -22.1546400  134.2174000   -22.1420100  174.2013000   -16.6498200  162.6986000    -0.9093127  -99.6402300
 		      -0.9392531 -100.0615000   -16.7112400  162.7818000   -21.3981100  142.1151000   -24.4028600  145.2183000
 		     -16.5325800  162.9394000    -0.8989884  -99.5895600   -24.2409200  144.9623000   -22.8044200  140.5127000
   35424940000   -21.5227500  177.7885000   -22.1530500  134.8712000    -0.9253474 -100.2917000   -16.5815600  163.4112000 
 		     -21.9840300  134.1388000   -21.7037500  173.0128000   -16.5846300  162.4731000    -0.9138844  -99.8212700
 		      -0.9279797 -100.2699000   -16.6824900  162.2279000   -21.2253300  141.6243000   -24.2504700  143.9822000
 		     -16.6153500  163.0369000    -0.9159280  -99.7234200   -24.2434900  144.5460000   -22.4492900  140.2702000
   35494930000   -21.4756900  175.9923000   -22.1389900  134.0577000    -0.9095920 -100.3416000   -16.5729200  162.9392000 
 		     -22.0859200  134.8294000   -21.6538400  169.9571000   -16.5744500  162.5647000    -0.9098914  -99.9880500
 		      -0.9093013 -100.2452000   -16.7370200  162.4632000   -21.9131700  142.9657000   -24.1097500  145.5863000
 		     -16.6272500  163.0242000    -0.9234806  -99.9320400   -24.1752800  145.1861000   -22.0730000  139.8723000
   35564920000   -21.1234600  175.9131000   -21.9189700  134.3051000    -0.9287225 -100.5286000   -16.5117600  162.6590000 
 		     -21.6356900  132.8540000   -22.0846800  172.3833000   -16.5763600  162.2228000    -0.9140621 -100.2793000
 		      -0.9285791 -100.5382000   -16.6422900  162.6098000   -21.7609200  139.6958000   -23.9475900  145.8808000
 		     -16.5594900  162.0701000    -0.9098799 -100.0204000   -23.9708300  145.4779000   -22.1921400  140.6275000
   35634910000   -21.3896400  177.9326000   -21.6966600  134.9369000    -0.9157526 -100.7811000   -16.4920300  162.2551000 
 		     -21.8496200  132.3312000   -21.5919300  172.0303000   -16.5094100  161.5288000    -0.9197996 -100.5939000
 		      -0.9009078 -100.6511000   -16.5909800  161.6785000   -21.5492200  140.9434000   -23.8549600  145.8975000
 		     -16.6319600  162.1320000    -0.9275073 -100.3070000   -23.9589200  145.0567000   -22.1801400  140.2688000
   35704900000   -21.1490300  173.0083000   -21.6743100  136.2260000    -0.9467282 -100.9072000   -16.4643700  162.5100000 
 		     -21.8397000  134.2143000   -22.0774400  172.6795000   -16.4954500  161.6951000    -0.9070755 -100.5667000
 		      -0.9411573 -101.0085000   -16.6220700  162.2682000   -21.4090900  138.7003000   -23.7918000  145.9505000
 		     -16.5840200  162.2867000    -0.9261990 -100.3925000   -23.8693100  146.2653000   -22.3620100  139.3044000
   35774890000   -21.2477700  174.2343000   -21.7177600  132.8635000    -0.9368051 -101.1531000   -16.4529000  161.9056000 
 		     -21.9377400  134.0727000   -21.4817900  170.0832000   -16.5658600  161.3113000    -0.9142196 -100.6981000
 		      -0.9245483 -101.1864000   -16.7084200  161.4547000   -21.5126400  139.9048000   -23.5829000  145.3392000
 		     -16.4588600  162.0546000    -0.9025657 -100.6369000   -23.6438500  145.3805000   -22.3372400  141.3316000
   35844880000   -21.1296600  175.0977000   -21.2578700  133.0450000    -0.9334523 -101.2782000   -16.4655800  161.6274000 
 		     -21.4752800  135.2198000   -21.4237900  168.4267000   -16.4188300  161.8414000    -0.9158146 -100.9580000
 		      -0.9417862 -101.2901000   -16.4166000  161.0548000   -21.2372200  138.8436000   -23.6354700  145.1801000
 		     -16.5267600  162.0887000    -0.9124531 -100.9346000   -23.5637900  145.0408000   -21.9452700  139.1499000
   35914870000   -21.1643600  173.7882000   -21.5388800  132.9864000    -0.9434608 -101.5357000   -16.4448100  161.5677000 
 		     -21.4943900  134.7766000   -21.6504000  169.1087000   -16.4808300  161.1784000    -0.9387875 -101.1687000
 		      -0.9426017 -101.6264000   -16.4323200  160.1396000   -21.3040700  141.1894000   -23.4172200  145.2077000
 		     -16.4648600  162.0567000    -0.9290379 -101.1819000   -23.3971500  145.6253000   -21.9759600  139.7030000
   35984860000   -21.2081100  174.1405000   -21.4986100  134.0454000    -0.9132091 -101.6048000   -16.3849800  161.2374000 
 		     -21.3236400  134.5244000   -21.3649600  171.8949000   -16.5180300  160.4482000    -0.9017425 -101.4854000
 		      -0.9105803 -101.6670000   -16.4871200  160.8851000   -21.4730800  141.7524000   -23.1260500  145.5477000
 		     -16.3432600  161.5739000    -0.9287558 -101.4168000   -23.2168900  145.9150000   -22.0799100  141.6481000
   36054850000   -20.9518300  175.0144000   -21.1227300  134.5573000    -0.9394971 -101.8169000   -16.3883300  161.0440000 
 		     -21.1442800  134.1154000   -21.4351200  169.7824000   -16.3750100  160.3869000    -0.9272442 -101.5968000
 		      -0.9421515 -101.8212000   -16.4424300  160.1336000   -21.1104900  139.3062000   -23.2037800  145.7456000
 		     -16.4844000  161.3882000    -0.9372140 -101.4102000   -23.2110400  146.1731000   -22.2293300  137.4484000
   36124840000   -21.4373700  173.7009000   -21.1877000  136.6853000    -0.9459680 -102.1474000   -16.4222500  160.9641000 
 		     -21.3157800  134.0065000   -21.3881600  168.6725000   -16.4567000  161.1299000    -0.9348110 -101.9249000
 		      -0.9394180 -102.1564000   -16.3277600  160.1345000   -21.4997100  138.6912000   -23.0933800  145.1477000
 		     -16.5025700  161.0036000    -0.9444520 -101.8684000   -23.1179200  144.7824000   -21.4062600  139.9271000
   36194830000   -21.0344900  176.8582000   -20.9867100  134.2478000    -0.9342679 -102.2892000   -16.3095400  160.7838000 
 		     -21.2244300  134.1069000   -20.9857200  170.7359000   -16.4204200  160.0283000    -0.9314528 -102.1483000
 		      -0.9460040 -102.2499000   -16.5446100  160.3502000   -21.3315800  140.4922000   -22.9931000  147.0159000
 		     -16.3626400  160.9214000    -0.9308135 -102.2108000   -22.9227100  146.4740000   -22.1992100  140.4788000
   36264820000   -20.7664500  174.8425000   -21.0718800  133.7627000    -0.9382766 -102.4552000   -16.3723200  160.5786000 
 		     -21.0277800  135.5416000   -21.1182400  171.1905000   -16.2794400  159.7704000    -0.9401810 -102.1095000
 		      -0.9396400 -102.2960000   -16.4808700  159.1449000   -21.2965400  136.3652000   -22.9447100  146.4684000
 		     -16.3159800  160.4878000    -0.9267721 -101.9297000   -22.9149600  146.2329000   -22.2620200  136.4841000
   36334810000   -21.3083400  173.8670000   -21.2089000  135.9834000    -0.9557102 -102.6907000   -16.3330800  160.0523000 
 		     -20.9519000  135.2208000   -21.3238800  167.2484000   -16.3794100  159.8068000    -0.9550644 -102.3529000
 		      -0.9736046 -102.6032000   -16.3722900  159.8510000   -21.2637900  139.1626000   -22.8047600  144.9876000
 		     -16.3708800  160.3862000    -0.9591889 -102.4693000   -22.8055600  145.4368000   -21.6401500  139.0199000
   36404800000   -20.8962800  172.9467000   -20.5947600  134.7586000    -0.9236487 -102.9608000   -16.2895200  159.5572000 
 		     -20.8575900  135.3098000   -21.4789500  169.2538000   -16.3786800  159.7603000    -0.9396671 -102.6684000
 		      -0.9448207 -102.8708000   -16.3342900  158.4307000   -21.1835100  138.6943000   -22.6998600  146.3889000
 		     -16.2896800  160.4325000    -0.9595528 -102.3527000   -22.6315000  146.3491000   -22.0174500  137.7348000
   36474790000   -20.6784000  174.7888000   -20.7363200  134.5606000    -0.9439771 -103.0001000   -16.3052600  160.0317000 
 		     -20.7570900  134.9656000   -20.9973600  167.2656000   -16.3227800  158.6938000    -0.9389218 -102.7613000
 		      -0.9359932 -102.9164000   -16.2783900  159.4447000   -21.0876800  136.2957000   -22.5348300  145.9754000
 		     -16.3956500  160.0820000    -0.9344701 -102.7592000   -22.6295500  146.1101000   -22.0783600  136.9771000
   36544780000   -21.1524200  172.2714000   -20.8409200  136.5285000    -0.9526206 -103.3312000   -16.2698100  159.7791000 
 		     -20.6124800  135.1916000   -21.8266900  169.4250000   -16.3109000  158.8129000    -0.9510521 -102.9293000
 		      -0.9762294 -103.2894000   -16.2886700  159.2243000   -21.2398300  138.5710000   -22.4251200  146.0152000
 		     -16.3088100  160.0905000    -0.9410727 -102.6754000   -22.4132500  145.5795000   -21.6103200  136.8892000
   36614770000   -20.3419200  173.1491000   -20.8622300  134.6014000    -0.9558643 -103.5678000   -16.2094400  159.4455000 
 		     -20.6455600  134.4137000   -21.1652100  167.4601000   -16.2456700  158.6413000    -0.9640387 -103.1322000
 		      -0.9471725 -103.5799000   -16.3579200  159.2094000   -20.7823900  140.3576000   -22.3268300  145.5375000
 		     -16.2411900  158.7604000    -0.9819276 -103.0331000   -22.2830400  145.5004000   -21.7932200  136.1162000
   36684760000   -20.9250200  171.0155000   -20.5902300  133.7732000    -0.9337219 -103.6590000   -16.2396300  158.9889000 
 		     -20.5408300  133.8883000   -21.4835100  166.2389000   -16.3032600  158.5335000    -0.9542176 -103.4725000
 		      -0.9533937 -103.6656000   -16.3196000  158.1821000   -21.0794800  136.4777000   -22.2459600  146.0168000
 		     -16.2254500  159.2332000    -0.9671720 -103.2068000   -22.2413000  146.5687000   -21.9990300  137.7649000
   36754750000   -20.7227400  172.7897000   -20.3117200  134.4143000    -0.9552408 -103.8057000   -16.2615000  158.8436000 
 		     -20.5396100  135.0069000   -21.4391600  168.4036000   -16.1836700  158.2975000    -0.9460207 -103.5141000
 		      -0.9534491 -103.7810000   -16.2245000  158.2526000   -21.1256300  137.6523000   -22.1800500  145.8221000
 		     -16.2341000  159.0322000    -0.9274361 -103.5450000   -22.1632900  146.0489000   -21.5525900  136.8749000
   36824740000   -20.6505300  174.0469000   -20.5359400  135.7464000    -0.9613018 -104.0855000   -16.2072400  158.8133000 
 		     -20.4493800  135.3379000   -20.7625300  164.2832000   -16.2704100  158.2068000    -0.9893174 -103.6930000
 		      -0.9621611 -104.2173000   -16.3481400  158.5879000   -20.8074500  138.6379000   -22.0029100  145.6369000
 		     -16.3236700  158.5661000    -0.9802307 -103.5159000   -22.0224900  145.9227000   -21.4605600  135.0170000
   36894730000   -21.0242100  169.6698000   -20.2134500  135.4892000    -0.9539328 -104.4381000   -16.1724800  158.2040000 
 		     -20.3141800  135.6598000   -21.2580500  164.7672000   -16.2695100  157.8495000    -0.9753865 -103.8908000
 		      -0.9700742 -104.5779000   -16.1967600  157.6903000   -20.8712700  136.5734000   -21.8968000  145.0752000
 		     -16.1711900  158.0607000    -0.9696580 -103.9173000   -21.8024300  145.3588000   -21.4706200  137.5418000
   36964720000   -20.9291100  171.2253000   -20.1659800  135.6319000    -0.9602667 -104.3996000   -16.1796700  158.4734000 
 		     -20.1303100  134.8776000   -20.6242800  170.7909000   -16.1963600  157.2010000    -0.9527928 -104.2825000
 		      -0.9556392 -104.2644000   -16.1345500  156.9362000   -21.1833800  136.6415000   -21.9652100  146.1180000
 		     -16.3026700  158.1495000    -0.9223869 -104.0704000   -21.8938200  146.3635000   -21.5094200  134.7396000
   37034710000   -20.4284100  169.8696000   -20.1893600  135.0915000    -0.9756445 -104.7008000   -16.1778100  158.2389000 
 		     -19.9822600  135.2714000   -21.5893500  161.8791000   -16.1743500  157.5188000    -0.9769166 -104.2747000
 		      -0.9867340 -104.6852000   -16.1558500  158.3500000   -20.3011100  135.6839000   -21.9341800  146.3174000
 		     -16.2425300  157.5089000    -0.9932941 -104.3217000   -21.8697600  145.7006000   -21.5737400  131.2945000
   37104700000   -20.6359300  170.7277000   -20.3341200  136.5879000    -0.9545788 -104.8886000   -16.0428600  157.6435000 
 		     -20.1116700  135.8010000   -20.9497700  163.4040000   -16.2267000  156.8406000    -0.9723480 -104.6737000
 		      -0.9662367 -104.8986000   -16.3076500  157.5455000   -20.9601400  135.7889000   -21.6072000  145.3810000
 		     -16.0844700  157.7621000    -0.9925968 -104.5327000   -21.5181900  145.8275000   -21.2818900  137.7938000
   37174690000   -20.7046200  169.8321000   -19.9796800  135.4246000    -0.9920064 -104.8798000   -16.1739200  157.5498000 
 		     -19.9975300  135.0582000   -20.3851900  167.9697000   -16.1757800  156.8952000    -0.9730514 -104.8121000
 		      -0.9924936 -104.8794000   -16.1367400  156.0497000   -20.7373300  135.7350000   -21.6624400  145.0334000
 		     -16.0797000  157.3995000    -0.9722046 -104.8191000   -21.6869100  145.2855000   -20.6854500  133.5794000
   37244680000   -20.3820900  169.1078000   -19.9754400  136.2159000    -0.9950026 -105.3022000   -16.0690000  157.4092000 
 		     -19.6749900  135.1502000   -20.7844800  161.0875000   -16.2098300  156.8723000    -0.9813718 -104.9096000
 		      -1.0044120 -105.2126000   -16.1610400  157.7652000   -20.2553900  135.5098000   -21.5308100  145.7706000
 		     -16.1201600  157.3868000    -0.9871217 -104.8678000   -21.5509600  145.3540000   -21.3653700  132.1266000
   37314670000   -20.6645700  169.7070000   -19.7714000  136.1953000    -0.9737507 -105.5926000   -16.0979500  156.8706000 
 		     -19.8301000  135.0587000   -20.6116500  169.0764000   -16.1427900  156.4268000    -0.9946589 -105.2806000
 		      -0.9854890 -105.5166000   -16.0836400  156.9747000   -21.1267600  134.9669000   -21.3429000  145.7055000
 		     -16.0660700  156.9464000    -0.9928382 -105.2455000   -21.4061400  145.7257000   -21.0073300  136.5816000
   37384660000   -20.5248600  169.9013000   -19.7413200  134.4390000    -0.9770774 -105.5397000   -16.0234900  156.6932000 
 		     -19.8425100  134.6559000   -20.7729300  168.8115000   -16.1266300  155.9981000    -0.9667958 -105.4763000
 		      -0.9632764 -105.3751000   -15.9660200  156.1794000   -20.9299800  135.4189000   -21.2968500  145.4539000
 		     -16.1331200  156.6189000    -0.9644195 -105.3870000   -21.4323300  145.3360000   -20.8530300  133.5405000
   37454650000   -20.4592000  168.8619000   -19.7949000  135.3996000    -0.9780613 -105.8944000   -16.0446900  157.0547000 
 		     -19.5991300  137.6089000   -21.0695600  159.1929000   -16.0624600  156.5411000    -1.0023340 -105.4201000
 		      -0.9978915 -105.6398000   -16.2439700  156.0885000   -20.1250000  132.7849000   -21.2994000  145.5387000
 		     -16.0677400  156.6625000    -1.0033920 -105.4191000   -21.3188800  145.8965000   -21.3275400  133.3698000
   37524640000   -20.5195400  170.2769000   -19.3601000  134.0809000    -0.9762622 -106.0457000   -16.0238700  156.3572000 
 		     -19.5555600  134.2966000   -20.3773600  164.3355000   -16.1423100  155.5890000    -0.9997827 -105.9044000
 		      -0.9857358 -106.0425000   -16.1339000  156.0252000   -20.7573700  137.4013000   -20.9612900  145.7145000
 		     -16.0402700  156.1433000    -0.9762955 -105.9851000   -20.9664800  145.4078000   -20.9166200  137.0162000
   37594630000   -20.1438000  168.8520000   -19.3440800  134.6077000    -1.0016160 -106.1531000   -16.0069900  156.3097000 
 		     -19.5125300  134.8267000   -20.7842800  162.4826000   -16.0992900  155.5178000    -0.9800624 -105.8057000
 		      -0.9847972 -106.1282000   -16.1024900  155.9724000   -20.3194600  136.3201000   -21.1100600  145.5648000
 		     -16.0146400  156.2680000    -0.9803222 -105.7289000   -21.1085500  145.8537000   -21.3624800  130.0414000
   37664620000   -20.5598700  169.6891000   -19.3931700  136.6650000    -0.9967464 -106.4428000   -16.0061800  156.0352000 
 		     -19.5269900  134.1534000   -21.1793700  157.9598000   -15.9893800  155.7036000    -0.9929276 -106.0411000
 		      -0.9892341 -106.2865000   -16.0475800  156.0408000   -20.2111200  132.7882000   -20.9938400  145.2332000
 		     -16.0106300  155.8538000    -0.9913585 -105.9458000   -20.9193700  145.2077000   -21.2997300  133.6134000
   37734610000   -20.3206300  169.7058000   -19.4228200  133.8342000    -0.9837455 -106.5406000   -15.9729600  155.9089000 
 		     -19.4014000  133.9805000   -20.5392500  165.5515000   -16.0275500  154.9251000    -0.9903630 -106.3805000
 		      -0.9880238 -106.4395000   -16.0236900  154.7910000   -20.6610900  135.2631000   -20.8651000  145.3403000
 		     -16.0653500  155.3793000    -1.0024390 -106.2046000   -20.8130900  145.5775000   -20.9110200  134.5357000
   37804600000   -20.1720700  166.5979000   -19.4076700  133.8514000    -1.0078560 -106.7195000   -15.9792900  155.2928000 
 		     -19.3084300  135.2186000   -20.8765600  161.2450000   -15.9724700  155.0047000    -1.0021030 -106.3438000
 		      -1.0138750 -106.7284000   -16.0394100  154.6450000   -20.2647900  133.8192000   -20.8716000  145.6742000
 		     -16.0298700  155.6869000    -1.0119030 -106.2327000   -20.9190200  145.1086000   -21.1680000  129.3079000
   37874590000   -20.4628100  170.2494000   -19.0136900  135.4505000    -1.0233330 -107.1078000   -15.9247400  155.2247000 
 		     -19.2850300  135.7125000   -21.2085000  161.1575000   -15.9341400  154.9955000    -1.0002540 -106.6340000
 		      -1.0296090 -107.0518000   -16.0017500  154.8812000   -20.1246100  132.3524000   -20.7263400  145.0641000
 		     -15.9717600  155.5331000    -1.0097290 -106.5355000   -20.7658500  145.2701000   -21.3992700  132.6505000
   37944580000   -19.8976500  168.8271000   -19.3120700  134.4914000    -0.9996042 -107.2947000   -15.9208600  154.8801000 
 		     -19.2204200  135.0145000   -20.7847400  162.8625000   -15.9686400  154.6803000    -1.0176860 -106.8438000
 		      -1.0102830 -107.1587000   -16.0267600  154.1658000   -20.4020700  134.3265000   -20.6884100  144.2573000
 		     -15.9509300  155.1044000    -1.0212770 -106.8475000   -20.5942500  145.1466000   -20.7608300  131.8444000
   38014570000   -20.1907200  165.3844000   -19.0336200  133.3507000    -1.0140340 -107.4436000   -15.9716000  154.9573000 
 		     -19.0299700  134.4064000   -20.3723800  159.6145000   -15.9998200  153.9580000    -1.0032280 -106.9681000
 		      -1.0120540 -107.3935000   -15.9219200  155.0327000   -20.0755300  134.5243000   -20.5977900  145.3368000
 		     -15.9964800  154.9029000    -1.0139910 -107.0897000   -20.5208100  144.8750000   -21.1358900  129.3812000
   38084560000   -20.2369800  166.6842000   -19.0257400  134.6392000    -1.0074280 -107.5538000   -15.9506600  154.4807000 
 		     -19.0017800  135.3145000   -20.9442700  161.9039000   -15.8905100  154.2860000    -1.0118970 -107.1881000
 		      -1.0175990 -107.4234000   -16.0661900  153.9993000   -20.0729500  130.6981000   -20.5368600  145.2932000
 		     -16.0060700  154.6760000    -1.0028810 -107.1050000   -20.5547600  144.5663000   -20.8585200  131.1351000
   38154550000   -19.8184100  166.0685000   -18.9842300  135.6358000    -1.0280610 -107.7223000   -15.9081800  155.0334000 
 		     -18.8534500  135.3190000   -20.9049800  161.1282000   -15.8667300  154.0677000    -0.9874554 -107.3229000
 		      -1.0128890 -107.8899000   -15.9046600  153.9644000   -19.9873300  133.1175000   -20.4006700  145.3084000
 		     -15.9344000  154.3951000    -1.0177470 -107.3100000   -20.4013600  144.5724000   -20.8546800  127.9297000
   38224540000   -20.1532000  164.0776000   -18.9224600  134.0657000    -1.0191210 -108.0528000   -15.9593700  154.0515000 
 		     -19.0885400  135.3810000   -20.2846400  155.5207000   -15.9820300  154.0028000    -1.0268110 -107.6319000
 		      -1.0028740 -108.0939000   -16.0864600  153.2743000   -19.9404300  134.2205000   -20.3462900  144.5283000
 		     -15.8550700  153.7474000    -1.0231980 -107.5879000   -20.3258900  144.3823000   -20.7435100  130.8397000
   38294530000   -19.8671200  167.3597000   -18.7978700  133.3530000    -1.0176070 -108.1328000   -15.8742700  153.9236000 
 		     -18.8959300  134.5688000   -20.4724500  163.4693000   -15.8576000  154.0143000    -1.0109070 -107.8867000
 		      -1.0278800 -108.1948000   -15.9740900  153.7795000   -20.1276600  130.6548000   -20.2303100  145.0989000
 		     -15.8827500  153.7138000    -0.9963374 -107.7789000   -20.1679700  144.4563000   -20.4917900  131.6933000
   38364520000   -19.6334300  166.7783000   -18.5437000  133.9739000    -1.0153990 -108.3970000   -15.8311700  153.7333000 
 		     -18.7580300  133.9716000   -20.3841700  160.1354000   -15.8328500  153.2281000    -0.9942280 -107.9091000
 		      -1.0400420 -108.3517000   -15.8023900  152.6737000   -19.9685100  132.4190000   -20.2204300  144.6052000
 		     -15.8015000  153.9979000    -1.0159130 -107.9319000   -20.2292600  144.2475000   -20.6483000  126.3233000
   38434510000   -20.4229700  162.0767000   -18.6783400  134.9458000    -1.0274780 -108.4653000   -15.7933800  153.6377000 
 		     -18.7495300  134.2137000   -20.5060000  159.2527000   -15.8532100  153.2981000    -1.0342550 -108.1766000
 		      -1.0454630 -108.4366000   -15.8212200  153.8688000   -19.8782200  131.2117000   -20.1299200  144.7562000
 		     -15.9079200  153.4778000    -1.0327610 -108.0805000   -20.1346800  144.3535000   -20.6733200  130.1105000
   38504500000   -19.7967400  165.6563000   -18.6743800  134.1138000    -1.0335720 -108.6636000   -15.8315400  153.4888000 
 		     -18.5873200  134.0811000   -20.7959700  163.5198000   -15.8729900  152.8815000    -1.0088540 -108.4191000
 		      -1.0528230 -108.6938000   -15.9072300  152.3317000   -20.0635400  130.2153000   -20.1902800  144.5444000
 		     -15.8633800  152.9244000    -1.0106340 -108.2046000   -20.0690800  144.4602000   -20.4637400  128.0963000
   38574490000   -19.6613000  162.7073000   -18.7345500  134.7401000    -1.0240130 -108.9546000   -15.8072000  153.1885000 
 		     -18.5591900  134.7321000   -20.5326800  155.3017000   -15.7963200  152.1947000    -1.0305920 -108.5050000
 		      -1.0278550 -108.8717000   -15.8574900  153.2268000   -19.8218800  131.0610000   -20.0578000  145.0912000
 		     -15.8156900  153.8664000    -1.0120350 -108.3749000   -19.9805000  144.7829000   -20.9658300  126.4762000
   38644480000   -20.3021300  161.3992000   -18.4578500  134.7397000    -1.0175540 -109.0342000   -15.7867400  152.6825000 
 		     -18.5711800  134.6394000   -20.2072900  158.5145000   -15.8063900  152.1759000    -1.0241360 -108.9073000
 		      -1.0087440 -109.0099000   -15.9261000  152.5045000   -19.9370900  132.5501000   -19.8627800  143.7293000
 		     -15.8223800  152.6691000    -1.0328060 -108.7625000   -19.8610000  143.5239000   -19.9866400  130.7097000
   38714470000   -19.7043500  165.5950000   -18.4543600  135.3927000    -1.0344880 -109.1729000   -15.7710100  152.6649000 
 		     -18.3685100  133.5182000   -20.1958100  161.3880000   -15.7167100  151.8361000    -1.0241430 -108.9737000
 		      -1.0495480 -109.0430000   -15.8341900  150.7677000   -19.9539400  128.1774000   -20.0088500  144.2366000
 		     -15.8747500  152.3032000    -0.9940597 -108.7493000   -19.9300500  144.4208000   -20.1319900  126.9983000
   38784460000   -19.9213000  163.7358000   -18.1817800  133.9998000    -1.0281890 -109.6140000   -15.7757500  152.3349000 
 		     -18.4051500  133.8547000   -19.8526000  155.2802000   -15.8074300  151.2710000    -1.0065940 -109.1423000
 		      -1.0480610 -109.3085000   -15.8617900  152.4886000   -19.7647700  129.9682000   -19.8134100  144.4657000
 		     -15.7119500  153.0290000    -0.9952220 -109.1927000   -19.7488200  144.0172000   -20.8570900  130.3128000
   38854450000   -20.0472800  161.7878000   -18.2449600  133.9748000    -1.0466940 -109.7423000   -15.7485400  152.0249000 
 		     -18.3070600  134.1119000   -20.2721800  162.7439000   -15.7826000  151.1380000    -1.0180030 -109.3846000
 		      -1.0358910 -109.6507000   -15.8499100  151.0474000   -19.7088400  129.7202000   -19.6833800  144.2967000
 		     -15.7368900  152.0404000    -0.9838406 -109.3311000   -19.6723500  143.7225000   -20.3834400  130.7968000
   38924440000   -19.5514800  164.3790000   -18.3016300  132.9805000    -1.0362720 -110.0738000   -15.7354500  152.3674000 
 		     -18.2903200  134.1953000   -19.6170900  161.6961000   -15.7383900  151.0432000    -1.0152160 -109.7112000
 		      -1.0365230 -109.8216000   -15.7847500  151.7863000   -19.9405100  130.7914000   -19.5413700  144.6403000
 		     -15.7622300  152.0213000    -1.0163760 -109.3566000   -19.6039600  143.7412000   -20.3995400  127.1300000
   38994430000   -19.7352400  163.7687000   -18.0673300  134.9234000    -1.0569890 -109.9644000   -15.6587900  151.8967000 
 		     -18.1411200  133.9809000   -20.2572500  157.2592000   -15.7249300  151.4601000    -1.0428400 -109.7101000
 		      -1.0711120 -110.0244000   -15.7804300  150.8867000   -19.8263300  128.3655000   -19.4735500  144.4415000
 		     -15.7564200  151.3791000    -1.0674390 -109.5868000   -19.5055300  144.5673000   -20.8176400  131.8573000
   39064420000   -20.0115900  165.2654000   -17.9847300  133.7017000    -1.0447750 -110.3811000   -15.6615100  151.0311000 
 		     -18.0538800  133.2184000   -20.1058500  158.5314000   -15.7205500  150.6571000    -1.0314950 -110.0065000
 		      -1.0400980 -110.2287000   -15.6967700  150.5421000   -20.0640900  130.8645000   -19.4126900  144.2724000
 		     -15.7423900  152.1110000    -1.0356180 -110.0203000   -19.3819200  144.4442000   -20.1184100  128.8139000
   39134410000   -19.8464500  163.5180000   -18.0226100  134.5059000    -1.0749310 -110.5153000   -15.6223600  151.0762000 
 		     -17.9961900  135.0397000   -19.5137900  159.1742000   -15.6508200  150.6794000    -1.0403210 -110.4317000
 		      -1.0483470 -110.3264000   -15.7070300  150.4825000   -19.6664000  129.4325000   -19.3664500  143.4712000
 		     -15.6280500  150.7719000    -1.0691470 -110.2915000   -19.4066500  143.0714000   -20.3579900  128.0038000
   39204400000   -19.5439100  162.0272000   -17.9990300  134.7540000    -1.0598730 -110.7946000   -15.6265500  151.2488000 
 		     -17.8904100  133.5924000   -20.3300500  155.1743000   -15.7827400  150.3458000    -1.0303750 -110.2691000
 		      -1.0457900 -110.6698000   -15.8667400  150.7512000   -19.5396500  128.0495000   -19.3142100  143.7477000
 		     -15.6376700  150.9829000    -1.0336460 -110.3592000   -19.3106500  143.3046000   -20.5695400  132.5641000
   39274390000   -19.3727300  162.3319000   -17.7107900  132.9020000    -1.0501590 -111.0083000   -15.6407300  150.6264000 
 		     -17.9036200  134.2018000   -19.4972600  159.8439000   -15.7399900  150.0092000    -1.0651630 -110.5304000
 		      -1.0350120 -111.0171000   -15.7418600  149.5903000   -19.8305900  130.8933000   -19.2173600  144.1886000
 		     -15.6090300  151.1139000    -1.0475260 -110.6145000   -19.2093200  143.8859000   -20.2325800  127.4370000
   39344380000   -19.5159400  163.7746000   -17.8787100  134.3431000    -1.0469300 -111.1681000   -15.6216900  150.6169000 
 		     -17.8230000  133.5145000   -19.9933200  157.8080000   -15.6516000  150.3302000    -1.0399990 -110.8243000
 		      -1.0516010 -111.1776000   -15.6106700  149.1638000   -19.3407500  127.8120000   -19.1984300  143.4400000
 		     -15.6733700  150.6106000    -1.0312970 -110.8336000   -19.2145100  144.3275000   -20.4872900  127.9211000
   39414370000   -19.4408800  161.0297000   -17.9368500  133.9924000    -1.0651980 -111.2785000   -15.5536400  150.9538000 
 		     -17.8051900  134.2068000   -20.3585100  157.6999000   -15.6803400  150.1686000    -1.0638480 -110.9791000
 		      -1.0622900 -111.1735000   -15.6024800  150.3168000   -19.7074500  127.1358000   -18.9841800  143.7397000
 		     -15.6027800  150.5897000    -1.0998260 -110.7659000   -19.1221400  143.7662000   -20.1641200  126.6541000
   39484360000   -19.5824600  161.4673000   -17.8360500  134.0582000    -1.0640860 -111.5417000   -15.6204000  150.2068000 
 		     -17.7490000  134.8503000   -19.6690200  154.4776000   -15.6589900  149.6521000    -1.0870060 -111.1924000
 		      -1.0749940 -111.4898000   -15.6331200  149.3291000   -19.4391200  128.7328000   -19.0694300  142.8941000
 		     -15.6139500  150.7945000    -1.0873900 -111.2313000   -19.0336400  142.4861000   -19.8981100  124.3534000
   39554350000   -19.6482300  162.4141000   -17.6674500  133.5434000    -1.0670000 -111.7473000   -15.5702700  149.6667000 
 		     -17.7362600  134.2576000   -19.6821200  153.4915000   -15.6142200  149.5922000    -1.0750910 -111.4107000
 		      -1.0625810 -111.7843000   -15.6792400  149.8083000   -19.2592300  127.7122000   -18.8942600  143.0689000
 		     -15.5306000  150.0795000    -1.0805220 -111.2723000   -18.9243600  143.1396000   -20.2710200  127.6525000
   39624340000   -19.1256800  161.5201000   -17.6222600  131.5888000    -1.0631220 -111.9532000   -15.4923300  149.9774000 
 		     -17.7001600  132.1235000   -20.1236300  156.8359000   -15.6289500  149.5373000    -1.0823530 -111.7202000
 		      -1.0678200 -111.9708000   -15.6971800  149.8274000   -19.5530000  127.7005000   -18.7704700  143.6513000
 		     -15.5643300  149.6635000    -1.0824640 -111.7308000   -18.7352500  143.6405000   -20.0910300  125.2849000
   39694330000   -19.5102800  160.6403000   -17.5092500  133.4522000    -1.0650810 -112.1890000   -15.4929900  149.0090000 
 		     -17.5912200  133.5688000   -20.1760700  158.5579000   -15.5677100  149.0300000    -1.0402210 -111.8110000
 		      -1.0517200 -112.0547000   -15.6181800  149.7988000   -19.4259900  128.1153000   -18.7080200  143.2638000
 		     -15.5382300  149.8864000    -1.0589150 -111.7964000   -18.7592900  143.3455000   -20.0839500  125.5199000
   39764320000   -19.3965800  160.9395000   -17.5925100  132.4042000    -1.0784230 -112.0806000   -15.5558300  149.1036000 
 		     -17.4370400  134.1263000   -19.1974100  156.1129000   -15.5689600  149.3748000    -1.0803710 -111.9847000
 		      -1.0759780 -112.2232000   -15.7098700  149.4028000   -19.2286900  125.1106000   -18.7142500  143.1662000
 		     -15.6120300  148.7903000    -1.0634520 -112.2286000   -18.7072800  142.8558000   -19.5963700  126.2662000
   39834310000   -19.0787000  159.5211000   -17.3477100  134.0509000    -1.1004760 -112.5198000   -15.4820100  148.7345000 
 		     -17.3649800  133.4807000   -19.9836600  158.4538000   -15.5534300  148.3820000    -1.0630810 -112.2480000
 		      -1.0920750 -112.5089000   -15.6528900  149.3751000   -19.4051600  126.0171000   -18.6911500  143.0677000
 		     -15.4990500  149.0055000    -1.0905950 -112.4675000   -18.6831900  142.4147000   -19.5085100  123.8994000
   39904300000   -19.2233800  159.3619000   -17.2311700  133.6761000    -1.1065940 -112.8781000   -15.4977500  148.7818000 
 		     -17.3298800  133.0770000   -19.6293000  155.7413000   -15.5403100  148.1545000    -1.0782640 -112.3944000
 		      -1.0933140 -112.9101000   -15.5593900  148.1012000   -18.8492500  127.4235000   -18.7050800  142.3822000
 		     -15.5422900  148.3419000    -1.0518850 -112.4557000   -18.6156800  141.8915000   -20.0053900  124.5463000
   39974290000   -19.5188300  158.9954000   -17.3482600  131.8116000    -1.0702380 -112.9679000   -15.5085400  148.5082000 
 		     -17.1951200  133.5178000   -19.1201100  153.5268000   -15.6126900  148.0650000    -1.0846470 -112.5754000
 		      -1.1060120 -112.9257000   -15.6511800  147.7899000   -19.2554100  124.6782000   -18.5701100  142.3359000
 		     -15.4660700  148.2046000    -1.0986560 -112.6207000   -18.5248400  142.7587000   -19.2186300  125.4664000
   40044280000   -18.8316400  160.0009000   -17.3344500  132.9139000    -1.0978940 -113.1081000   -15.5138200  148.4295000 
 		     -17.2993000  133.5108000   -19.3589300  155.7505000   -15.5262000  148.4904000    -1.0823820 -112.6046000
 		      -1.1146980 -113.0755000   -15.5430100  149.0332000   -19.2660100  127.8031000   -18.4146700  141.4816000
 		     -15.6095300  148.2485000    -1.0801000 -112.4409000   -18.5514800  142.3977000   -19.7168700  124.2901000
   40114270000   -19.6911000  161.4751000   -16.9363700  133.4354000    -1.0728680 -113.2938000   -15.4033000  148.5736000 
 		     -17.0922300  133.5646000   -19.2359900  147.1872000   -15.4913200  147.6631000    -1.1129460 -112.8023000
 		      -1.0685890 -113.0511000   -15.4365800  147.8009000   -19.0641400  125.6500000   -18.4358100  142.6514000
 		     -15.4297600  148.5341000    -1.0778310 -112.8095000   -18.5083400  142.5800000   -19.6831000  123.1082000
   40184260000   -19.0211000  157.9563000   -17.0807000  133.4475000    -1.1055170 -113.2349000   -15.3995100  147.3768000 
 		     -17.2062900  131.7207000   -19.2584600  152.7444000   -15.5739200  147.2080000    -1.0949590 -112.8354000
 		      -1.0998410 -113.2223000   -15.6083300  148.0078000   -19.0163800  122.4123000   -18.2192100  142.2366000
 		     -15.4598800  147.4881000    -1.1205030 -112.9152000   -18.3332800  141.2227000   -19.3926800  128.1349000
   40254250000   -18.6942700  155.5280000   -16.6852400  133.3722000    -1.1101510 -113.4688000   -15.4341200  147.4424000 
 		     -16.8907500  133.4111000   -18.8911800  154.8114000   -15.4786700  147.4870000    -1.0918320 -113.2959000
 		      -1.1190250 -113.6645000   -15.4873500  149.1074000   -19.0490300  123.9976000   -18.3960100  142.7715000
 		     -15.3878600  147.0834000    -1.1147900 -113.0873000   -18.2909600  141.8835000   -19.7057600  124.7974000
   40324240000   -19.3482400  157.3949000   -16.9925300  130.7724000    -1.1116500 -113.9847000   -15.3694700  146.7687000 
 		     -17.0730600  133.4268000   -18.9243600  150.5404000   -15.5439400  147.0820000    -1.1344310 -113.6974000
 		      -1.1110120 -113.9266000   -15.3576000  146.8154000   -18.8302600  126.2681000   -18.0739200  141.4114000
 		     -15.2729400  146.7569000    -1.1081660 -113.4629000   -18.0542600  141.2299000   -19.3220000  126.6738000
   40394230000   -19.2416800  162.1450000   -17.1962300  132.6678000    -1.1025280 -114.0677000   -15.3216500  147.8620000 
 		     -17.0635600  131.2261000   -19.2400100  151.4277000   -15.4561400  146.6625000    -1.1122770 -113.5019000
 		      -1.1318480 -114.1163000   -15.6734000  147.5960000   -18.9864500  122.5219000   -18.2702200  142.9493000
 		     -15.4064400  147.4680000    -1.0990490 -113.4090000   -18.2540100  141.8925000   -19.2892100  122.8368000
   40464220000   -18.6932800  154.6939000   -16.9736800  132.9834000    -1.1143730 -114.2677000   -15.3582100  147.0542000 
 		     -16.7818600  132.7372000   -19.9861800  150.8229000   -15.2885400  146.9766000    -1.0993420 -113.7843000
 		      -1.1491250 -114.1530000   -15.4331600  147.0738000   -18.8848700  125.3257000   -18.0701900  142.0214000
 		     -15.4526400  147.4386000    -1.1404880 -113.7873000   -18.2365300  142.0017000   -20.0801600  120.1935000
   40534210000   -19.1230400  155.9205000   -17.1465700  131.6012000    -1.1101980 -114.3751000   -15.3711200  146.6354000 
 		     -16.9238700  132.5920000   -19.5670900  147.6780000   -15.5601600  146.8685000    -1.0756320 -114.0794000
 		      -1.1295300 -114.7266000   -15.6731900  146.2220000   -18.5377300  124.6150000   -18.0391500  141.0482000
 		     -15.4099800  147.1191000    -1.0781520 -113.9788000   -17.9280900  141.3127000   -19.7471800  126.6629000
   40604200000   -18.8589800  159.0459000   -16.7277600  132.9503000    -1.1172440 -114.5495000   -15.3702100  146.7171000 
 		     -16.8605200  131.1251000   -19.2517100  149.5422000   -15.3723100  146.4755000    -1.1327900 -114.2895000
 		      -1.1241630 -114.6387000   -15.3107600  146.2717000   -19.2383800  123.8647000   -18.0611300  141.3674000
 		     -15.4121200  145.8830000    -1.1099240 -114.2827000   -17.9477900  141.2285000   -19.2092800  119.6902000
   40674190000   -18.9313100  154.0432000   -16.7298000  133.0280000    -1.1202800 -114.7535000   -15.3556100  146.5787000 
 		     -16.5786500  132.3500000   -19.5148000  145.5673000   -15.2425200  146.6358000    -1.0907130 -114.2708000
 		      -1.1302540 -114.6879000   -15.2922700  147.1218000   -18.8075400  122.0324000   -17.9585200  142.2642000
 		     -15.3382100  146.4510000    -1.0805590 -114.4225000   -18.0489200  142.1115000   -19.8440100  119.8852000
   40744180000   -18.8064900  156.2527000   -16.8209300  132.7139000    -1.1143130 -115.0454000   -15.2957600  145.7810000 
 		     -16.5053500  134.1536000   -18.5821200  148.0479000   -15.4408600  145.8833000    -1.1337800 -114.6429000
 		      -1.1157840 -115.0147000   -15.3407700  145.9155000   -18.5416300  122.9861000   -17.8416500  140.5282000
 		     -15.3126400  146.0299000    -1.1180960 -114.7668000   -17.8692100  141.5255000   -18.8270600  126.9559000
   40814170000   -18.3221100  157.2318000   -16.5269400  131.9138000    -1.1279980 -115.2365000   -15.3656400  145.5960000 
 		     -16.4255200  132.1497000   -19.4672500  156.1165000   -15.2337700  145.5747000    -1.0960980 -114.7641000
 		      -1.1480240 -115.2799000   -15.0644200  145.1371000   -18.7783100  122.7991000   -17.7810800  140.6002000
 		     -15.3333600  145.7894000    -1.0716300 -114.7451000   -17.7776500  141.1264000   -19.4764600  119.6806000
   40884160000   -19.4707800  152.6493000   -16.5400000  132.8411000    -1.1223330 -115.2928000   -15.3243100  146.0322000 
 		     -16.5071100  134.0307000   -19.3544800  156.1808000   -15.2123400  145.5324000    -1.0872030 -115.1743000
 		      -1.1955080 -115.2569000   -15.3684800  146.3812000   -18.7754300  123.1720000   -17.8065600  140.4858000
 		     -15.2956600  145.7947000    -1.1061390 -114.7777000   -17.8004800  141.0676000   -19.6667300  123.2204000
   40954150000   -19.3255900  151.9160000   -16.7328900  133.7516000    -1.1529410 -115.4380000   -15.3012600  145.6112000 
 		     -16.6094200  133.5731000   -19.8663300  149.7999000   -15.2414300  146.1858000    -1.1050080 -115.0565000
 		      -1.1431950 -115.3970000   -15.2694800  145.4630000   -18.7886600  120.9659000   -17.6850900  141.1601000
 		     -15.3783500  145.6970000    -1.1058700 -114.8394000   -17.6089500  141.5005000   -19.3786400  120.5791000
   41024140000   -18.3001400  156.6820000   -16.5581700  129.9809000    -1.1317560 -115.8522000   -15.3219000  145.5283000 
 		     -16.4415100  130.7689000   -19.3221000  146.9950000   -15.3309000  144.9339000    -1.1272780 -115.1544000
 		      -1.1105120 -115.8650000   -15.3211600  145.5373000   -18.8234000  124.5374000   -17.6919300  141.2495000
 		     -15.3275900  145.2823000    -1.1434940 -115.0555000   -17.6430100  141.5344000   -19.1882100  117.4960000
   41094130000   -18.5233600  151.8288000   -16.5607800  131.8508000    -1.1317480 -115.9901000   -15.3035000  145.1433000 
 		     -16.4945900  132.1285000   -19.3648600  149.8380000   -15.2282300  144.1773000    -1.1165610 -115.6697000
 		      -1.1124110 -116.0735000   -15.3844900  144.8642000   -18.5143400  123.6324000   -17.5335800  141.0587000
 		     -15.2631900  145.2255000    -1.1655460 -115.7992000   -17.5144400  140.9536000   -19.5996300  120.3950000
   41164120000   -18.9825000  154.3499000   -16.6089100  130.3106000    -1.1295690 -116.1551000   -15.2121800  145.5036000 
 		     -16.4025800  131.6534000   -20.2397500  148.6589000   -15.2435800  144.6037000    -1.0770270 -115.7219000
 		      -1.1029340 -116.2415000   -15.3708600  144.9594000   -18.4266200  119.8242000   -17.5121600  141.3124000
 		     -15.1430400  143.8044000    -1.0738830 -115.4003000   -17.4561200  140.8641000   -19.8683600  120.5973000
   41234110000   -18.7213100  153.0985000   -16.0633200  131.8629000    -1.1419450 -116.2470000   -15.2484600  144.6030000 
 		     -16.2371600  131.1416000   -19.2139800  148.8587000   -15.1335000  144.0573000    -1.1007320 -115.8169000
 		      -1.1328050 -116.3407000   -15.1486200  143.4954000   -18.7809900  121.9480000   -17.5222000  140.5592000
 		     -15.0839700  144.6330000    -1.1712340 -115.6995000   -17.4462300  140.4373000   -19.3419300  117.1323000
   41304100000   -18.7175200  156.2459000   -16.2475200  132.1498000    -1.1241550 -116.5862000   -15.1705600  144.8452000 
 		     -16.0359200  132.2364000   -18.8978900  151.5836000   -15.1463300  143.8396000    -1.1332240 -116.0500000
 		      -1.1292450 -116.4047000   -15.2303700  144.1788000   -18.5575300  123.1249000   -17.3290600  140.5672000
 		     -15.2527400  144.8476000    -1.1093750 -115.9775000   -17.4275200  140.5973000   -19.5019600  118.4556000
   41374090000   -18.8867000  152.7720000   -16.0445700  131.2699000    -1.1438740 -116.6377000   -15.1864800  143.9766000 
 		     -16.3448800  129.9919000   -18.5527600  148.8120000   -15.2283300  143.4976000    -1.0777670 -116.3788000
 		      -1.1671010 -116.7462000   -15.2134900  143.2789000   -18.5755900  121.0163000   -17.3060000  140.9096000
 		     -15.3329500  144.4444000    -1.1439860 -116.3888000   -17.3123800  140.6424000   -19.2265300  120.7644000
   41444080000   -18.6260500  152.7252000   -16.1977200  130.7102000    -1.1373910 -116.7913000   -15.2067000  143.8832000 
 		     -16.1959100  130.6605000   -19.1701700  152.6566000   -15.1400700  143.3040000    -1.1518460 -116.4491000
 		      -1.1463370 -116.7795000   -15.0128300  144.7835000   -18.6370000  120.5507000   -17.1600800  140.0899000
 		     -15.1945100  143.8744000    -1.1257990 -116.6812000   -17.2186200  140.2888000   -19.1745000  121.9754000
   41514070000   -18.7816100  153.1020000   -15.9828900  131.1591000    -1.1309170 -117.1115000   -15.0669800  144.0596000 
 		     -16.1811500  130.2963000   -18.8919300  152.4858000   -15.0879600  143.2677000    -1.1055770 -116.7869000
 		      -1.1208930 -117.2397000   -15.1366100  143.2109000   -18.4272100  120.0101000   -17.2078000  140.0049000
 		     -15.2187800  143.5910000    -1.1485970 -117.0066000   -17.2930700  140.2219000   -19.1530300  119.5199000
   41584060000   -18.6488800  151.4600000   -16.0269300  131.3594000    -1.1732300 -117.3862000   -15.1249400  143.6509000 
 		     -16.2223800  131.1487000   -19.0612400  148.2825000   -15.1531400  142.6975000    -1.1215960 -116.9996000
 		      -1.1833080 -117.5049000   -15.2396100  142.9152000   -18.1845500  120.9844000   -17.2434100  140.1356000
 		     -15.2232200  143.6471000    -1.1117920 -117.0559000   -17.2259700  139.2825000   -19.1014200  119.1015000
   41654050000   -19.1605400  152.5109000   -16.0525600  130.4400000    -1.1463520 -117.4211000   -15.1109600  143.4637000 
 		     -16.0768900  129.9213000   -18.9494900  149.0227000   -15.2192400  142.7472000    -1.1401940 -117.0425000
 		      -1.1510600 -117.2239000   -15.1417800  142.2511000   -18.7482000  121.4351000   -17.0027600  139.8005000
 		     -15.0914500  143.8837000    -1.1043220 -117.0251000   -17.0211400  140.5336000   -19.0217900  120.7614000
   41724040000   -18.6348500  153.7503000   -16.0600600  130.7447000    -1.1454220 -117.7189000   -15.0577200  143.0396000 
 		     -16.0500000  130.0347000   -18.8933000  149.8565000   -15.1293600  141.8739000    -1.1380550 -117.1196000
 		      -1.1631110 -117.7633000   -15.0669400  142.6612000   -18.6598500  121.6659000   -16.9875200  140.0874000
 		     -15.1348400  143.0103000    -1.0673970 -117.4888000   -16.9864700  140.3381000   -19.7540300  119.8600000
   41794030000   -18.8797200  154.6349000   -15.8178300  129.2450000    -1.1428940 -117.8531000   -15.0451800  142.7761000 
 		     -15.8650300  131.8836000   -19.5362000  146.7174000   -15.0687400  142.7674000    -1.1338410 -117.5590000
 		      -1.1636880 -117.7900000   -15.2286900  142.2579000   -18.5848400  122.8391000   -16.8922800  139.9450000
 		     -15.0688400  143.1549000    -1.1508750 -117.4495000   -16.8913200  139.8976000   -19.3846900  121.6963000
   41864020000   -19.1064800  150.4125000   -15.7635400  131.1646000    -1.1641210 -118.0708000   -15.0052900  143.2778000 
 		     -16.0025300  130.2742000   -19.4623500  150.0685000   -15.1624600  141.8961000    -1.1219520 -117.8292000
 		      -1.1651010 -118.2296000   -15.1095000  140.8554000   -18.6808700  117.6209000   -16.8574900  139.1955000
 		     -15.1139700  143.3227000    -1.1463470 -117.8261000   -16.8519200  140.3138000   -18.8336000  119.5360000
   41934010000   -18.7359000  155.1778000   -15.9949500  131.9889000    -1.1399410 -118.4378000   -14.9679600  142.4084000 
 		     -15.8956700  129.0675000   -18.8466000  152.9429000   -15.0475400  142.0138000    -1.1306320 -118.1862000
 		      -1.1615670 -118.2912000   -15.1114900  142.7134000   -18.7866700  121.0377000   -16.7452900  139.0049000
 		     -15.0367500  141.0005000    -1.1511360 -118.1594000   -16.7585000  138.8740000   -19.2725100  120.4896000
   42004000000   -19.2773300  154.7739000   -15.8638000  130.0681000    -1.1553920 -118.6328000   -15.0684500  142.4556000 
 		     -15.8734500  130.3397000   -18.7317900  145.7556000   -15.1363400  141.3242000    -1.1957740 -118.3021000
 		      -1.1972000 -118.7302000   -15.2115600  141.6128000   -18.4106100  121.0936000   -16.8691000  139.7227000
 		     -15.1215200  141.9611000    -1.1401030 -118.2116000   -16.7675800  139.6263000   -18.9216700  119.8179000
   42073990000   -18.4999100  153.6658000   -15.4949800  129.4485000    -1.1491910 -118.8052000   -14.9999500  141.2744000 
 		     -15.6041700  129.1605000   -19.0096700  151.5722000   -15.1043400  140.7864000    -1.1269990 -118.3029000
 		      -1.1698420 -118.6285000   -15.0790100  140.7802000   -18.7473900  119.7764000   -16.6255200  138.5287000
 		     -14.9025100  141.9424000    -1.1968920 -118.2518000   -16.6345300  138.9913000   -18.7870400  120.2032000
   42143980000   -18.3980000  154.2624000   -15.7286700  129.8716000    -1.1755630 -119.0875000   -14.9351000  141.2590000 
 		     -15.5786500  128.9423000   -18.8816900  150.1300000   -15.1152400  140.6417000    -1.1893090 -118.6411000
 		      -1.1584390 -118.9341000   -15.0898400  141.2157000   -18.6843400  121.3258000   -16.6521600  138.3411000
 		     -14.9302700  141.0156000    -1.1988490 -118.7592000   -16.6596100  138.9064000   -19.3667200  119.6825000
   42213970000   -18.8368400  152.8363000   -15.5412300  131.4059000    -1.1615230 -119.1528000   -14.8919900  141.5292000 
 		     -15.9479700  130.8694000   -19.4637100  146.8528000   -15.0838300  140.6500000    -1.1645980 -118.7136000
 		      -1.1965710 -119.1623000   -15.0150100  139.7668000   -18.2654400  120.3233000   -16.6021000  139.0598000
 		     -15.0133000  141.9230000    -1.1863590 -118.9935000   -16.5101800  139.4383000   -19.1205600  122.8041000
   42283960000   -18.6092000  149.4042000   -15.4178400  129.1218000    -1.2072260 -119.3790000   -15.0429400  140.6594000 
 		     -15.6735600  128.9500000   -18.9434100  149.6627000   -15.0211600  139.9474000    -1.1735640 -119.0906000
 		      -1.1938450 -119.4734000   -15.1704400  140.9591000   -18.6976300  118.0896000   -16.5186200  138.9336000
 		     -15.0194800  140.3469000    -1.1238140 -119.0453000   -16.5063800  138.5809000   -18.6395600  118.2373000
   42353950000   -18.0626500  151.6346000   -15.3712100  128.6005000    -1.1803580 -119.6121000   -14.9956000  140.4517000 
 		     -15.6836800  129.1978000   -19.0178400  148.1012000   -15.0459400  140.9799000    -1.1714470 -119.2417000
 		      -1.2211490 -119.3509000   -14.9767900  141.0114000   -18.5268600  122.1908000   -16.4467200  138.3867000
 		     -15.0449100  140.7086000    -1.1678650 -119.2440000   -16.5224600  138.5111000   -18.9793000  117.0507000
   42423940000   -18.2056800  155.6769000   -15.5840900  128.3618000    -1.1524540 -119.8530000   -14.9889100  139.8816000 
 		     -15.6069500  129.3462000   -18.8941700  144.3082000   -15.0614400  140.3999000    -1.1982670 -119.2701000
 		      -1.1643310 -119.8994000   -15.0725700  141.0137000   -18.1657800  120.5927000   -16.4819000  137.8529000
 		     -15.0829600  140.2204000    -1.2518380 -119.3371000   -16.4569300  137.9706000   -18.1628800  118.1056000
   42493930000   -18.1924800  151.8898000   -15.4498200  128.7149000    -1.2179500 -120.1938000   -14.9789400  140.6071000 
 		     -15.6608700  129.3829000   -18.4944400  143.8314000   -15.0430100  139.7688000    -1.1919490 -119.3943000
 		      -1.2121320 -120.0189000   -15.1120200  140.1326000   -18.3012000  120.5182000   -16.4168600  138.1272000
 		     -15.1255100  141.0396000    -1.1593660 -119.5049000   -16.4524500  138.3439000   -18.6575400  112.6364000
   42563920000   -18.1166900  149.1983000   -15.6583500  128.5917000    -1.2091800 -120.1315000   -14.9631400  139.9448000 
 		     -15.4534400  129.2981000   -18.0604900  145.6062000   -15.0295300  139.4514000    -1.2071180 -119.7934000
 		      -1.2167640 -120.1904000   -15.0652500  139.4798000   -18.1804300  120.4865000   -16.4264900  138.0209000
 		     -15.0022500  139.6050000    -1.2328840 -119.5836000   -16.3797400  138.2398000   -18.8564900  117.8104000
   42633910000   -17.9935200  148.9657000   -15.4099500  129.2484000    -1.2463180 -120.3006000   -14.9584600  139.6870000 
 		     -15.4966100  130.4475000   -18.6336400  145.4254000   -15.0448700  139.9490000    -1.1931170 -119.9606000
 		      -1.2065780 -120.2677000   -15.0402200  141.2201000   -17.9174600  118.2685000   -16.3593300  137.4898000
 		     -14.9815000  139.7070000    -1.2471420 -120.2617000   -16.3541800  137.4769000   -18.1341600  117.7355000
   42703900000   -18.2404600  149.0356000   -15.1340500  130.2729000    -1.2416940 -120.4781000   -14.9008900  139.5560000 
 		     -15.5333800  128.2835000   -18.6825400  141.4098000   -15.1481600  139.3529000    -1.1849100 -120.4204000
 		      -1.2356330 -120.3957000   -15.2223200  139.4126000   -18.4692100  119.2480000   -16.3142300  137.9803000
 		     -14.9156100  139.3138000    -1.1823660 -120.1746000   -16.3355700  137.4986000   -18.7315000  114.2884000
   42773890000   -18.1674400  151.2084000   -15.1758900  129.7699000    -1.2162350 -120.9849000   -14.8717200  139.2443000 
 		     -15.0419300  129.1434000   -18.9090900  146.3323000   -14.7700100  139.2547000    -1.2338880 -120.0340000
 		      -1.2309680 -120.8293000   -14.8616500  140.8228000   -17.8244400  118.9109000   -16.1353100  136.8814000
 		     -14.9510200  139.1430000    -1.2722760 -119.8198000   -16.1642000  137.5186000   -18.7526900  114.2054000
   42843880000   -17.9722700  146.7892000   -15.0403900  129.6145000    -1.2512170 -120.7810000   -14.7697300  138.4755000 
 		     -15.2470000  129.3349000   -19.1398800  147.9798000   -14.8911100  139.5838000    -1.1804760 -120.3930000
 		      -1.2048390 -120.6466000   -15.1285100  140.2645000   -17.8314300  114.7738000   -16.2427400  137.3567000
 		     -14.8858900  138.4651000    -1.2035720 -120.5330000   -16.1756600  137.1637000   -18.3150400  118.2055000
   42913870000   -18.4846900  148.2192000   -15.0265900  129.8968000    -1.2471650 -121.0232000   -14.8997800  138.7898000 
 		     -15.2498400  128.4976000   -18.1164900  142.0075000   -15.0947800  138.1203000    -1.1848040 -120.8638000
 		      -1.2204950 -120.9713000   -15.2011400  138.5352000   -18.0180100  117.8401000   -16.1507900  137.1758000
 		     -14.8166500  138.6862000    -1.2034410 -120.7174000   -16.1768200  137.0509000   -18.2321200  116.0096000
   42983860000   -18.3213600  149.5862000   -15.3478800  127.4572000    -1.2387330 -121.3355000   -14.8476700  138.5704000 
 		     -15.1941600  128.4372000   -17.9310100  138.7584000   -15.0352200  138.4161000    -1.2349100 -120.9313000
 		      -1.2377070 -121.3990000   -14.9849700  140.0668000   -18.1862900  117.9798000   -16.0002700  136.8245000
 		     -14.8451300  137.7298000    -1.3023510 -121.1958000   -15.9727700  137.0757000   -18.2636000  114.5656000
   43053850000   -17.9394500  151.1508000   -15.3044300  129.2854000    -1.2404830 -121.4060000   -14.8404700  138.8405000 
 		     -15.2490900  129.2339000   -18.4195500  138.7031000   -14.8375100  138.2397000    -1.2513900 -120.6935000
 		      -1.3253980 -121.7638000   -15.0415800  138.3943000   -17.6431200  116.9484000   -16.1402200  136.6095000
 		     -14.8451700  138.7114000    -1.3005380 -120.8752000   -16.1564600  136.9371000   -18.2708400  113.9765000
   43123840000   -17.9802600  148.9840000   -15.0476500  127.2662000    -1.2465790 -121.5036000   -14.9006700  137.6834000 
 		     -15.1040100  129.1526000   -18.0612100  144.5306000   -14.8683900  138.1619000    -1.2260520 -121.2222000
 		      -1.2419000 -121.3822000   -14.7751600  137.3248000   -17.6491100  116.2598000   -16.1174200  136.0557000
 		     -14.9283500  137.8260000    -1.2419740 -120.7780000   -16.1018900  136.4695000   -17.9644700  115.9741000
   43193830000   -17.7960500  147.7970000   -14.6374100  128.9325000    -1.2285010 -121.9608000   -14.7991600  137.4150000 
 		     -14.9445400  128.4549000   -18.5426300  148.8157000   -14.8136100  137.6816000    -1.2179050 -121.2487000
 		      -1.2400890 -122.0446000   -14.9614100  137.3204000   -17.9337900  117.7179000   -15.8727500  136.5068000
 		     -14.7793800  137.4964000    -1.2420510 -121.3849000   -15.8607200  136.7248000   -18.6791400  116.6113000
   43263820000   -17.5707500  148.5783000   -14.8068800  128.9584000    -1.2578600 -121.9411000   -14.7972800  137.1043000 
 		     -15.0882200  128.6185000   -17.5685600  146.3928000   -14.8898100  137.9831000    -1.2633730 -121.6051000
 		      -1.2954170 -121.9345000   -14.6225000  136.4223000   -17.6211900  116.2064000   -15.9830800  135.3347000
 		     -14.8682500  136.2732000    -1.2650990 -121.5886000   -16.0484600  135.6203000   -17.9526700  117.1603000
   43333810000   -18.2581200  146.0782000   -14.7582000  128.8020000    -1.2607430 -122.0472000   -14.8441100  137.6127000 
 		     -14.9768600  129.0122000   -18.6240200  141.0820000   -14.8756400  137.9585000    -1.2633390 -121.9140000
 		      -1.2707480 -122.0178000   -15.0536500  139.0443000   -17.5549700  114.2014000   -15.9045300  136.1573000
 		     -14.8668300  137.5197000    -1.2214240 -121.7378000   -15.9167700  136.6155000   -18.0360600  116.8381000
   43403800000   -17.4116500  144.9809000   -15.0775900  128.6210000    -1.2946120 -122.4932000   -14.9245200  137.4053000 
 		     -14.8622900  128.1988000   -18.3263300  141.9600000   -14.9259500  137.1943000    -1.2466840 -122.0309000
 		      -1.2945870 -122.3399000   -14.9078500  137.0110000   -17.5081500  115.1828000   -15.9636000  135.8507000
 		     -14.9538600  136.5110000    -1.2682980 -121.6500000   -15.9533000  136.3681000   -18.4860800  110.9886000
   43473790000   -18.2712500  146.5681000   -14.7385200  129.0250000    -1.2752480 -122.4436000   -14.9148400  137.5503000 
 		     -14.8921300  127.9135000   -18.0527900  139.7548000   -14.7189800  137.0030000    -1.2474750 -121.9556000
 		      -1.2425580 -122.4338000   -14.7503600  137.4520000   -17.7662700  115.1008000   -15.8083000  136.6465000
 		     -14.9431100  137.7532000    -1.2746850 -122.3084000   -15.8480600  136.7619000   -18.3947600  112.5206000
   43543780000   -18.1531800  145.4529000   -14.6884100  126.0861000    -1.2387140 -122.6496000   -14.7449600  136.5983000 
 		     -14.6508700  128.8119000   -18.5156900  138.7740000   -14.7277700  137.1107000    -1.2312580 -122.2347000
 		      -1.2399890 -122.2723000   -14.9071600  137.8432000   -17.5533300  113.6352000   -15.8496200  136.8002000
 		     -14.7968800  137.2096000    -1.2244860 -121.8034000   -15.8170400  136.4323000   -18.1236900  113.7064000
   43613770000   -17.5058600  144.3874000   -14.6986000  127.7026000    -1.2622870 -123.0619000   -14.8585200  136.3373000 
 		     -14.8189500  127.5202000   -18.3840800  145.9492000   -14.8448000  136.0990000    -1.2649780 -122.4813000
 		      -1.3049060 -123.2009000   -15.0049600  136.0128000   -17.5585400  114.2138000   -15.6823100  135.6740000
 		     -14.8588600  136.9477000    -1.2809810 -122.5401000   -15.6691100  134.9570000   -18.3696200  113.4361000
   43683760000   -18.0526200  144.5981000   -14.6951600  126.3218000    -1.2949250 -123.0772000   -14.8730000  137.1054000 
 		     -14.7847200  127.2609000   -18.3714300  139.3714000   -14.7593000  136.6608000    -1.2515030 -122.4548000
 		      -1.2746790 -123.3020000   -14.6684700  136.1262000   -17.5551000  115.5371000   -15.6366200  136.7969000
 		     -14.8224600  137.5725000    -1.2755660 -122.1854000   -15.7064000  136.9147000   -18.8999900  112.3361000
   43753750000   -18.1912800  144.6812000   -14.6888800  127.9042000    -1.2753150 -123.3068000   -14.7286000  136.0812000 
 		     -14.7354200  127.6837000   -18.5109200  138.1993000   -14.8729300  136.3769000    -1.2473430 -122.7174000
 		      -1.2785710 -123.1262000   -14.7671900  137.1776000   -17.5422300  110.9806000   -15.5720100  135.3294000
 		     -14.6282200  135.6045000    -1.2574370 -122.3314000   -15.5934900  135.6964000   -18.0641800  115.0060000
   43823740000   -17.7676600  145.5807000   -14.5112600  128.8365000    -1.2652910 -123.3956000   -14.8109200  135.9791000 
 		     -14.4854000  128.8069000   -18.2052800  136.7393000   -14.7983000  136.7728000    -1.2750880 -123.0223000
 		      -1.2390240 -123.2848000   -14.6779700  137.5803000   -17.7754500  114.2709000   -15.5694100  135.4126000
 		     -14.7252300  135.6458000    -1.2288440 -122.7881000   -15.6072900  135.7648000   -18.1233200  109.6590000
   43893730000   -18.4262600  142.0067000   -14.6557900  128.7083000    -1.2820270 -123.3721000   -14.7409600  135.8578000 
 		     -14.6478900  128.3602000   -17.8894100  142.1570000   -14.7593300  136.3768000    -1.2755110 -123.1685000
 		      -1.3055630 -123.6300000   -14.9844100  136.2008000   -17.5621500  112.8507000   -15.5512200  136.0389000
 		     -14.7952100  135.7683000    -1.2766450 -123.3949000   -15.5616500  135.9331000   -18.2280800  112.7996000
   43963720000   -18.1561800  147.9937000   -14.2864000  127.6900000    -1.2501190 -123.6462000   -14.5211000  136.2880000 
 		     -14.5570200  128.1570000   -18.6158300  141.2477000   -14.6867500  136.3423000    -1.2048050 -123.2948000
 		      -1.2796980 -124.0182000   -14.8981700  134.4565000   -17.3901200  110.5094000   -15.5048200  135.4414000
 		     -14.5925100  136.6609000    -1.2679940 -123.4557000   -15.4210900  135.8280000   -18.2834600  110.1380000
   44033710000   -17.6776400  145.9521000   -14.3681200  127.9703000    -1.2647860 -123.8154000   -14.6013200  134.7176000 
 		     -14.3966400  127.2871000   -18.4412600  143.8137000   -14.6982100  135.3130000    -1.2376020 -123.6798000
 		      -1.2650480 -123.9662000   -14.5881900  135.2617000   -17.9199500  113.7257000   -15.2972100  134.6979000
 		     -14.6529400  134.8387000    -1.2861720 -123.4706000   -15.4246100  134.7757000   -17.8668700  111.5101000
   44103700000   -18.6801700  143.6733000   -14.4006600  126.0553000    -1.2679460 -123.9739000   -14.7342500  134.9454000 
 		     -14.4177800  126.7376000   -17.2336000  138.7011000   -14.7221700  134.5065000    -1.2632990 -123.7178000
 		      -1.2543500 -123.6382000   -14.6878900  133.8546000   -17.6114700  114.4395000   -15.4471500  134.7596000
 		     -14.6030100  136.2234000    -1.3201230 -123.9207000   -15.3310300  135.4590000   -18.5166500  113.6707000
   44173690000   -18.0879400  143.1693000   -14.2905100  127.1150000    -1.2951910 -124.2611000   -14.6938100  135.1501000 
 		     -14.3968100  127.2307000   -18.2409000  138.5668000   -14.6471600  134.0032000    -1.2564220 -123.8572000
 		      -1.2513620 -124.3533000   -14.7789400  134.6804000   -17.5902300  109.4473000   -15.3479000  135.7121000
 		     -14.7098000  135.2506000    -1.2438670 -123.9971000   -15.3575000  135.2989000   -18.1534200  110.8305000
   44243680000   -18.0659200  145.2991000   -14.6035500  123.7958000    -1.2701740 -124.5043000   -14.5873600  134.2378000 
 		     -14.6470400  127.8361000   -17.3983900  139.7410000   -14.6882700  134.8945000    -1.2113620 -123.9956000
 		      -1.2676250 -124.3990000   -14.6618900  133.5301000   -17.5158600  113.2210000   -15.2768900  133.9183000
 		     -14.6477900  134.5149000    -1.2921760 -123.5442000   -15.3059700  134.6228000   -17.9202100  113.8705000
   44313670000   -18.0304900  145.5933000   -14.2744200  126.2681000    -1.2818030 -124.8451000   -14.6254900  133.9424000 
 		     -14.3307300  125.6421000   -17.5981100  147.1514000   -14.6574900  134.2062000    -1.2884680 -124.6922000
 		      -1.2922270 -124.8507000   -14.5829200  134.0607000   -17.3422800  112.0001000   -15.2104500  134.1209000
 		     -14.6346700  134.9343000    -1.2868470 -124.2416000   -15.2729800  134.0445000   -17.5100300  114.9977000
   44383660000   -17.9020700  145.6196000   -14.0794100  126.2812000    -1.2787870 -124.9524000   -14.6074700  133.4939000 
 		     -14.1158600  125.5134000   -17.1360200  144.2766000   -14.6714000  133.3012000    -1.2481370 -124.5580000
 		      -1.3358180 -124.7680000   -14.4051100  134.9977000   -17.8595500  109.8402000   -15.2201600  134.3053000
 		     -14.5561900  132.9978000    -1.2364840 -124.5372000   -15.3200800  133.9648000   -17.3304400  112.5081000
   44453650000   -18.1021100  149.0236000   -14.2603300  130.4623000    -1.2687710 -125.0255000   -14.4505200  134.7389000 
 		     -13.9647400  125.7228000   -18.2216400  146.3551000   -14.4326500  133.1401000    -1.2245050 -125.1379000
 		      -1.2533870 -124.8980000   -14.3766300  134.6894000   -17.5714200  112.8180000   -15.1109400  135.0510000
 		     -14.5930300  134.3594000    -1.3344550 -124.5816000   -15.1406400  134.0620000   -17.6669100  111.1194000
   44523640000   -17.9692900  144.8765000   -14.1098300  126.5425000    -1.3174950 -125.2703000   -14.5212700  133.8532000 
 		     -14.4982400  125.8533000   -17.7325100  138.7566000   -14.6914200  133.5612000    -1.2653860 -125.1199000
 		      -1.2586690 -125.2485000   -14.4077800  132.9180000   -17.3167600  110.8236000   -14.9769100  134.2482000
 		     -14.8380500  133.7500000    -1.2476060 -125.0523000   -15.0507500  135.0113000   -17.8428400  112.2116000
   44593630000   -17.5803200  145.4441000   -14.1250000  124.7384000    -1.3011090 -125.6589000   -14.5936900  133.2992000 
 		     -14.2510300  125.6209000   -17.0715900  138.3889000   -14.5395200  132.8687000    -1.2743470 -124.9825000
 		      -1.2463540 -125.6720000   -14.5150000  132.7668000   -17.9262700  112.5062000   -15.0956900  133.3272000
 		     -14.6167200  133.5332000    -1.3417810 -125.0572000   -15.1601700  133.9770000   -17.5580900  108.9965000
   44663620000   -18.1209300  148.1440000   -14.0133900  125.8846000    -1.2770450 -125.7520000   -14.4876700  132.4105000 
 		     -14.1937800  126.5886000   -17.6935000  142.4357000   -14.6197400  133.6503000    -1.2649710 -125.6933000
 		      -1.2718150 -125.7270000   -14.7644200  133.0053000   -17.6756600  111.1545000   -15.0013900  133.6907000
 		     -14.5126200  131.7334000    -1.2044650 -125.3903000   -15.0455500  133.5926000   -17.1611900  114.6993000
   44733610000   -17.4597400  144.8116000   -14.1888000  127.2708000    -1.2850920 -125.8381000   -14.4836300  132.7024000 
 		     -14.2291000  126.2547000   -18.5446300  136.3407000   -14.7439300  133.8271000    -1.3282170 -125.7219000
 		      -1.3030710 -125.9511000   -14.5012200  132.9065000   -17.3338900  112.0477000   -15.0509900  133.2506000
 		     -14.5441500  131.8895000    -1.3366730 -126.4287000   -15.0150700  133.0255000   -17.6812000  111.7050000
   44803600000   -17.7384000  143.8742000   -14.1753400  124.5073000    -1.2958700 -126.1413000   -14.4019900  133.0202000 
 		     -14.1038800  125.4447000   -17.9379000  140.1658000   -14.6558700  132.4492000    -1.3031640 -125.6704000
 		      -1.3461210 -125.9734000   -14.5873000  133.6460000   -17.5299200  110.7083000   -14.9628600  133.5997000
 		     -14.4143300  132.4189000    -1.3031420 -125.5164000   -14.9585500  133.1118000   -17.9016600  113.9037000
   44873590000   -18.1482500  145.8662000   -14.2030100  125.2339000    -1.2875140 -126.4595000   -14.4299800  132.9283000 
 		     -14.0356300  124.3859000   -17.4500000  138.7850000   -14.6210800  132.1306000    -1.2549440 -125.8434000
 		      -1.3104060 -126.3774000   -14.8343300  130.9704000   -17.2845900  110.4997000   -14.8899900  134.4642000
 		     -14.4035300  132.4146000    -1.2190610 -125.4153000   -14.9185200  133.9736000   -17.6928900  111.2401000
   44943580000   -17.0794300  142.2895000   -14.1634700  124.8467000    -1.3231780 -126.6084000   -14.5340600  132.3313000 
 		     -13.9715900  125.9416000   -17.9095200  135.7386000   -14.7196800  133.2194000    -1.3160320 -126.1866000
 		      -1.3352700 -126.7994000   -14.7985700  133.2709000   -17.3881700  110.7673000   -14.9091000  133.4917000
 		     -14.5520000  131.8018000    -1.2783280 -126.4367000   -14.8940800  133.2780000   -17.5424300  109.0503000
   45013570000   -17.8479200  143.4271000   -13.8920500  124.2957000    -1.2687680 -126.5524000   -14.4470900  131.7471000 
 		     -13.9851700  124.9018000   -17.6026100  136.6536000   -14.5562500  132.5102000    -1.3712460 -126.3840000
 		      -1.2915540 -126.8524000   -14.8570800  131.8177000   -17.4667000  112.7617000   -14.7868500  133.8938000
 		     -14.4733900  131.7182000    -1.3432400 -126.5135000   -14.7538800  133.0497000   -17.6318000  111.7886000
   45083560000   -17.4480600  145.3798000   -13.9441200  125.1382000    -1.3067920 -127.1565000   -14.3275200  131.3913000 
 		     -13.7257800  123.7246000   -17.6504200  143.3579000   -14.5821900  131.0333000    -1.3196890 -126.5381000
 		      -1.2855590 -126.8224000   -14.6417400  131.1722000   -17.2055500  109.3855000   -14.7005700  133.0598000
 		     -14.4084600  131.2139000    -1.3199920 -126.3890000   -14.7740400  133.3268000   -17.7927300  110.8386000
   45153550000   -17.1907000  140.8244000   -13.9245700  126.3158000    -1.3315120 -127.0587000   -14.5041700  131.3593000 
 		     -13.9019100  126.1161000   -18.3498100  140.9043000   -14.5233100  132.0544000    -1.3594270 -126.7077000
 		      -1.3128960 -126.9838000   -14.5350900  132.2195000   -17.4157100  108.2987000   -14.7370100  132.9508000
 		     -14.4663100  131.1695000    -1.3087610 -126.2192000   -14.7932600  132.7781000   -17.6497100  110.8951000
   45223540000   -17.7387500  140.2623000   -13.5866700  127.0651000    -1.3399680 -127.6026000   -14.4451800  130.8617000 
 		     -13.9313800  125.3195000   -17.0350700  141.7158000   -14.5183800  131.2324000    -1.3857910 -127.1040000
 		      -1.3414050 -127.3429000   -14.6407900  129.9916000   -17.0198600  110.9192000   -14.7942200  132.8823000
 		     -14.5427800  131.0267000    -1.3754510 -126.9874000   -14.8017600  132.3891000   -17.5498000  110.2006000
   45293530000   -17.1812300  145.8510000   -13.7709300  123.1707000    -1.3502190 -127.8656000   -14.4597400  131.4034000 
 		     -13.6856700  123.5762000   -17.5382700  133.6110000   -14.5327200  131.0995000    -1.3686780 -126.9406000
 		      -1.3450270 -127.7171000   -14.6704900  130.3545000   -17.1621700  110.1703000   -14.6388300  132.4541000
 		     -14.5515200  131.3068000    -1.3406970 -126.6394000   -14.6701700  132.3929000   -17.4581600  104.4209000
   45363520000   -17.6929300  140.9078000   -13.6252300  126.2105000    -1.3089160 -127.6467000   -14.3964900  130.8602000 
 		     -13.7763300  126.3704000   -17.2079000  136.5184000   -14.5008200  131.0897000    -1.4023710 -127.2718000
 		      -1.3141850 -127.5953000   -14.2226500  129.9884000   -17.5408100  109.2112000   -14.6883600  132.0550000
 		     -14.2842300  130.3386000    -1.4212290 -127.2121000   -14.6208400  132.0589000   -17.5956000  107.4354000
   45433510000   -18.0212100  141.4109000   -13.6617000  125.5514000    -1.3399740 -127.8828000   -14.3706100  130.3324000 
 		     -13.7410200  124.4410000   -17.5770000  140.4452000   -14.5184300  131.6409000    -1.3761440 -127.6802000
 		      -1.3185730 -127.7810000   -14.2219000  131.1137000   -17.1875600  110.3075000   -14.5139800  132.2567000
 		     -14.4131900  129.7618000    -1.2877230 -128.1308000   -14.5675000  132.3808000   -17.3030700  109.1427000
   45503500000   -16.7764600  140.2247000   -13.4190500  124.4830000    -1.3780020 -128.2238000   -14.3807800  129.4945000 
 		     -13.5963800  124.7764000   -17.8402400  137.0238000   -14.5126000  130.6880000    -1.3313580 -127.5722000
 		      -1.3693150 -128.1598000   -14.5528800  128.3973000   -16.8265500  109.3938000   -14.6975600  131.5966000
 		     -14.4696400  129.7549000    -1.2096410 -127.1779000   -14.5841500  131.3562000   -17.5610000  105.2235000
   45573490000   -16.6438600  137.1445000   -13.7847300  124.0575000    -1.3694510 -128.5853000   -14.4371100  130.0820000 
 		     -13.8385100  123.7258000   -17.2508400  135.0495000   -14.5620800  130.2482000    -1.3562120 -127.7406000
 		      -1.3374360 -128.6593000   -14.5888700  129.6601000   -16.9613100  108.7123000   -14.5932700  132.5065000
 		     -14.5370200  130.1033000    -1.3212440 -127.6039000   -14.5854900  131.7807000   -17.6690900  106.6741000
   45643480000   -17.3212400  140.3330000   -13.9127300  124.8540000    -1.3755840 -128.4903000   -14.3008300  129.7221000 
 		     -13.7775600  124.3450000   -17.3204600  129.5988000   -14.4272600  130.8342000    -1.3687890 -127.9034000
 		      -1.4083640 -128.5471000   -14.5135800  130.3821000   -16.9865300  110.4515000   -14.5343000  131.6187000
 		     -14.4332400  129.4936000    -1.3747510 -127.6231000   -14.4961200  131.6824000   -17.3445900  105.6492000
   45713470000   -17.4824600  140.0742000   -13.7361200  124.3157000    -1.3254900 -128.6966000   -14.3646600  130.2969000 
 		     -13.8060900  122.3338000   -17.2236900  130.8910000   -14.6220900  129.3338000    -1.3806570 -127.7596000
 		      -1.3520380 -128.5024000   -14.8195800  127.7500000   -17.0050400  109.0110000   -14.4197200  132.4719000
 		     -14.4249600  130.2288000    -1.3536750 -128.1834000   -14.3814600  132.0387000   -18.0221000  106.4936000
   45783460000   -17.4913400  136.4081000   -13.8242100  124.1338000    -1.3893070 -128.7163000   -14.5039100  129.9660000 
 		     -13.6012300  123.3843000   -17.4773400  135.1833000   -14.4543600  130.0639000    -1.3629890 -127.9830000
 		      -1.4295220 -128.5114000   -14.5239000  131.1238000   -17.2339300  107.1847000   -14.4889900  131.9767000
 		     -14.4867000  129.2744000    -1.3936440 -128.1426000   -14.5067800  131.6173000   -17.2848500  105.1767000
   45853450000   -17.2305300  136.4900000   -13.7022300  124.4563000    -1.4158990 -128.9112000   -14.4562800  129.1735000 
 		     -13.5277200  123.3683000   -16.9364000  128.1423000   -14.6211200  129.7978000    -1.3644180 -128.2378000
 		      -1.4163480 -129.2116000   -14.4584900  128.7938000   -16.6943800  106.0681000   -14.4667700  130.3623000
 		     -14.4775600  128.4858000    -1.3156600 -128.3913000   -14.3984400  130.8755000   -16.9619000  109.4542000
   45923440000   -16.7509600  139.3465000   -13.9416400  122.7234000    -1.4121830 -129.2504000   -14.3741400  128.5177000 
 		     -13.7888700  124.1310000   -17.9268700  135.8595000   -14.5927000  129.4125000    -1.3930140 -128.3585000
 		      -1.3439850 -129.0997000   -14.3821100  129.8325000   -16.7550800  108.7688000   -14.3442600  131.2036000
 		     -14.3362400  127.9893000    -1.3684470 -128.3149000   -14.3681700  130.7911000   -17.0725600  108.5037000
   45993430000   -17.3896600  138.8868000   -13.6009500  121.8083000    -1.4027810 -129.3722000   -14.3079100  128.9340000 
 		     -13.4592900  124.7276000   -17.4905400  134.9874000   -14.3764400  129.1599000    -1.3842830 -128.6672000
 		      -1.4015350 -129.1786000   -14.3679500  129.6686000   -16.8896400  107.6037000   -14.2496600  130.4315000
 		     -14.1231000  128.5889000    -1.4507670 -128.5900000   -14.2806100  130.2589000   -17.3684700  108.4695000
   46063420000   -17.5013500  135.3859000   -13.4398000  122.8663000    -1.4051770 -129.4500000   -14.2947500  128.2936000 
 		     -13.3785900  122.9714000   -17.3709900  130.9603000   -14.4233800  128.8943000    -1.3659370 -128.6634000
 		      -1.3721460 -129.4468000   -14.3598000  129.6041000   -16.9316400  108.0304000   -14.2461000  130.9439000
 		     -14.3370500  129.0916000    -1.3610770 -128.8694000   -14.2250800  130.4166000   -17.3610000  112.1585000
   46133410000   -16.9980700  135.2171000   -13.2299100  124.5453000    -1.3928970 -129.5429000   -14.4395600  129.0525000 
 		     -13.1831300  122.6362000   -17.5438900  136.4540000   -14.2368600  128.5315000    -1.3103600 -129.1017000
 		      -1.3814110 -129.4241000   -14.3746400  128.1813000   -16.5362300  106.7070000   -14.3375800  131.3772000
 		     -14.5892200  127.7782000    -1.3215520 -129.0600000   -14.4148000  131.0883000   -17.1939200  103.0800000
   46203400000   -16.6896600  137.1602000   -13.2527800  123.7216000    -1.3831060 -129.9387000   -14.2233200  128.4623000 
 		     -13.2487800  124.1175000   -17.4006200  136.2040000   -14.3520100  128.6977000    -1.3616580 -129.3729000
 		      -1.3829200 -129.7956000   -14.4192000  127.5174000   -16.7282300  106.0092000   -14.3038100  130.3516000
 		     -14.4002800  128.0235000    -1.3158770 -129.4693000   -14.2357200  130.7189000   -17.6162700  105.2308000
   46273390000   -17.4057800  138.2270000   -13.3902700  122.5316000    -1.3827670 -130.0393000   -14.2940800  128.0967000 
 		     -13.3434000  121.9627000   -17.5180900  136.6890000   -14.2943600  127.7744000    -1.3343710 -129.4974000
 		      -1.3926200 -129.8711000   -14.6497600  128.1252000   -16.6887000  107.4367000   -14.1259700  130.3000000
 		     -14.6690200  127.2004000    -1.4944860 -130.1973000   -14.2595800  130.5445000   -17.3895400  107.1171000
   46343380000   -17.0690900  138.3605000   -13.1881600  122.2270000    -1.4151830 -130.1303000   -14.2427000  128.0766000 
 		     -13.3177900  121.3722000   -17.4518400  133.5216000   -14.3626500  128.1666000    -1.3681590 -129.6259000
 		      -1.4271130 -130.1872000   -14.3232500  128.6469000   -16.6424500  106.9498000   -14.0709100  130.2408000
 		     -14.2140600  127.5506000    -1.3962270 -129.8541000   -14.1680500  130.0386000   -17.3062700  105.9827000
   46413370000   -16.8075900  134.7537000   -13.4963200  122.2183000    -1.4073340 -130.5340000   -14.3075000  127.4063000 
 		     -13.1678400  123.1377000   -17.6345700  136.1894000   -14.2858600  128.1454000    -1.3612540 -129.7370000
 		      -1.4028420 -130.6000000   -14.1850000  127.9910000   -16.5546800  102.6721000   -14.1400500  129.8982000
 		     -14.2509300  127.6235000    -1.4665300 -130.2529000   -14.1039800  130.3880000   -17.4649200  103.1850000
   46483360000   -17.3853200  136.6345000   -13.0030500  123.3222000    -1.4055190 -130.6275000   -14.3161700  127.0697000 
 		     -13.2919500  122.5177000   -17.8044300  133.7034000   -14.2179700  127.5253000    -1.3742520 -130.1302000
 		      -1.3738470 -131.0099000   -14.2442000  128.4255000   -16.8363300  106.0945000   -14.0646100  129.9988000
 		     -14.4427800  127.0098000    -1.4417030 -130.1994000   -14.1828800  130.1226000   -17.3207900  106.7982000
   46553350000   -17.4153300  135.1535000   -13.2469700  121.3994000    -1.4133830 -130.5027000   -14.1892000  127.5435000 
 		     -13.2343000  121.5126000   -18.0491100  135.0967000   -14.2738500  126.8935000    -1.3831020 -130.4939000
 		      -1.4277270 -130.7565000   -14.4134800  128.8571000   -16.3493500  103.2176000   -14.0491700  129.9400000
 		     -14.2802500  127.0323000    -1.4177260 -130.1340000   -13.9507100  130.1393000   -17.2984900  105.9233000
   46623340000   -16.9550100  137.4962000   -13.2945100  122.9452000    -1.4073970 -131.1929000   -14.2905700  127.2132000 
 		     -13.3448600  121.4599000   -18.0405600  134.3158000   -14.4181500  127.3024000    -1.3585310 -130.0314000
 		      -1.4022550 -130.7954000   -14.1143900  128.0100000   -16.7543700  103.9028000   -14.0441400  129.7289000
 		     -14.3866100  126.6882000    -1.3773730 -130.1336000   -14.0350400  130.1510000   -17.4140900  101.0160000
   46693330000   -16.7945700  132.3126000   -13.2231500  122.4798000    -1.4259070 -131.0419000   -14.2144000  126.8760000 
 		     -13.1723300  121.7891000   -17.9689000  136.1225000   -14.2867400  126.7069000    -1.3603290 -130.8295000
 		      -1.4227500 -131.1714000   -14.3360000  124.3609000   -16.8185800  104.8414000   -14.0341400  129.7978000
 		     -14.3483800  126.0082000    -1.3576890 -130.9387000   -13.9527300  129.5858000   -17.3664800  110.3219000
   46763320000   -17.2351900  135.6806000   -12.9549200  121.7157000    -1.3921180 -131.3372000   -14.2474800  126.8623000 
 		     -13.1333800  122.5542000   -16.5635800  132.3858000   -14.3339000  126.7912000    -1.4196820 -130.9559000
 		      -1.3883320 -130.9599000   -14.3997700  127.3722000   -16.2911300  103.5331000   -13.9821300  129.8201000
 		     -14.3021600  127.3152000    -1.3346330 -130.3251000   -13.9338700  129.7888000   -16.8941500  101.6098000
   46833310000   -17.1945900  135.1286000   -12.8564700  123.5463000    -1.4119400 -131.7610000   -14.1216300  126.5039000 
 		     -13.0844800  124.0109000   -17.0905700  132.3069000   -14.2529300  126.3671000    -1.3599020 -131.2680000
 		      -1.4040950 -131.8644000   -14.4278000  125.1584000   -16.6631500  102.2373000   -13.9260700  129.2603000
 		     -14.3563200  126.7029000    -1.4027700 -131.4686000   -13.9307800  129.0299000   -17.4134800  102.6601000
   46903300000   -16.9789300  133.3170000   -13.0291400  120.5232000    -1.4044720 -131.6799000   -14.2908900  125.5903000 
 		     -13.1335900  121.6299000   -17.4491700  133.0732000   -14.2278200  127.2376000    -1.4151630 -131.2407000
 		      -1.4135960 -131.4496000   -14.2252400  127.0305000   -16.9749900  105.0454000   -13.9398300  128.9480000
 		     -14.3654400  125.2378000    -1.3816830 -131.4583000   -13.9428200  129.1939000   -16.7479700  104.9787000
   46973290000   -17.0502000  137.3571000   -13.1257900  123.4831000    -1.4140920 -131.8049000   -14.1876000  125.7547000 
 		     -12.9484600  122.1753000   -16.7889600  131.6829000   -14.3397200  126.3832000    -1.3992880 -131.4693000
 		      -1.4451800 -132.0140000   -14.4036700  125.3292000   -16.5070200  102.1833000   -13.9609400  128.9415000
 		     -14.2060100  125.8829000    -1.3220790 -131.9474000   -13.8884500  128.6585000   -16.2775300  100.4870000
   47043280000   -16.7983600  133.5033000   -13.1508400  121.4854000    -1.4165560 -131.9044000   -14.2290600  124.7339000 
 		     -12.9314300  120.6349000   -16.7845000  135.6017000   -14.2497400  125.2659000    -1.3736150 -131.8960000
 		      -1.3519910 -132.0063000   -14.2020900  126.0848000   -16.8687700  102.4287000   -13.7533900  128.4444000
 		     -14.1868600  124.3406000    -1.3872440 -131.6548000   -13.7248700  128.3323000   -17.1013800  105.1082000
   47113270000   -17.0016300  137.4358000   -12.9809700  121.6248000    -1.4170330 -132.4912000   -14.1318900  125.2611000 
 		     -13.1062600  120.8438000   -16.8291200  132.6262000   -14.2833500  125.2729000    -1.4126260 -132.0988000
 		      -1.4173340 -132.4992000   -14.2454100  124.4809000   -16.6157000  106.8932000   -13.8123700  128.1173000
 		     -14.1891800  124.7421000    -1.4383020 -132.0199000   -13.8085600  127.7866000   -16.5729100  106.3337000
   47183260000   -17.0773800  136.3622000   -12.9324100  121.6684000    -1.4101040 -132.5522000   -14.0079400  125.0122000 
 		     -12.9057700  120.6714000   -16.7346900  132.3959000   -14.3716600  124.4148000    -1.4248790 -132.1686000
 		      -1.4139540 -132.3607000   -14.1112200  123.2045000   -16.3612900  104.7907000   -13.7297700  128.6675000
 		     -14.0045100  123.8171000    -1.4651120 -131.9033000   -13.6552500  128.6795000   -16.9733100  102.5984000
   47253250000   -16.8934300  135.6555000   -12.9822400  120.5127000    -1.4272670 -132.6031000   -14.2483600  125.3095000 
 		     -12.8904500  121.6736000   -17.1710300  129.5246000   -14.2505700  124.7054000    -1.3971710 -132.1472000
 		      -1.4299140 -132.3848000   -14.4246300  124.0344000   -16.7578500  102.2187000   -13.8493300  128.0639000
 		     -14.3630900  125.3391000    -1.4319220 -131.9727000   -13.7582100  128.5411000   -17.1059900  101.4704000
   47323240000   -17.3957200  137.6478000   -12.8055100  119.9941000    -1.4335040 -132.9538000   -14.2199000  123.8007000 
 		     -12.8963200  120.6842000   -16.7869800  128.2629000   -14.2668500  124.0986000    -1.4497000 -132.3051000
 		      -1.4985790 -132.7282000   -14.3221400  125.0969000   -16.9004800  106.3818000   -13.6874000  128.5606000
 		     -14.3048500  125.2199000    -1.4715910 -132.7102000   -13.7757700  128.1498000   -16.4874100  101.0840000
   47393230000   -17.3624400  137.2567000   -12.7735200  120.8909000    -1.4003960 -133.0146000   -13.9162700  123.8329000 
 		     -12.9204900  119.8011000   -16.7726800  132.9518000   -14.2687700  124.3551000    -1.3857450 -132.6827000
 		      -1.4290160 -133.2766000   -14.2346900  123.3303000   -16.6148600  102.1436000   -13.5721400  128.0333000
 		     -13.9750600  124.3996000    -1.3990260 -132.9888000   -13.5609700  127.9583000   -16.6672400  104.9014000
   47463220000   -17.2760900  131.4138000   -12.7495500  118.1472000    -1.4091550 -133.1743000   -14.0044200  123.2188000 
 		     -12.7240300  120.2001000   -16.8405100  134.7024000   -14.1222400  124.3520000    -1.3710420 -132.8748000
 		      -1.4170950 -133.3961000   -14.2071000  123.8839000   -17.1830700  100.9680000   -13.5539000  127.9073000
 		     -14.1048800  123.0789000    -1.4589470 -132.7000000   -13.5803400  128.0198000   -16.9970900  107.0862000
   47533210000   -16.6961700  133.9518000   -12.8373200  120.8641000    -1.4673100 -133.7236000   -13.9460200  122.7331000 
 		     -12.8353000  120.2915000   -17.4735200  135.6232000   -14.2146800  124.1842000    -1.4003450 -133.1334000
 		      -1.4446660 -133.5921000   -14.4278600  123.0408000   -16.4390300  102.8988000   -13.4935800  127.7619000
 		     -14.0744600  122.6062000    -1.3452120 -132.6855000   -13.5493500  127.0333000   -16.6501500  108.3662000
   47603200000   -16.7635800  139.2244000   -12.7554600  118.1714000    -1.4131200 -133.9770000   -14.0342900  122.5551000 
 		     -12.9139700  119.3410000   -16.7144000  128.2109000   -14.2929800  123.1169000    -1.4596700 -133.3063000
 		      -1.3656920 -133.7537000   -14.2415600  122.6367000   -16.6469200  104.2509000   -13.4686600  127.1373000
 		     -14.0034000  123.1170000    -1.4646770 -133.7716000   -13.5317100  126.8401000   -16.4363600  103.1577000
   47673190000   -17.1886200  138.1792000   -12.9502100  119.7114000    -1.4113460 -134.1083000   -13.9682200  123.7785000 
 		     -12.8936000  119.9679000   -16.9601300  125.7817000   -14.2378900  123.2891000    -1.4429940 -133.3830000
 		      -1.4149190 -133.7424000   -14.3313400  124.5081000   -16.9695500  102.4710000   -13.4871900  128.2069000
 		     -14.0998400  123.8325000    -1.4347190 -133.6594000   -13.4742200  127.7659000   -17.0975000  101.8108000
   47743180000   -16.6235100  135.2715000   -12.4842900  119.9015000    -1.4821530 -134.0055000   -13.9827400  122.6196000 
 		     -12.6846900  118.9288000   -17.0783400  128.2841000   -14.2248200  122.3089000    -1.4559730 -133.5396000
 		      -1.4627370 -133.9164000   -14.0905000  124.1078000   -16.3518400  101.9889000   -13.5078600  126.8284000
 		     -13.9415700  122.3601000    -1.3625600 -133.3078000   -13.5796300  126.6908000   -16.7745900  105.4508000
   47813170000   -16.8622700  132.9179000   -12.8373200  118.8270000    -1.4464130 -134.4676000   -14.1251200  122.6235000 
 		     -12.7758500  119.1144000   -16.4027200  133.7184000   -14.2032600  122.1176000    -1.4977410 -133.9130000
 		      -1.4266170 -134.2868000   -14.0526600  121.9005000   -16.3431200  102.5926000   -13.4355600  126.9940000
 		     -14.0767600  123.5319000    -1.5194210 -133.4124000   -13.5020300  127.1374000   -16.8608700  102.2036000
   47883160000   -16.7937200  133.3082000   -12.5611400  118.3959000    -1.4812830 -134.5402000   -14.0447000  122.6097000 
 		     -12.4835000  118.0438000   -16.6184000  129.0317000   -14.2388800  121.8441000    -1.4673420 -134.0553000
 		      -1.4622010 -134.2783000   -14.3371100  121.9485000   -16.6103400  101.4676000   -13.4301400  127.2774000
 		     -14.0376500  123.3064000    -1.4373060 -133.4783000   -13.3547800  127.1082000   -17.0148400  102.2051000
   47953150000   -16.2688800  133.2379000   -12.5082600  118.9309000    -1.4702780 -134.7443000   -14.0223000  121.7164000 
 		     -12.6301400  119.9296000   -17.7250700  134.3096000   -14.0939000  123.2220000    -1.4513970 -134.3164000
 		      -1.5128300 -134.7961000   -14.0379300  123.6284000   -16.3347000  103.2864000   -13.3972800  126.6443000
 		     -13.7873900  121.8879000    -1.4627290 -134.0749000   -13.3702600  126.3716000   -17.1254600  102.5247000
   48023140000   -17.0907800  134.1820000   -12.3071600  118.4513000    -1.4562570 -134.9995000   -14.0172200  121.8419000 
 		     -12.6493300  117.0279000   -17.0715200  130.5103000   -13.9863200  121.7793000    -1.5008920 -134.4958000
 		      -1.4561910 -135.0105000   -14.1670700  122.6970000   -16.4877600  102.5463000   -13.3069000  126.4789000
 		     -13.9780200  122.9896000    -1.4882490 -134.4537000   -13.4150700  126.5843000   -16.5313500  101.0447000
   48093130000   -16.4467800  132.9765000   -12.4604800  117.8512000    -1.4565380 -134.9142000   -14.1298800  121.6378000 
 		     -12.7033500  119.6673000   -16.4757500  125.9216000   -14.2194700  121.7958000    -1.4700990 -134.6844000
 		      -1.4581500 -135.1482000   -14.3743900  122.5335000   -16.3096100  100.1968000   -13.3746000  126.4395000
 		     -14.0192300  122.2129000    -1.4382720 -133.9764000   -13.3510500  126.1413000   -16.6626700  100.1609000
   48163120000   -16.2760500  130.5961000   -12.3891800  117.7761000    -1.4972630 -135.4043000   -14.0012500  121.8763000 
 		     -12.5145900  118.8512000   -17.7065300  128.2909000   -14.0699600  122.0408000    -1.4634810 -134.6893000
 		      -1.5135870 -134.9422000   -14.0969800  122.7699000   -16.3292500  101.8416000   -13.3308400  127.0150000
 		     -13.9937200  122.0403000    -1.5318720 -134.7390000   -13.3141900  126.3517000   -17.4949600  100.3034000
   48233110000   -17.0424500  132.8317000   -12.3965300  118.8842000    -1.4819420 -135.6464000   -13.9696300  121.4092000 
 		     -12.5521700  119.6336000   -16.1813900  126.2192000   -14.1496900  120.9029000    -1.5103540 -134.4643000
 		      -1.4566850 -135.5304000   -13.9638800  120.6373000   -16.2070300  103.0398000   -13.2751000  126.2169000
 		     -14.0727700  121.9630000    -1.6078420 -134.5793000   -13.2683000  125.8229000   -16.8968200  101.3277000
   48303100000   -17.0143600  133.3638000   -12.4003800  118.9613000    -1.5011840 -135.6628000   -13.9646300  120.5592000 
 		     -12.5837100  118.8790000   -17.1694100  128.3123000   -14.0618600  121.1875000    -1.4716060 -134.7491000
 		      -1.4946720 -135.5239000   -14.0887100  120.2698000   -16.5149600  101.8235000   -13.2304800  125.9464000
 		     -13.7828800  120.9612000    -1.4225220 -134.9973000   -13.1947700  125.8163000   -16.9421800   99.0287100
   48373090000   -16.4361600  132.4008000   -12.2700200  118.0780000    -1.4724490 -135.9225000   -14.0032600  120.5437000 
 		     -12.5702100  119.0539000   -16.7753200  125.1337000   -14.1181700  121.4909000    -1.4578080 -135.1898000
 		      -1.5175600 -135.8659000   -14.1221700  119.8796000   -16.0582500  101.6881000   -13.3642300  125.1239000
 		     -14.0641900  121.1010000    -1.4293540 -135.5857000   -13.3127800  125.4837000   -16.5148900   98.8583600
   48443080000   -16.6344300  130.7070000   -12.6293800  119.2081000    -1.4928830 -136.0831000   -14.0269400  120.2552000 
 		     -12.5360800  119.6018000   -16.1034300  127.3228000   -14.1333200  121.7282000    -1.5219840 -135.2924000
 		      -1.4920880 -135.8836000   -14.1881500  124.4053000   -16.1696200  100.6696000   -13.2924000  125.3842000
 		     -14.0418300  120.5257000    -1.4579640 -134.8336000   -13.2936200  125.6899000   -15.9259500   99.2610700
   48513070000   -16.3889700  134.2974000   -12.3078800  119.6889000    -1.5079890 -136.3427000   -13.9401400  120.1267000 
 		     -12.5297300  119.8038000   -18.0164600  126.2244000   -14.0245000  121.1147000    -1.4724530 -135.5053000
 		      -1.4926530 -136.2641000   -14.0760700  120.0084000   -16.1459600  101.5301000   -13.1664300  125.5115000
 		     -14.1325000  120.0972000    -1.4607420 -135.3647000   -13.2524800  125.0544000   -16.6158900   97.5686500
   48583060000   -17.0317500  127.4591000   -12.5502200  118.3643000    -1.4920570 -136.1051000   -13.9924600  120.0084000 
 		     -12.3424200  119.0345000   -17.0510300  128.4478000   -14.0598500  120.8287000    -1.5131720 -135.8311000
 		      -1.5093230 -136.0290000   -13.9630800  120.4617000   -16.3383200   99.7558200   -13.2479700  125.1815000
 		     -14.1442000  119.5893000    -1.5726310 -136.2063000   -13.2669800  125.5615000   -16.4995500   98.9610800
   48653050000   -16.6191100  130.2989000   -12.2750800  119.4810000    -1.5294130 -136.4533000   -13.8652700  119.3382000 
 		     -12.5461100  118.2374000   -16.6713100  129.8273000   -13.9748700  120.4729000    -1.4865590 -136.0013000
 		      -1.5798310 -136.6533000   -13.9897000  121.3620000   -16.0958100  100.5125000   -13.0999700  124.5198000
 		     -13.8416400  118.6696000    -1.5499650 -136.0434000   -13.1295700  124.6165000   -16.2634600   99.2826300
   48723040000   -16.3088900  131.6461000   -12.3162300  116.3696000    -1.5162920 -136.8942000   -13.8894800  119.1338000 
 		     -12.3056000  117.6469000   -16.5310500  125.1047000   -14.2719900  120.4744000    -1.5248270 -135.9417000
 		      -1.4982690 -136.6650000   -14.2390400  119.3669000   -16.2841300   98.1634300   -13.1321200  125.1263000
 		     -13.9757200  118.1147000    -1.3776620 -136.1700000   -13.0414800  124.8342000   -16.4229600  100.5603000
   48793030000   -16.5450400  132.3051000   -12.2868700  117.9522000    -1.4936580 -136.9648000   -13.9537100  119.9590000 
 		     -12.3915000  118.5159000   -16.4189500  128.1146000   -13.9530900  120.1732000    -1.5471300 -136.1366000
 		      -1.5056720 -136.9661000   -13.8857100  119.0193000   -16.1587200  100.9930000   -13.1268900  124.9181000
 		     -13.8789800  119.9964000    -1.5957380 -136.1970000   -13.1022700  125.1881000   -16.3915800   96.0572600
   48863020000   -16.2958200  131.4301000   -12.4397800  118.4245000    -1.5669430 -137.1301000   -13.9198300  119.0279000 
 		     -12.5460400  118.0191000   -16.3087500  124.0279000   -14.0512600  119.9277000    -1.4559730 -136.2477000
 		      -1.5301470 -137.1718000   -14.2591100  120.2947000   -15.6433900   98.6461600   -13.0763200  125.1836000
 		     -13.8464400  119.2491000    -1.4618380 -135.9412000   -13.1420400  124.1263000   -16.3733100   98.2646900
   48933010000   -16.7875300  129.3319000   -12.5656400  117.8671000    -1.4895510 -137.3798000   -13.9616200  119.5272000 
 		     -12.3611000  119.6342000   -16.4950400  125.1936000   -14.0826000  120.8255000    -1.5148560 -137.0891000
 		      -1.5234270 -136.9248000   -13.9896400  119.2272000   -16.4652900   99.7732300   -13.0663100  124.7779000
 		     -13.9554400  118.7714000    -1.4394390 -136.5928000   -12.9905900  123.5110000   -16.1589600   95.5766800
   49003000000   -16.8427800  129.7492000   -12.7406400  118.5820000    -1.5008550 -137.1111000   -13.8860900  119.9667000 
 		     -12.2827400  118.5068000   -17.2265900  123.9443000   -13.9941900  119.8950000    -1.4720550 -136.5598000
 		      -1.4700610 -136.9698000   -13.9937600  119.8857000   -16.3342500  101.4290000   -12.8983000  124.9758000
 		     -14.0811100  119.3049000    -1.4426730 -137.0374000   -12.9747400  124.7376000   -16.3772200   98.3190600
   49072990000   -16.2136800  129.3541000   -12.0675500  115.8409000    -1.5578310 -137.7605000   -13.7802200  119.2735000 
 		     -12.2074400  117.4957000   -15.9205700  126.3238000   -13.9964700  119.1576000    -1.5259170 -137.0315000
 		      -1.5724700 -137.5109000   -13.8811200  117.4486000   -15.9566300   97.3573700   -12.9262400  124.8333000
 		     -13.8167900  118.7752000    -1.5243370 -137.0428000   -12.9753000  124.8950000   -16.9893000   99.5853700
   49142980000   -16.7909600  131.5432000   -12.3933200  115.5688000    -1.4753330 -137.6805000   -13.9773300  118.6262000 
 		     -12.2502300  116.5890000   -15.9809500  126.7028000   -14.0653800  118.2034000    -1.5853730 -137.1698000
 		      -1.4692780 -137.4525000   -14.2054500  118.1409000   -16.2937600   99.5290500   -12.8770600  124.3683000
 		     -13.9407700  118.8267000    -1.6173360 -136.6042000   -12.8819100  123.5620000   -16.4035300   99.0942500
   49212970000   -16.5737300  126.8160000   -12.2163000  118.3540000    -1.5699950 -138.0288000   -13.8695400  118.9265000 
 		     -12.1494100  117.9873000   -17.8346900  128.6358000   -13.9428700  119.3209000    -1.4819330 -137.2982000
 		      -1.5512440 -138.2420000   -13.9364200  119.4380000   -15.9466100   98.6544600   -12.8059400  124.5010000
 		     -13.9281400  119.1746000    -1.5104530 -136.6918000   -12.8178800  123.9076000   -17.0727800   98.0747700
   49282960000   -16.3820600  128.9028000   -12.1995500  116.9120000    -1.5223170 -138.1220000   -13.8251900  118.8732000 
 		     -12.2950600  117.7522000   -17.3830000  118.2651000   -14.0685500  119.0312000    -1.5052330 -137.6770000
 		      -1.5270230 -138.4018000   -13.8914500  117.2157000   -15.8399100   98.6171300   -12.8380800  124.0989000
 		     -13.9231600  119.1416000    -1.5595300 -137.1970000   -12.8314400  124.4538000   -16.9568400   98.1547900
   49352950000   -16.7784900  128.8910000   -12.2293300  117.4099000    -1.5507490 -138.4299000   -13.7803000  116.9290000 
 		     -12.2603200  118.1041000   -16.6304600  127.7069000   -13.9782800  119.1690000    -1.5147310 -137.6701000
 		      -1.5550070 -138.5338000   -14.4415700  118.8475000   -16.3116800   98.5389500   -12.7989400  124.0772000
 		     -13.8438000  117.5425000    -1.5758340 -137.5041000   -12.8017400  123.6194000   -16.1686000   99.2576000
   49422940000   -16.7118200  130.8376000   -11.8690600  116.4569000    -1.5361030 -138.5294000   -13.8419500  119.1677000 
 		     -12.2159500  118.5124000   -16.3578900  118.3276000   -13.9429100  118.4618000    -1.5292920 -137.4621000
 		      -1.5165070 -138.4900000   -13.9376500  118.1331000   -15.8073800   97.4421000   -12.8875100  124.1048000
 		     -13.9173700  119.1050000    -1.4178090 -138.1813000   -12.8949700  124.1321000   -16.9236300   92.1397600
   49492930000   -16.2183000  127.6953000   -12.1935300  117.5136000    -1.5641120 -138.8223000   -14.0385700  117.6523000 
 		     -12.1807000  117.6795000   -16.3254700  126.0692000   -13.9280800  118.7320000    -1.5355480 -138.0032000
 		      -1.5210130 -138.7336000   -13.9902000  118.2986000   -15.5782100   97.1499300   -12.8533600  123.3324000
 		     -14.2268900  116.6488000    -1.5784760 -137.9763000   -12.9656500  123.5224000   -16.6958300   93.7809900
   49562920000   -16.8220500  128.7481000   -12.3181800  117.4667000    -1.5181590 -139.1198000   -13.8759900  117.0499000 
 		     -11.9535600  115.4746000   -16.9110000  125.4769000   -13.9436300  117.4525000    -1.5416530 -138.5329000
 		      -1.5215990 -138.9367000   -14.2597800  117.4737000   -16.1016300   97.9294700   -12.8137800  123.2740000
 		     -13.9186600  117.7283000    -1.5596350 -138.4699000   -12.8365700  123.3363000   -16.1083600   93.8516800
   49632910000   -16.6800700  130.7350000   -11.9190500  114.7170000    -1.5626720 -139.2441000   -13.9411600  117.2612000 
 		     -12.1996600  116.3941000   -16.3291100  118.6183000   -13.8347400  118.1378000    -1.5364190 -138.6985000
 		      -1.5603280 -139.2410000   -13.9904700  117.6353000   -15.7576300   99.0098500   -12.7256000  123.7318000
 		     -13.9718400  118.0128000    -1.5611030 -138.7470000   -12.7427200  122.8031000   -16.6527100   92.2097600
   49702900000   -16.2920900  129.0479000   -12.0315400  114.3563000    -1.5894190 -139.4648000   -13.8542700  117.3290000 
 		     -12.0041600  116.5603000   -16.6353500  114.9947000   -13.9799400  117.9776000    -1.5445630 -138.6692000
 		      -1.6153530 -139.5293000   -14.1426600  117.5455000   -15.8780200   96.8450300   -12.8659000  123.1124000
 		     -13.8924200  116.1198000    -1.5290700 -138.8873000   -12.8315200  122.8887000   -16.3446800   93.9828000
   49772890000   -16.5810900  127.1886000   -11.8445000  116.0108000    -1.5671340 -139.5697000   -13.8341200  116.0107000 
 		     -12.0492900  115.8980000   -16.6353800  122.5754000   -13.8909400  117.7366000    -1.5342370 -138.6971000
 		      -1.5691270 -139.5144000   -13.7699900  115.8642000   -15.9713000   98.0076900   -12.7645200  122.7076000
 		     -13.7969600  116.9168000    -1.5445280 -138.7617000   -12.6872800  122.4343000   -16.1280900   93.2652800
   49842880000   -16.8032900  130.4269000   -12.3266000  116.5501000    -1.5640230 -139.5774000   -13.8099500  117.4769000 
 		     -11.8744500  116.2448000   -16.0413200  119.1443000   -13.9713200  118.0518000    -1.5672560 -139.6858000
 		      -1.6065800 -139.8310000   -14.4108100  116.1790000   -15.6715700   95.8789900   -12.7505600  123.1348000
 		     -13.7711400  117.5237000    -1.4504770 -139.2519000   -12.6995500  122.9409000   -16.6937000   93.7062400
   49912870000   -16.5049600  126.5987000   -11.7634800  117.2314000    -1.5800200 -139.7655000   -13.7276800  116.6965000 
 		     -11.9911800  117.5948000   -17.0391000  120.9827000   -13.8608600  117.8250000    -1.5106590 -139.2814000
 		      -1.6007680 -139.7464000   -14.0719100  117.8371000   -15.7588200   93.9872200   -12.6763800  122.9370000
 		     -13.6603800  115.8969000    -1.5640440 -139.5453000   -12.6406800  123.3969000   -16.6028600   94.5770000
   49982860000   -16.7812400  128.4672000   -11.6504700  114.6539000    -1.6191140 -140.3181000   -13.8145400  114.5544000 
 		     -11.8843700  116.3712000   -16.2258200  126.7246000   -13.7963700  115.6093000    -1.5542490 -140.0630000
 		      -1.5633430 -140.1713000   -14.0302200  116.3502000   -15.8851400   98.2868600   -12.5504800  121.5219000
 		     -13.7887700  114.5019000    -1.4319210 -140.1781000   -12.6569300  121.7663000   -15.8787200   95.1956000
   50052850000   -16.2470700  127.8719000   -11.8236000  117.4294000    -1.5784480 -140.5344000   -13.6351700  114.2247000 
 		     -11.9164200  116.2320000   -17.2697200  119.4260000   -14.0388700  116.3775000    -1.4978130 -139.8738000
 		      -1.5444480 -140.6049000   -13.9296600  116.2175000   -15.8893300   96.1983800   -12.5761800  120.9671000
 		     -13.6486100  114.6016000    -1.5224240 -139.5385000   -12.5286000  121.1059000   -16.1326100   97.1617200
   50122840000   -15.9929100  122.5837000   -11.6402400  115.7425000    -1.6236940 -140.2249000   -13.8265600  115.7990000 
 		     -11.8965500  115.6060000   -16.2536800  127.8911000   -13.8533700  115.9417000    -1.6432820 -140.0845000
 		      -1.5596590 -140.1071000   -14.0066900  116.4631000   -15.8262800   93.8886000   -12.6593800  122.5173000
 		     -13.6041500  115.7323000    -1.5459210 -139.6913000   -12.6402300  122.1282000   -15.7103100   95.8704600
   50192830000   -16.3949500  128.1354000   -12.0524500  114.4865000    -1.6237870 -140.8400000   -13.7299200  115.0678000 
 		     -12.0673600  115.3733000   -15.7137200  118.2212000   -13.9093800  115.5269000    -1.5938450 -139.7977000
 		      -1.5272210 -140.9424000   -14.0011700  117.3257000   -15.7549700   96.6624300   -12.5473900  121.8443000
 		     -13.9273300  115.5660000    -1.6004170 -140.6218000   -12.5553700  121.8166000   -16.0046100   94.1976700
   50262820000   -15.8551700  127.4155000   -11.8600500  112.6018000    -1.5733140 -140.7580000   -13.8103400  113.6399000 
 		     -11.5694300  114.3222000   -16.0065600  120.7584000   -13.9404200  114.9295000    -1.5399270 -140.6195000
 		      -1.5458560 -141.0018000   -14.1568600  114.5525000   -15.6373400   96.0197200   -12.4665800  120.6978000
 		     -13.7233300  113.7822000    -1.5468550 -140.8621000   -12.5289800  121.0848000   -16.0884900   97.8323300
   50332810000   -16.6142500  122.8468000   -11.7859400  113.1529000    -1.5915870 -140.8985000   -13.6606600  114.0642000 
 		     -11.9523500  113.6012000   -15.4621400  126.2950000   -13.8276700  113.5330000    -1.5832350 -140.8204000
 		      -1.6027250 -140.9946000   -13.9008500  114.3450000   -15.8233000   96.4594600   -12.4576400  121.0624000
 		     -13.7151700  113.9961000    -1.5680010 -141.1941000   -12.4711000  120.3746000   -15.7815300   99.6435300
   50402800000   -16.1756400  129.2883000   -11.5828400  116.7269000    -1.6364050 -141.2431000   -13.6235400  114.8981000 
 		     -11.9779000  114.6987000   -16.1911000  125.9938000   -13.8481800  115.2661000    -1.5752060 -140.4324000
 		      -1.5852650 -141.0555000   -13.7446400  115.4077000   -15.5872300   96.8294900   -12.5022000  121.6702000
 		     -13.6563900  114.3262000    -1.5727560 -140.5001000   -12.4597800  121.7576000   -16.5524400   93.3899000
   50472790000   -16.2811400  126.0077000   -11.7904900  115.6370000    -1.5806860 -141.3248000   -13.5794000  113.7288000 
 		     -11.8090000  114.4943000   -15.6702100  123.2691000   -13.9234600  114.6934000    -1.6224610 -141.1234000
 		      -1.5897010 -141.2940000   -13.8491200  116.6099000   -15.7574700   95.5534500   -12.3863600  121.2448000
 		     -13.6197400  113.5046000    -1.6129510 -141.5453000   -12.4489700  120.9917000   -16.1337000   98.0041000
   50542780000   -16.4720000  125.1391000   -11.9470800  113.3366000    -1.5860750 -141.6085000   -13.8130600  113.1750000 
 		     -11.6477300  113.9584000   -15.8438600  122.7318000   -13.8691700  114.7248000    -1.6323150 -141.1663000
 		      -1.5604930 -141.5351000   -14.1192300  115.3232000   -15.8345000   94.3358400   -12.5017900  120.4840000
 		     -13.7540500  113.2598000    -1.5902350 -141.6403000   -12.5064000  120.3461000   -15.7922500   94.6948800
   50612770000   -15.6154900  126.1927000   -11.7056800  113.9182000    -1.6400600 -141.7453000   -13.5670800  112.6086000 
 		     -11.6295200  113.7286000   -16.3588700  126.5179000   -13.9389600  112.7556000    -1.6356830 -141.4416000
 		      -1.6695240 -141.6479000   -13.8947900  111.8098000   -15.3931800   95.1343400   -12.4817600  119.9812000
 		     -13.4786000  111.9243000    -1.6552440 -141.3327000   -12.4601400  120.6331000   -16.1237400   98.6782000
   50682760000   -15.6994000  124.5455000   -12.0811700  113.3860000    -1.6351600 -142.0495000   -13.6728100  113.8160000 
 		     -11.8817800  114.4095000   -17.0682300  115.5339000   -14.0110900  114.2650000    -1.6393210 -141.4415000
 		      -1.6666410 -142.2496000   -13.8032600  114.3645000   -15.4665700   94.5300500   -12.3958200  120.0804000
 		     -13.7977700  113.5040000    -1.5660210 -141.5469000   -12.3649800  121.0901000   -16.3574100   93.9624300
   50752750000   -16.3744700  127.7978000   -11.6116800  113.8168000    -1.6431940 -142.0407000   -13.5455500  113.2769000 
 		     -11.6142400  112.5932000   -15.9926700  119.2768000   -13.9629200  113.3400000    -1.6478780 -141.5780000
 		      -1.6711420 -142.0939000   -14.0863100  112.7991000   -15.6693100   94.0343000   -12.4491200  121.0571000
 		     -13.5546100  113.4563000    -1.5590580 -141.7914000   -12.3073300  120.6883000   -16.3325800   95.0338900
   50822740000   -16.1198000  124.9730000   -11.7723200  115.9040000    -1.6522860 -142.1792000   -13.6279100  113.4680000 
 		     -11.7245500  113.3995000   -16.5354300  122.8264000   -13.8880900  113.9496000    -1.6124630 -141.4636000
 		      -1.6616220 -142.1584000   -14.1289600  113.7252000   -15.7243800   93.2224500   -12.3882500  120.8755000
 		     -13.6382500  112.6565000    -1.6720530 -141.5852000   -12.3696700  120.8904000   -16.4278000   93.1273000
   50892730000   -16.2553600  122.2849000   -11.9366800  114.2653000    -1.6691360 -142.3329000   -13.5587700  111.7355000 
 		     -11.6638100  114.0637000   -16.6944600  122.5962000   -13.7463900  114.5050000    -1.6086280 -141.7681000
 		      -1.6331150 -142.4427000   -13.7686700  113.3964000   -15.7288700   95.9805800   -12.2221200  119.3254000
 		     -13.5621700  112.2949000    -1.5787990 -142.0165000   -12.2205800  119.5421000   -15.7386400   94.7295600
   50962720000   -16.1066100  128.1061000   -11.7915700  113.4249000    -1.6415310 -142.6708000   -13.5875000  111.2288000 
 		     -11.6255900  112.8370000   -15.5613000  123.5814000   -13.9315000  113.1135000    -1.6214670 -142.1391000
 		      -1.6657530 -142.2766000   -14.0719100  112.5307000   -15.5445500   94.5140400   -12.3321700  119.2280000
 		     -13.7167300  111.6479000    -1.6775950 -142.5383000   -12.3740800  119.1903000   -15.8079000   92.8804800
   51032710000   -16.1143500  123.6133000   -11.5373400  114.1475000    -1.6706090 -142.7125000   -13.7337600  112.6157000 
 		     -11.6854600  113.3162000   -16.0633700  119.6560000   -13.7297400  112.9037000    -1.5942470 -142.1856000
 		      -1.7135060 -142.9151000   -14.0235000  113.2350000   -15.6656500   92.0084700   -12.4149500  119.7840000
 		     -13.6465800  112.1173000    -1.5978630 -142.2467000   -12.3838100  119.3319000   -15.9363900   91.4667400
   51102700000   -16.1896200  123.6982000   -11.6875100  113.2812000    -1.6421850 -142.7821000   -13.7352600  112.1961000 
 		     -11.6428400  114.7956000   -16.7758700  121.2022000   -13.7961900  112.9394000    -1.6841850 -142.4663000
 		      -1.6659110 -142.7160000   -13.8828100  113.6591000   -15.1428900   94.3944900   -12.2846400  119.9265000
 		     -13.6816800  112.2320000    -1.6771070 -142.6298000   -12.3519600  119.2624000   -15.9388400   90.9169400
   51172690000   -15.9815200  125.0553000   -11.4374500  113.2630000    -1.6618530 -143.4266000   -13.6891100  112.2309000 
 		     -11.4970700  112.2695000   -15.0462200  116.3429000   -13.8480100  113.1432000    -1.6464990 -142.3970000
 		      -1.6913010 -143.2709000   -14.2098000  111.6312000   -15.5001900   90.7176300   -12.3758400  120.3451000
 		     -13.4986700  111.2659000    -1.7012790 -142.1068000   -12.4121200  119.8968000   -15.9732100   90.7976600
   51242680000   -16.3004900  122.6395000   -11.8009900  113.7240000    -1.6219150 -143.1313000   -13.5379800  111.6006000 
 		     -11.7100700  112.5317000   -16.4928900  116.6748000   -13.7877100  113.2593000    -1.6215230 -142.9144000
 		      -1.6319140 -143.3755000   -14.1628900  112.8498000   -15.8870200   92.9931000   -12.2320900  119.6634000
 		     -13.7241200  111.5613000    -1.6045850 -143.0191000   -12.2247900  119.7164000   -15.5666500   93.9136000
   51312670000   -16.1923400  122.9137000   -11.7333600  114.5505000    -1.6805480 -143.5525000   -13.5334300  110.9249000 
 		     -11.6586400  112.6240000   -16.2976500  118.3518000   -13.8188700  112.3002000    -1.6186770 -142.9515000
 		      -1.6886120 -143.3564000   -13.9783200  112.8477000   -15.3378500   93.0078400   -12.2619000  119.0366000
 		     -13.5323300  110.5310000    -1.6164540 -143.0551000   -12.2419100  118.5107000   -15.9185400   92.0325200
   51382660000   -15.9296400  123.4582000   -11.2741100  112.8066000    -1.6582720 -143.8183000   -13.6530600  111.5918000 
 		     -11.5096700  112.5468000   -15.8635500  118.3452000   -13.7588600  112.8153000    -1.6188560 -142.8246000
 		      -1.6678600 -143.6103000   -13.9563700  114.6029000   -15.4352800   90.8837800   -12.2946500  119.4511000
 		     -13.4996100  112.2674000    -1.5870010 -142.7672000   -12.2034100  119.6942000   -16.2287500   89.7554600
   51452650000   -16.1679900  120.4393000   -11.5863600  111.5447000    -1.6280310 -143.7038000   -13.6266900  110.1886000 
 		     -11.6681100  111.4780000   -15.5474600  117.9637000   -13.7957300  111.2685000    -1.6792270 -143.1102000
 		      -1.6157990 -144.0564000   -13.8806300  109.9231000   -15.7591800   93.9783800   -12.2167100  117.8613000
 		     -13.7735600  109.3192000    -1.6729810 -143.5271000   -12.1893400  118.5960000   -15.2057600   92.4720000
   51522640000   -16.2538300  121.6951000   -11.1385900  112.7944000    -1.6769760 -143.8175000   -13.6400100  110.2163000 
 		     -11.5434000  111.9384000   -16.0615900  118.1487000   -13.7327200  112.3986000    -1.5955350 -143.3323000
 		      -1.6537650 -143.8263000   -13.7887500  112.0060000   -15.5389500   90.7221300   -12.1535000  119.2110000
 		     -13.5921700  109.8709000    -1.6517870 -142.9723000   -12.2367200  118.8108000   -15.6918000   91.1696200
   51592630000   -15.4844700  120.4007000   -11.7355500  112.6743000    -1.7248170 -144.1265000   -13.5514700  110.0753000 
 		     -11.5603500  112.8238000   -16.5718300  120.7853000   -13.8324800  111.9790000    -1.6339890 -143.5672000
 		      -1.7515660 -143.9518000   -14.4688200  112.5526000   -15.2168800   90.5425500   -12.2012400  118.4406000
 		     -13.5995800  109.5623000    -1.6456120 -143.3898000   -12.1925500  118.3902000   -16.0486600   93.0642400
   51662620000   -16.1461600  121.9614000   -11.4169700  111.3764000    -1.7020750 -144.4520000   -13.5579300  110.0496000 
 		     -11.5560800  111.8800000   -16.7055500  118.5226000   -13.7536400  110.9724000    -1.6532420 -143.9846000
 		      -1.6993210 -144.5387000   -13.8454500  110.7272000   -15.5632900   92.0415900   -12.1082700  118.1052000
 		     -13.6158500  110.5462000    -1.6691050 -144.6511000   -12.1284200  118.3087000   -15.6990100   91.5635600
   51732610000   -16.9693600  123.9368000   -11.8014600  112.5080000    -1.6734720 -144.6629000   -13.4849200  109.6936000 
 		     -11.6499900  111.9314000   -16.4263500  118.7473000   -13.8987800  111.6721000    -1.6447770 -144.3935000
 		      -1.6576340 -144.6174000   -13.7291700  111.7345000   -15.4770100   91.9874600   -11.9867000  117.2110000
 		     -13.4524700  110.0845000    -1.7140340 -144.0372000   -12.0046400  117.6558000   -15.1885500   95.0623600
   51802600000   -15.6661700  121.0053000   -11.5692200  111.1195000    -1.6622840 -144.5400000   -13.6155800  109.6438000 
 		     -11.3010100  114.0481000   -15.3919000  116.3517000   -13.8067800  111.3925000    -1.6676830 -143.9407000
 		      -1.6624990 -144.8522000   -14.0961600  111.0566000   -15.2872300   89.7896000   -12.1494600  118.1224000
 		     -13.5743000  109.9035000    -1.6984880 -144.4221000   -12.1280800  118.1284000   -15.6561400   91.9247400
   51872590000   -15.9542800  121.9175000   -11.4245200  110.7963000    -1.6704490 -144.9274000   -13.7973800  109.3700000 
 		     -11.3624500  112.4160000   -15.8543800  122.5897000   -13.6951700  111.1670000    -1.7329390 -144.1604000
 		      -1.7002050 -145.2014000   -13.8469300  112.6245000   -15.4454700   92.9754000   -12.2131600  117.9199000
 		     -13.6074400  108.7770000    -1.7305970 -144.6631000   -12.2111900  118.0369000   -15.1042600   88.2235300
   51942580000   -15.7558000  119.3823000   -11.6168100  111.5704000    -1.6707920 -145.0578000   -13.5091500  109.4215000 
 		     -11.4451600  112.5620000   -16.2103700  119.8322000   -13.6809900  110.5338000    -1.6878770 -144.4058000
 		      -1.7315670 -145.0886000   -13.7997600  110.8902000   -15.5937600   90.2827200   -11.9714900  118.3772000
 		     -13.3859000  107.8962000    -1.7235360 -144.5884000   -11.9328300  118.0029000   -15.8216800   92.3427400
   52012570000   -15.7906900  121.8320000   -11.3821800  112.3392000    -1.6876440 -145.2391000   -13.4911600  108.4046000 
 		     -11.3360100  112.5340000   -16.5591400  116.9423000   -13.7155100  110.9257000    -1.6561490 -144.8081000
 		      -1.7191610 -145.0792000   -13.6979200  112.2177000   -15.3169900   89.6537100   -12.0243100  117.7962000
 		     -13.5578100  108.6619000    -1.7135590 -144.9087000   -11.9994800  117.0596000   -15.9411900   93.3102900
   52082560000   -16.1035800  118.3679000   -11.7534100  112.1840000    -1.7138730 -145.7344000   -13.6189500  109.8568000 
 		     -11.3927700  112.5621000   -17.2090700  114.7922000   -13.7251600  110.8790000    -1.7028120 -144.5721000
 		      -1.6791370 -145.4869000   -13.7264400  108.8968000   -15.2997400   91.5993000   -12.0419700  118.2843000
 		     -13.7941300  108.9411000    -1.7520490 -144.6276000   -11.9877400  117.6645000   -16.0655300   90.1072300
   52152550000   -16.2485700  120.4453000   -11.2339700  110.6953000    -1.6848270 -145.6709000   -13.3349600  108.3946000 
 		     -11.3104000  110.8152000   -17.4239500  114.1388000   -13.7250700  110.5764000    -1.6415540 -144.9598000
 		      -1.6669410 -145.6330000   -13.5607000  109.3551000   -15.5623400   91.0681700   -11.7935200  117.5222000
 		     -13.2567900  109.0109000    -1.6115850 -144.9904000   -11.8875900  117.7098000   -16.0695500   91.1517400
   52222540000   -15.7478900  117.8008000   -11.0387400  110.5528000    -1.7157680 -145.6751000   -13.5894000  108.2902000 
 		     -11.1852600  111.0302000   -16.4642600  114.8660000   -13.6182400  110.1339000    -1.6964860 -145.5474000
 		      -1.7345380 -145.6268000   -13.7831400  110.3134000   -15.3872400   87.3195500   -11.9788600  117.7181000
 		     -13.7235100  107.7346000    -1.6700850 -145.3361000   -12.0139600  117.8322000   -16.0422700   89.7258600
   52292530000   -16.2006400  119.5215000   -11.4238300  112.2300000    -1.7285220 -145.8674000   -13.6146800  107.7961000 
 		     -11.3675200  110.5702000   -15.9531800  119.6164000   -13.6553500  109.9530000    -1.7031910 -145.2772000
 		      -1.7258920 -146.0077000   -13.8801100  109.8536000   -15.4688100   91.5298200   -12.0124100  117.0361000
 		     -13.6992700  108.0302000    -1.7118180 -145.3489000   -12.0462700  117.1597000   -15.4522000   90.1097100
   52362520000   -16.0256800  121.4703000   -11.3522800  110.6350000    -1.6714740 -146.3538000   -13.3589800  108.2694000 
 		     -11.1183900  110.3371000   -16.4793500  116.3669000   -13.6281400  108.1778000    -1.6895000 -145.7104000
 		      -1.6993160 -146.1076000   -13.6282300  109.1053000   -15.3105400   91.8006100   -11.8561500  117.3597000
 		     -13.4467600  107.3486000    -1.7042730 -144.9134000   -11.8227600  117.1109000   -16.3322400   86.5233800
   52432510000   -16.3076500  120.8872000   -11.0431300  111.0820000    -1.6812500 -146.2128000   -13.5150100  108.4969000 
 		     -11.0976900  110.8655000   -17.3914700  121.8366000   -13.5312100  109.0485000    -1.6639060 -145.9182000
 		      -1.7177770 -146.1422000   -13.6199900  108.8443000   -15.3986300   88.2054400   -11.9651800  117.0901000
 		     -13.4820500  108.4529000    -1.6987990 -145.9301000   -11.9206900  117.0512000   -16.2190500   88.9685600
   52502500000   -16.0689100  119.3262000   -11.0734700  111.1019000    -1.7080220 -146.3935000   -13.6171100  106.7505000 
 		     -11.1148700  110.6190000   -16.1991400  120.7268000   -13.5177100  110.0343000    -1.6865840 -146.0727000
 		      -1.7049130 -146.5577000   -13.9089500  108.6214000   -15.1635000   90.0311700   -11.9070400  116.4810000
 		     -13.6638800  106.9560000    -1.6289060 -146.1314000   -11.9394200  116.6822000   -15.2191500   88.7669100
   52572490000   -15.7587500  122.0214000   -11.2741400  110.7059000    -1.7091110 -146.5609000   -13.6468500  106.9718000 
 		     -11.2619300  111.2875000   -15.7398600  112.1286000   -13.7266800  109.5229000    -1.7192540 -145.9538000
 		      -1.6995620 -146.8886000   -13.7192300  109.9205000   -14.9609100   89.8165200   -11.9307100  116.7950000
 		     -13.6846900  106.5918000    -1.6965690 -146.3255000   -12.0484400  116.5374000   -15.2704000   81.8854900
   52642480000   -15.7831900  118.6931000   -11.2207500  108.6543000    -1.6828320 -146.9648000   -13.5550600  107.0049000 
 		     -11.2552900  108.6834000   -15.7121200  114.1069000   -13.6667100  107.6753000    -1.6597440 -146.4762000
 		      -1.7196410 -146.7149000   -13.8446100  110.0109000   -15.5404700   87.1215900   -11.8023100  116.3871000
 		     -13.5339200  107.4826000    -1.6921120 -146.1217000   -11.9118500  116.5482000   -15.9075800   89.4632700
   52712470000   -16.2327000  117.9119000   -11.1839900  111.4036000    -1.7198930 -147.1113000   -13.6501800  107.9304000 
 		     -11.1891300  110.2666000   -15.2679400  112.4360000   -13.7217600  108.0721000    -1.7101470 -146.5102000
 		      -1.7358790 -147.1148000   -13.6479300  107.0703000   -15.2434400   89.2787400   -11.9050800  116.9898000
 		     -13.6090400  107.7847000    -1.6334780 -146.2177000   -11.8950900  117.0238000   -15.3528400   85.1230600
   52782460000   -15.6418600  120.4234000   -11.3958400  109.5530000    -1.7720970 -147.3724000   -13.4506100  107.2411000 
 		     -11.0440800  110.6290000   -16.2866800  114.4569000   -13.7428700  108.7784000    -1.6873840 -146.5909000
 		      -1.7248880 -147.7980000   -13.6293900  108.4442000   -14.8251800   88.7548400   -11.8593000  115.9904000
 		     -13.4605700  106.7391000    -1.6785930 -147.1041000   -11.8352000  116.7181000   -16.1899400   82.6845500
   52852450000   -15.6704800  118.4375000   -11.2371800  108.8872000    -1.7215590 -147.2634000   -13.4795200  106.9207000 
 		     -11.1306000  108.7776000   -16.0240400  115.3055000   -13.6936200  107.0689000    -1.7219340 -146.8286000
 		      -1.7468010 -147.1937000   -13.8514900  107.3488000   -15.6478200   87.4513800   -11.7301400  115.7657000
 		     -13.3425400  107.1901000    -1.7629680 -146.8971000   -11.8425500  116.2123000   -15.8461300   91.3918200
   52922440000   -15.9509000  113.8876000   -11.0835000  110.1278000    -1.7536790 -147.5242000   -13.4492600  106.7132000 
 		     -11.1381000  109.6494000   -16.0463100  115.8324000   -13.6686400  108.2860000    -1.7161750 -147.2761000
 		      -1.7053220 -147.6301000   -13.6933300  108.6273000   -15.3591000   85.9036400   -11.8108500  116.6208000
 		     -13.4708100  106.7307000    -1.7017280 -146.9366000   -11.8990900  116.8337000   -15.4791300   88.1996200
   52992430000   -16.0086500  122.0470000   -11.2331000  108.7321000    -1.7322480 -147.7095000   -13.2869200  105.8696000 
 		     -11.0332400  110.1098000   -16.2462600  119.1201000   -13.6808000  107.6166000    -1.7042360 -147.4545000
 		      -1.7643230 -147.9527000   -13.7446700  107.1020000   -15.0667200   87.7359000   -11.7458400  115.3339000
 		     -13.2568600  106.1796000    -1.7433110 -147.3659000   -11.7563100  114.9835000   -15.7008900   87.2973900
   53062420000   -15.8184900  119.3519000   -10.9414100  109.0135000    -1.7406230 -147.9913000   -13.3568700  105.1972000 
 		     -11.2355900  109.1030000   -16.4961200  116.0714000   -13.6874600  106.9357000    -1.7389190 -147.7018000
 		      -1.7460690 -147.6114000   -13.6401500  106.0359000   -15.6830200   86.2866600   -11.7241200  115.7004000
 		     -13.4127800  106.4093000    -1.6506130 -147.5371000   -11.7833600  115.0285000   -15.2166500   91.1198700
   53132410000   -16.1951500  119.4444000   -11.3871900  111.9154000    -1.7767990 -147.8260000   -13.3579400  106.0596000 
 		     -10.9872900  108.8119000   -16.3429300  116.8626000   -13.3852500  107.4616000    -1.7636510 -147.3852000
 		      -1.8001270 -147.6053000   -13.4701500  106.5265000   -15.1861000   89.5190000   -11.7596900  115.5637000
 		     -13.2930500  106.2407000    -1.8239530 -147.5759000   -11.6886600  115.4747000   -15.6489300   87.1269000
   53202400000   -15.7406400  118.5644000   -11.2354900  109.2675000    -1.7466890 -148.3925000   -13.5257200  104.8133000 
 		     -11.2566400  110.6677000   -15.4802000  111.4307000   -13.6218500  107.6111000    -1.7095130 -147.8240000
 		      -1.7318390 -148.3206000   -13.6183400  109.0097000   -15.0994700   88.3261700   -11.8014900  114.9872000
 		     -13.7081900  103.7865000    -1.7128740 -148.2269000   -11.8308300  114.7695000   -15.3857200   85.3413900
   53272390000   -15.8861600  120.3494000   -10.8873100  109.0385000    -1.7163270 -148.5165000   -13.5228300  103.9799000 
 		     -11.1444700  109.1257000   -16.2540700  116.2646000   -13.5310100  106.8292000    -1.8315280 -148.1380000
 		      -1.7116690 -148.0873000   -13.4734300  107.1568000   -15.5976400   87.2313500   -11.7245200  115.4777000
 		     -13.4942700  104.3810000    -1.9087330 -147.8985000   -11.6853400  115.0628000   -15.2916500   86.6212500
   53342380000   -16.3141000  119.1135000   -11.0673300  109.7264000    -1.7711810 -148.7114000   -13.3969100  105.5618000 
 		     -11.0518500  108.7816000   -15.8930900  108.0028000   -13.6183600  106.3468000    -1.7287110 -148.0151000
 		      -1.7167060 -148.4867000   -13.6142600  105.8866000   -15.3441300   89.5864400   -11.6896000  115.2309000
 		     -13.5664900  105.9310000    -1.7408700 -148.3157000   -11.7029400  115.0159000   -15.3191900   84.5578800
   53412370000   -16.1664300  118.6655000   -11.3490700  111.7023000    -1.7554430 -148.9862000   -13.3517200  104.6422000 
 		     -10.9983300  110.0989000   -16.7564400  114.5295000   -13.6793100  107.4782000    -1.8080540 -148.3014000
 		      -1.7733920 -148.7360000   -13.7491200  108.2988000   -15.1796500   86.7904000   -11.6920500  114.4542000
 		     -13.5533500  105.1154000    -1.7611400 -148.6817000   -11.6979300  114.9782000   -15.4831700   86.4687700
   53482360000   -15.9027100  115.7337000   -10.9624400  108.0382000    -1.7509520 -149.2267000   -13.3767000  104.2484000 
 		     -10.9934600  107.7221000   -16.2817600  116.9445000   -13.5187000  106.0453000    -1.7540660 -148.1194000
 		      -1.7610100 -149.2471000   -13.6066300  104.1864000   -15.4674800   85.3831900   -11.6418200  114.7855000
 		     -13.5752300  103.6562000    -1.7313950 -148.7441000   -11.6857300  114.9872000   -15.7644700   86.6538200
   53552350000   -15.8997600  113.1941000   -11.0856500  107.0258000    -1.7675390 -149.1361000   -13.4381300  104.0988000 
 		     -10.9316600  108.2020000   -16.1485500  115.0844000   -13.6545700  105.9762000    -1.7724760 -148.4481000
 		      -1.7517860 -149.1409000   -13.6544400  106.3282000   -15.2182100   87.4716300   -11.6792500  114.3415000
 		     -13.4074200  103.7088000    -1.6868270 -148.0437000   -11.6754100  114.6071000   -15.5350600   88.0494800
   53622340000   -16.5301200  116.9134000   -10.7723900  110.0536000    -1.7059770 -149.3635000   -13.4968700  102.4397000 
 		     -10.9138400  108.2451000   -15.5616400  117.4761000   -13.8254400  106.5396000    -1.7271020 -148.9665000
 		      -1.7797180 -149.3940000   -13.7505200  104.5221000   -15.1655600   84.3063200   -11.8127300  114.1203000
 		     -13.5846600  101.5979000    -1.6586450 -148.7668000   -11.7560600  113.7139000   -14.6929800   86.0986600
   53692330000   -15.6567600  120.2807000   -10.9676700  107.6149000    -1.7800070 -149.5881000   -13.4508100  103.1770000 
 		     -10.9132300  108.5678000   -15.6150400  118.1178000   -13.4427600  105.6121000    -1.8236770 -149.3681000
 		      -1.8317850 -149.1700000   -13.4938700  104.3703000   -15.6112400   86.2443900   -11.7455100  114.5620000
 		     -13.4222700  103.0047000    -1.7728110 -148.9733000   -11.7301400  114.4488000   -15.3489500   84.0895900
   53762320000   -15.6634500  117.9374000   -11.2143100  108.4348000    -1.7547220 -149.5797000   -13.3452300  103.2490000 
 		     -10.8772100  109.0287000   -15.4439100  109.9204000   -13.5074600  104.0858000    -1.7698440 -149.5362000
 		      -1.7918120 -149.7587000   -13.6759400  103.4108000   -15.0355400   87.9909800   -11.6892900  113.5979000
 		     -13.3805300  103.3862000    -1.7479750 -149.2158000   -11.5545600  113.3535000   -15.4165100   84.2363900
   53832310000   -16.4173000  118.4177000   -11.1756900  106.5995000    -1.7997950 -150.0787000   -13.3146700  103.3879000 
 		     -11.1284600  107.6119000   -16.4407300  115.7989000   -13.7149800  104.5045000    -1.8360400 -149.4740000
 		      -1.7953610 -150.1412000   -13.7757100  104.4519000   -15.1484100   83.1548300   -11.5606200  113.8815000
 		     -13.2024900  103.1784000    -1.7623550 -148.9654000   -11.6118600  113.4901000   -15.4946900   88.2079500
   53902300000   -15.7473000  116.3490000   -11.1624200  109.1639000    -1.7999400 -150.2112000   -13.4388700  102.8834000 
 		     -10.9044100  108.3351000   -15.9068500  111.6399000   -13.4395000  104.9871000    -1.7800080 -149.7106000
 		      -1.7584430 -150.2683000   -13.3027600  103.7200000   -15.3021500   85.3397500   -11.6211300  113.4541000
 		     -13.5284100  103.2852000    -1.7617020 -149.2850000   -11.5986500  113.3160000   -15.4025400   84.4968000
   53972290000   -16.1233800  114.7394000   -10.9357100  106.2154000    -1.7316530 -150.1772000   -13.3584100  102.7810000 
 		     -10.9557600  109.2242000   -17.3546300  111.7241000   -13.4188800  105.5885000    -1.7143590 -149.9133000
 		      -1.7443850 -150.3179000   -13.5328900  106.5759000   -14.8459900   87.6552800   -11.5189800  112.9782000
 		     -13.2753400  101.5609000    -1.7178950 -149.6871000   -11.5323600  112.8320000   -15.5033400   86.9856600
   54042280000   -16.1789500  115.7229000   -10.9819400  109.5229000    -1.7293850 -150.5060000   -13.4423000  102.4159000 
 		     -11.1201200  106.4089000   -16.2024300  111.8689000   -13.6690300  105.5329000    -1.7807520 -150.1581000
 		      -1.8248030 -150.3570000   -13.7084600  105.0129000   -15.3459100   83.6214400   -11.5111900  113.4101000
 		     -13.4958000  103.0155000    -1.7630220 -149.2789000   -11.4333900  113.5360000   -14.8992600   84.9139400
   54112270000   -16.0935900  117.2371000   -10.9411700  107.9121000    -1.7990240 -150.9884000   -13.2841800  102.7954000 
 		     -10.8847200  108.0669000   -15.8355800  107.2293000   -13.5564100  104.2917000    -1.7285840 -150.2785000
 		      -1.7617020 -151.1219000   -13.7216800  103.6007000   -15.4874700   87.9481600   -11.3907100  112.8888000
 		     -13.3084900  102.4366000    -1.6959980 -150.4661000   -11.3858600  112.6525000   -15.9718200   82.9620700
   54182260000   -16.0436600  111.0904000   -10.8204700  107.9848000    -1.7378830 -150.7079000   -13.3264400  101.1164000 
 		     -10.8765000  107.3747000   -16.1953800  113.2051000   -13.5370300  104.9351000    -1.7954780 -150.6603000
 		      -1.7219710 -150.7013000   -13.6212300  106.0025000   -14.7393100   86.4224900   -11.4753500  111.7736000
 		     -13.3917200  101.6465000    -1.7481690 -150.5969000   -11.5333800  112.4301000   -15.1539100   86.3646900
   54252250000   -15.8477300  117.8225000   -11.1314900  107.7252000    -1.7626210 -151.3320000   -13.2726900  101.3752000 
 		     -10.7624700  106.2986000   -15.7902300  111.1157000   -13.7222800  103.2819000    -1.7570790 -150.5479000
 		      -1.7546470 -151.2770000   -13.7107700  104.5283000   -15.2094700   81.6542100   -11.4897800  112.6080000
 		     -13.3548100  102.8666000    -1.7417930 -150.6308000   -11.4883300  112.5106000   -14.8482200   83.9036700
   54322240000   -15.8933700  116.1678000   -10.8641900  107.5019000    -1.8026650 -151.4147000   -13.1456500  102.4013000 
 		     -10.9285800  106.5547000   -16.8662800  108.6482000   -13.6555300  103.6572000    -1.7109810 -150.7438000
 		      -1.8188890 -151.1566000   -13.8968400  103.5021000   -15.4406900   87.2991900   -11.3007100  112.9975000
 		     -13.3149500  104.0745000    -1.7694780 -150.7486000   -11.2799100  112.6948000   -16.4997400   82.7874700
   54392230000   -16.3989700  112.4815000   -10.8893900  108.9085000    -1.7871990 -151.1656000   -13.3914400  101.2562000 
 		     -11.0565600  107.2729000   -16.1275600  118.1205000   -13.6374100  102.6774000    -1.7842170 -151.1673000
 		      -1.7585450 -151.3087000   -13.5136600  105.0589000   -14.9860100   86.6441000   -11.3558400  111.8659000
 		     -13.4831400  101.7652000    -1.7864570 -151.5348000   -11.3583200  112.7381000   -15.1232300   87.1246400
   54462220000   -16.0458300  117.0186000   -10.7477400  106.9814000    -1.8117250 -151.9233000   -13.2660000  100.2270000 
 		     -10.8787100  105.3871000   -15.0926700  115.0788000   -13.5583500  101.7339000    -1.8820220 -150.6664000
 		      -1.7717910 -152.1118000   -13.7051700  101.7986000   -14.9869800   83.5321400   -11.4035600  111.5637000
 		     -13.3381500  100.0715000    -1.9418850 -150.8981000   -11.4395300  111.9590000   -15.1101400   85.0526000
   54532210000   -15.6542400  117.1840000   -10.7961000  107.6712000    -1.7695540 -151.7406000   -13.2182600   99.5724500 
 		     -11.0461200  105.7972000   -15.4380400  111.6644000   -13.7106400  102.9250000    -1.8174840 -151.6067000
 		      -1.7632590 -151.7828000   -13.8211900  103.2431000   -15.4565000   86.0849300   -11.3929700  111.1514000
 		     -13.2401600   99.7647400    -1.9640980 -151.4406000   -11.4794500  111.2894000   -15.3341800   83.4978400
   54602200000   -15.7857100  113.6595000   -10.9314700  103.6926000    -1.7966070 -152.0121000   -13.3400200  100.1568000 
 		     -11.1206200  105.3100000   -15.9297200  112.9717000   -13.5723300  101.4142000    -1.7636270 -151.6680000
 		      -1.8128940 -151.6540000   -13.7773900  102.2014000   -14.8843700   82.7503000   -11.5106500  111.6867000
 		     -13.3376500  100.6990000    -1.6806350 -150.9013000   -11.5457400  111.4909000   -14.6514300   88.4248400
   54672190000   -15.9652900  114.9656000   -10.9753300  105.9538000    -1.8489500 -152.2768000   -13.2903800   99.5599100 
 		     -10.9716400  106.2877000   -16.2630300  113.1640000   -13.5148000  102.8780000    -1.7185430 -151.5677000
 		      -1.8613080 -152.0751000   -13.4757700  103.3491000   -15.1434300   83.0063400   -11.4603700  112.0370000
 		     -13.1234900  100.3881000    -1.6529550 -151.1968000   -11.4668100  112.0237000   -15.2125200   81.2165700
   54742180000   -15.3533000  113.4029000   -11.2290700  106.5683000    -1.8204180 -152.3639000   -13.1811700   99.5151300 
 		     -10.9448700  106.1666000   -16.0915200  106.6689000   -13.8633600  101.3219000    -1.8008440 -152.1193000
 		      -1.7907100 -152.2185000   -14.1740900   99.6579900   -15.3043600   84.0978000   -11.3190000  111.1988000
 		     -13.2986800   99.5280100    -1.7505790 -152.0273000   -11.4109800  111.0891000   -15.6955100   87.7753200
   54812170000   -16.2850000  112.6497000   -10.5198700  104.7398000    -1.8203560 -152.2930000   -13.2784500  100.9819000 
 		     -10.8597300  105.5426000   -16.4636300  109.5673000   -13.1972600  100.1647000    -1.7872940 -152.0795000
 		      -1.8843210 -152.4031000   -13.3177000  102.4637000   -15.0541500   84.0104300   -11.3671000  111.5220000
 		     -13.4222200  102.4155000    -1.7964920 -151.3067000   -11.3371300  112.3237000   -15.4900500   85.8766400
   54882160000   -15.7582600  119.6857000   -11.0243500  106.4247000    -1.8719050 -152.7270000   -13.0751800   99.2816200 
 		     -10.7091400  105.6118000   -16.1459400  119.1725000   -13.5411800  100.4920000    -1.8680380 -152.0132000
 		      -1.8728020 -152.6609000   -13.4679400  101.1222000   -14.8158500   83.5096800   -11.4004700  110.9679000
 		     -13.1670700   97.8725600    -1.8545550 -152.5937000   -11.3847000  110.9986000   -15.4053100   83.4007100
   54952150000   -15.6018200  115.4405000   -10.8758000  106.1470000    -1.8378720 -153.0938000   -13.2172700   98.7189500 
 		     -10.9889800  106.4475000   -15.5588500  110.4970000   -13.8164900  101.9327000    -1.8233980 -152.4560000
 		      -1.8718960 -153.1547000   -13.8690500  101.9693000   -15.1795400   82.6890600   -11.4135100  110.5599000
 		     -13.2047100   98.8917100    -1.8983920 -152.1011000   -11.4149700  110.5686000   -15.3693700   86.0861900
   55022140000   -15.8004000  114.0103000   -10.7855400  105.4609000    -1.8542340 -152.9108000   -12.9838300   98.1678100 
 		     -11.0831400  105.5554000   -16.4869900  113.4635000   -13.5877100  100.9402000    -1.8937360 -152.2905000
 		      -1.8289400 -152.8512000   -13.4904100  101.6706000   -14.9542300   86.0021300   -11.2033600  110.2454000
 		     -12.8326300   99.7236400    -1.8450470 -152.7309000   -11.2055500  110.5147000   -15.2237600   88.1562300
   55092130000   -14.7517500  115.8346000   -10.9555400  106.1902000    -1.9051630 -153.5121000   -13.1704900   99.3858900 
 		     -10.6214000  105.4798000   -15.6150300  103.9756000   -13.5849800  102.1272000    -1.7952510 -152.7131000
 		      -1.9634210 -153.3191000   -13.8060600  101.1321000   -14.6307200   80.7089700   -11.3934700  111.0089000
 		     -13.2380800   99.3840600    -1.8944100 -151.6930000   -11.3558800  111.1526000   -16.0512400   82.0828200
   55162120000   -15.2928400  115.9372000   -10.8510000  107.9727000    -1.8413590 -153.2923000   -13.3301600   97.1492200 
 		     -10.7356000  106.5943000   -16.1443600  110.3295000   -13.5966200  102.2237000    -1.8508080 -153.0273000
 		      -1.8217350 -153.1719000   -13.7824900  100.1477000   -15.0921600   84.5590500   -11.4532500  110.4967000
 		     -13.7754500   97.8767900    -1.8690550 -152.9974000   -11.4805200  109.7305000   -15.0255800   82.8770700
   55232110000   -15.6515900  114.1184000   -10.8208900  107.4650000    -1.8623130 -153.4594000   -13.2811100   97.4631000 
 		     -10.8297500  105.2275000   -14.5898800  113.3778000   -13.5098400  101.2956000    -1.8610000 -152.4606000
 		      -1.8590460 -153.5976000   -13.6049800   98.0780500   -14.8846700   83.4319500   -11.4167400  110.6293000
 		     -13.2815800   98.2904800    -1.9616170 -152.1082000   -11.4124300  110.2685000   -15.0896400   80.9330700
   55302100000   -15.8809400  112.7185000   -10.9493800  105.8288000    -1.8684790 -153.7687000   -13.3257800   97.8660400 
 		     -10.7681600  106.5083000   -17.1775700  111.7309000   -13.4041700  101.1540000    -1.8599210 -152.9759000
 		      -1.8657920 -154.1830000   -13.5416200  100.4676000   -14.5307300   81.6276400   -11.5419900  110.2743000
 		     -13.3594800   97.4880700    -1.8479370 -152.6320000   -11.4259800  110.2128000   -15.0581300   82.4577300
   55372090000   -15.4452100  113.7614000   -10.9168300  106.1473000    -1.8967380 -154.1652000   -13.2165300   97.3621500 
 		     -10.9215600  104.8438000   -16.9341500  104.4591000   -13.7150400  100.7098000    -1.7615350 -153.2704000
 		      -1.8501730 -153.8631000   -13.7178200  100.2567000   -15.1289600   83.2214300   -11.3818300  110.3475000
 		     -13.1986200   98.5203700    -1.8080340 -153.0347000   -11.4269600  110.0313000   -15.5783900   81.7513700
   55442080000   -15.5611700  111.9826000   -10.5108500  104.7192000    -1.8758990 -154.1680000   -13.4509900   99.4969000 
 		     -10.6919100  105.6789000   -15.7767100  109.5344000   -13.3892200  100.1126000    -1.8867310 -153.2140000
 		      -1.9263120 -153.7337000   -13.3083300   99.1924500   -14.9324800   82.5372100   -11.4476300  111.5835000
 		     -13.4630600   99.8820100    -1.8880570 -152.4992000   -11.4511800  111.1705000   -15.6606900   76.9694600
   55512070000   -15.2046400  114.0791000   -10.3079700  105.3787000    -1.9034980 -154.1395000   -13.4004900   97.4082000 
 		     -10.6493200  104.7306000   -15.8788100  113.4479000   -13.1617000   99.5842800    -1.9062670 -152.8350000
 		      -1.9317370 -154.0390000   -13.0570800   97.9255400   -14.5584000   80.2214600   -11.3605700  110.2265000
 		     -13.3909500   97.4003400    -1.8908390 -153.1713000   -11.4280900  110.0740000   -15.1159000   81.9367100
   55582060000   -16.0235400  110.8123000   -11.1015700  105.0906000    -1.8766730 -154.5617000   -13.3170000   97.6369400 
 		     -10.8791500  106.3605000   -15.4505900  104.2219000   -13.5107800   99.6187600    -1.7819690 -153.8242000
 		      -1.9216240 -154.4401000   -13.8659500  102.0829000   -15.1712300   83.8378100   -11.3584300  109.9986000
 		     -13.2224100   96.6189300    -1.8519390 -153.9639000   -11.3236100  109.7286000   -15.1819400   77.9287300
   55652050000   -15.5211400  110.4538000   -10.8800700  104.5111000    -1.9010550 -154.3632000   -13.0228100   98.0052700 
 		     -10.7953800  104.0856000   -15.9255200  110.7364000   -13.5017400   97.8216500    -1.8805910 -153.9651000
 		      -1.8018740 -153.9842000   -13.4395000  100.8858000   -14.9166500   81.3913000   -11.1255000  109.8756000
 		     -13.0652800   97.5240800    -1.9785090 -154.2327000   -11.1686100  110.0707000   -15.4629900   84.4633900
   55722040000   -15.8722200  110.3400000   -10.9909600  105.6209000    -1.8659410 -154.9715000   -13.2811600   97.7420600 
 		     -10.6629200  104.3479000   -16.3358500  106.3378000   -13.4958100  100.8009000    -1.7989260 -154.1500000
 		      -1.8570750 -154.8791000   -13.5795600   99.7626000   -14.3927400   80.2888300   -11.3429500  109.5610000
 		     -13.3905200   97.0616200    -1.7676500 -153.3821000   -11.3254800  109.4991000   -14.9793300   82.0309600
   55792030000   -15.1716200  113.2273000   -11.0541100  104.0654000    -1.9068820 -154.9232000   -13.2968700   97.2396500 
 		     -10.8219200  104.6937000   -16.5201800  110.1559000   -13.6461900   99.0827800    -1.8699670 -154.2469000
 		      -1.9629080 -154.9258000   -13.5094500   98.9567300   -14.7686600   82.4513900   -11.4358500  109.8912000
 		     -13.3783300   96.3963800    -2.0214920 -153.9178000   -11.3324400  109.9380000   -15.5655000   77.7121400
   55862020000   -15.5473200  114.1515000   -10.6589500  102.6544000    -1.8608280 -155.2292000   -13.2201700   95.9802900 
 		     -10.5014600  102.6578000   -15.2418900  109.2829000   -13.4043000   98.2752600    -1.8678330 -154.3554000
 		      -1.8754970 -155.1461000   -13.5845100   97.6504000   -14.6443900   81.3482700   -11.3077500  108.9901000
 		     -13.2752000   96.4788900    -1.8908950 -154.9095000   -11.2618100  108.3461000   -14.9608700   82.2648100
   55932010000   -16.2067800  107.1626000   -10.4364700  105.2895000    -1.9148530 -154.8708000   -13.3437600   97.8973500 
 		     -10.5815500  103.2370000   -14.6543800  111.1682000   -13.3202800   98.7653100    -1.8873630 -154.4349000
 		      -1.8514880 -154.9169000   -13.2319700   97.7110500   -14.9643700   78.4817300   -11.1344300  109.6189000
 		     -13.1546600   97.8264900    -1.8997720 -153.6698000   -11.2255000  109.7009000   -15.1690000   80.6860800
   56002000000   -15.7378700  113.6324000   -10.6912300  104.4043000    -1.9041580 -155.6182000   -13.2335800   96.6080200 
 		     -10.8152800  105.9466000   -16.9383200  103.6835000   -13.5756500  101.6561000    -1.9552030 -154.5165000
 		      -1.9308850 -155.5215000   -14.1656000  100.8901000   -14.8001500   81.3237800   -11.2098200  109.1299000
 		     -13.6094800   96.0753900    -1.7747200 -154.3932000   -11.3015600  109.1393000   -15.3461000   78.9631000
   56071990000   -15.5343800  109.0673000   -10.6311100  103.9519000    -1.8743930 -155.5788000   -13.2040700   95.8862100 
 		     -10.5413200  103.7065000   -15.9583700  107.3656000   -13.7529900   98.9315700    -1.8334190 -155.0534000
 		      -1.8557290 -155.3072000   -13.4979800   99.9388400   -14.8840300   80.6400100   -11.1983100  109.1406000
 		     -13.2600500   96.2180100    -1.7767440 -154.1350000   -11.2272300  108.6239000   -14.8014900   81.2078700
   56141980000   -16.2074500  110.7186000   -10.6732400  104.4904000    -1.8966230 -155.8197000   -13.2933000   97.3828500 
 		     -10.4083900  103.8553000   -16.7043800  107.1244000   -13.3159700   99.4803800    -1.8171860 -155.3504000
 		      -1.9483900 -155.8704000   -13.8065600   99.8433900   -14.7548900   79.7425100   -11.2529400  109.7535000
 		     -13.4837800   96.9956900    -1.6747360 -155.1820000   -11.2435100  109.4501000   -15.2543600   77.1547000
   56211970000   -15.7798600  113.2213000   -10.6240600  103.4932000    -1.9062330 -155.9427000   -13.1818200   95.4532100 
 		     -10.3748300  103.3839000   -15.8282100  107.8742000   -13.4111500   97.5137400    -1.8017190 -154.7485000
 		      -1.9396900 -155.6611000   -13.5435600   99.8020900   -14.6059100   81.6969200   -11.2902400  108.5933000
 		     -13.3477200   97.2208400    -1.7672460 -155.1791000   -11.2606500  108.4670000   -15.0860000   80.7320800
   56281960000   -15.6028000  112.8997000   -10.8780700  105.0750000    -1.8905650 -156.1238000   -12.9565600   94.3895300 
 		     -10.8082700  105.0638000   -15.6439900  109.4059000   -13.8463500   98.6204300    -1.9134970 -155.6435000
 		      -1.9475070 -155.9826000   -13.8855700   98.0555300   -14.8139000   80.2390600   -11.2011400  107.8968000
 		     -13.1994500   93.9795800    -1.7938880 -154.8928000   -11.1735200  107.6862000   -14.6864700   84.9984700
   56351950000   -15.5379200  113.4305000   -10.5207600  103.6364000    -1.8928490 -156.4431000   -13.0466900   95.4758600 
 		     -10.4457900  104.2043000   -15.9506700  103.1482000   -13.4280100   99.5846600    -1.9147260 -155.6758000
 		      -1.8538180 -156.3852000   -13.7735500  100.0261000   -14.7822100   78.9105400   -11.2487000  109.1989000
 		     -13.2165900   95.8229500    -1.9418040 -155.4378000   -11.1095100  109.4114000   -15.0379300   79.4385500
   56421940000   -16.0167900  109.7593000   -10.3750300  104.1946000    -1.9178610 -156.5754000   -13.2208000   96.3590800 
 		     -10.3270800  104.6660000   -15.6149800  104.6763000   -13.3556900   97.1122900    -1.8752850 -155.7401000
 		      -1.9398980 -156.6994000   -14.2122900   97.2664100   -14.8403700   79.5783000   -11.2004800  108.8732000
 		     -13.3280000   97.1964300    -1.9328320 -155.4067000   -11.2264700  108.6936000   -15.5198500   77.6863300
   56491930000   -16.0006200  112.4133000   -10.6145800  104.9014000    -1.9484610 -156.4255000   -13.0024800   94.2548600 
 		     -10.7591100  103.9827000   -17.0644500  101.4574000   -13.5768400   99.8518500    -1.8656560 -156.0015000
 		      -1.9341800 -156.9499000   -13.7211300   99.1637600   -14.8802700   80.5291400   -11.0512100  107.5122000
 		     -13.0197800   95.7185700    -1.9824580 -156.2166000   -11.0617000  107.7594000   -15.1363100   81.4128500
   56561920000   -16.1848000  110.6912000   -10.6327100  102.0893000    -1.9259170 -156.7039000   -13.1278800   95.7664500 
 		     -10.5222100  104.0754000   -14.8612600  109.1672000   -13.3880700   98.0044500    -1.8592700 -156.4044000
 		      -1.9024640 -157.0377000   -13.2910000   97.0139900   -15.1663200   76.5947600   -11.1904400  108.4380000
 		     -13.1864200   96.5962800    -1.8585540 -155.7160000   -11.0125100  108.6219000   -15.1590400   79.3252300
   56631910000   -16.3247900  111.2535000   -10.4586900  103.6724000    -1.9310580 -156.5198000   -13.1441300   94.8904600 
 		     -10.5362600  103.2216000   -16.1347800  106.3249000   -13.2501100   98.1728400    -1.9041930 -156.5039000
 		      -1.9322960 -156.5879000   -13.4767900   99.3617000   -15.0049200   79.8780400   -11.1575200  108.0752000
 		     -13.2567400   94.2913200    -1.8831460 -157.2880000   -11.1564700  107.5830000   -14.6788900   79.2378100
   56701900000   -15.7083900  108.8804000   -10.1735300  103.3723000    -1.9447470 -157.1694000   -13.4364000   95.6174600 
 		     -10.4733800  103.8640000   -15.2311300  105.2837000   -13.3250900   97.3839600    -1.8719940 -156.4944000
 		      -1.9042930 -157.0420000   -13.2250400   98.2438300   -14.8309100   78.0030900   -11.1942400  108.6551000
 		     -13.4208300   94.7889000    -1.9034740 -156.5050000   -11.1511100  108.3615000   -15.4270000   74.8769500
   56771890000   -16.4083500  109.2671000   -10.0913200  105.0062000    -1.8962120 -157.3251000   -12.9532700   95.2258000 
 		     -10.4929700  102.4739000   -15.5476400  104.5579000   -13.1959600   97.3393900    -1.8341500 -156.5514000
 		      -1.9362860 -157.5965000   -13.4472100   95.0425000   -15.0307200   77.4342600   -10.9409600  108.0492000
 		     -13.0770600   94.3237200    -1.9700250 -157.1651000   -10.9070300  108.5209000   -15.7222300   81.2141000
   56841880000   -16.0503300  112.0514000   -10.5214500  103.2741000    -1.9141640 -157.6371000   -12.9750700   94.1838500 
 		     -10.5266000  101.4667000   -15.9832600  105.0422000   -13.6762100   96.6907700    -1.8190310 -156.8012000
 		      -2.0073570 -157.2872000   -13.9280400   96.8339800   -14.4542400   79.1672700   -11.1067600  108.3316000
 		     -13.0532900   93.1483100    -1.7745200 -157.0874000   -11.1113600  107.4961000   -14.9421200   78.0130500
   56911870000   -15.0661700  112.7184000   -10.5241500  104.0583000    -1.9478370 -157.9156000   -12.9111300   94.9797100 
 		     -10.4756500  102.9773000   -17.2580200   97.6328700   -13.8391800   97.7889500    -1.8036620 -157.1557000
 		      -1.9368230 -158.1119000   -14.0840300   98.5927800   -14.5574700   78.2580300   -10.9965700  107.7901000
 		     -12.9402600   95.2649200    -1.7956760 -157.4584000   -11.0588200  107.6627000   -16.3952300   76.1314200
   56981860000   -15.8743800  105.9840000   -10.6521400  102.8649000    -1.8982610 -157.3876000   -13.1591700   94.6508900 
 		     -10.4164500  102.8460000   -16.2703200  106.7210000   -13.4247400   96.3087300    -1.8889370 -157.6191000
 		      -1.9068250 -157.5419000   -13.1723500   93.9804500   -14.8103600   78.9830500   -11.0854000  107.6288000
 		     -13.1770800   94.4061700    -1.8212210 -156.7025000   -11.0918000  108.0049000   -15.1838500   79.5912900
   57051850000   -15.7586700  109.9955000   -10.8464400  100.1686000    -1.9130260 -157.8622000   -13.1599100   93.2994600 
 		     -10.4516600  102.3708000   -16.0335200  107.9858000   -13.0387600   97.0140200    -1.8507220 -157.4991000
 		      -1.8796660 -157.8168000   -13.0009200   95.8525700   -14.8948200   78.2726700   -10.9643800  107.2590000
 		     -13.2003100   93.0466700    -1.8933960 -157.3099000   -10.9751300  106.9401000   -15.0355100   75.8057100
   57121840000   -15.2998300  113.0248000   -10.6775400  103.1419000    -1.9420870 -158.6062000   -13.1418400   92.6159900 
 		     -10.7140000  102.0040000   -15.7713500  106.0908000   -13.5724400   97.1534100    -1.8937110 -157.7570000
 		      -1.8964500 -158.6113000   -13.5550000   96.0537300   -14.7178000   77.8273100   -11.0518800  106.8849000
 		     -13.2617200   93.6346600    -2.0327930 -157.1805000   -11.0581200  106.3693000   -15.3670200   76.2919800
   57191830000   -15.9625800  107.9599000   -10.4348300  101.2185000    -1.9230770 -158.3756000   -13.0151800   93.7001100 
 		     -10.4957600  101.1030000   -16.2513700  101.2427000   -13.4869600   94.6601600    -1.8632020 -158.4481000
 		      -1.8628850 -158.4500000   -13.5627100   96.6859000   -14.5551600   78.9240900   -10.8667600  106.4992000
 		     -13.1050800   94.3993800    -2.0060280 -158.3366000   -10.9305200  106.5902000   -15.4259000   79.9129100
   57261820000   -15.9313800  107.4784000    -9.9990590  100.9211000    -1.8751490 -158.8504000   -13.0543300   91.5900000 
 		     -10.5028100  100.8295000   -15.9161100  109.2085000   -13.5562700   98.0026600    -1.8519790 -158.1710000
 		      -1.8535050 -159.2715000   -13.9125500   97.2668100   -14.8989400   73.4013600   -11.0468000  107.1638000
 		     -13.2464800   93.0408800    -1.9249590 -158.1965000   -11.0219500  106.8354000   -14.7597800   74.3472300
   57331810000   -15.5078000  111.4526000   -10.2930100  104.1140000    -1.9494080 -158.8035000   -12.8231300   91.2645500 
 		     -10.4375500  100.6432000   -15.0114000  118.2791000   -13.5565100   95.9587400    -1.9479760 -158.7686000
 		      -1.9948570 -158.5864000   -13.9508900   98.0045000   -15.0843200   76.1896800   -11.0726400  106.0216000
 		     -12.8853400   91.3756000    -1.9029130 -158.6414000   -11.0781100  105.7319000   -14.9442300   79.4965200
   57401800000   -15.9570000  110.4032000   -10.4645800  100.3095000    -1.9170660 -159.0638000   -12.9998400   92.7087600 
 		     -10.3580100   98.9374300   -15.1826700  100.0221000   -13.4835600   93.6740200    -1.9533880 -158.3020000
 		      -1.8699640 -158.8377000   -13.8345500   97.1789000   -14.8740700   79.4713700   -10.8635300  106.1837000
 		     -12.9568600   92.6028700    -1.8994380 -158.0275000   -10.9796600  106.2552000   -14.9005200   79.5097400
   57471790000   -16.3787000  112.9649000   -10.3329600  101.3676000    -1.9263140 -159.6177000   -12.7505600   90.2860000 
 		     -10.6605500  100.1371000   -16.6147100  110.8653000   -13.5341000   94.7763600    -1.9655750 -158.6939000
 		      -1.9162660 -159.8499000   -13.7421900   94.0245900   -15.1213600   75.8955200   -10.8608600  105.5729000
 		     -12.9003400   89.4565000    -1.8972940 -158.6135000   -10.8317700  105.2467000   -14.7450200   78.3910000
   57541780000   -16.1215800  108.1399000   -10.6389500  101.9165000    -1.9165340 -159.4116000   -12.9054400   91.7213200 
 		     -10.4632700  101.0889000   -16.5351800  114.1841000   -13.4127900   95.2396100    -1.9749520 -159.2986000
 		      -1.8803940 -159.7401000   -13.0848400   95.2721000   -15.1133300   79.0521700   -10.9249400  105.3145000
 		     -12.9051300   91.2508100    -1.9630190 -158.4756000   -10.9005200  105.6495000   -15.3138800   80.0818400
   57611770000   -15.8102400  108.4267000   -10.5952300  104.0618000    -1.9201610 -159.3261000   -13.0040300   91.3758700 
 		     -10.4520300  103.2549000   -16.0566400   95.5755800   -13.6367500   93.5177900    -1.8027000 -158.9762000
 		      -1.8968270 -159.3773000   -14.0199900   95.8015100   -14.7385400   77.3739900   -10.9424400  105.5292000
 		     -13.0644700   91.8429900    -1.8586440 -158.8112000   -10.9273400  104.9998000   -14.3261100   79.1496600
   57681760000   -16.3980600  114.2235000   -10.3106700  100.2661000    -1.9717460 -159.9210000   -13.0438600   89.9214900 
 		     -10.7559800  101.4517000   -16.5449100  108.2152000   -13.6722700   93.5002800    -1.8999460 -159.2960000
 		      -1.9033670 -159.8577000   -13.4487800   95.3472300   -15.0746200   75.0413200   -11.0956800  105.1688000
 		     -13.1159300   92.5007700    -1.9111390 -159.4678000   -11.0572500  104.8284000   -14.3094600   75.1728100
   57751750000   -15.2437300  108.1492000   -10.2435100   99.6921100    -2.0143980 -159.7129000   -13.0750400   90.3863500 
 		     -10.3008300  100.4571000   -16.0553900  108.8998000   -13.1646500   94.5200400    -2.0198750 -159.2346000
 		      -2.0156040 -159.7755000   -13.1273000   95.6190000   -14.9421000   76.6684600   -11.0055200  105.3729000
 		     -12.9052500   89.0456500    -2.0725230 -157.9097000   -10.9901200  105.0148000   -15.0867700   79.1905800
   57821740000   -15.6812500  100.6687000   -10.2955900   98.6116900    -1.9836780 -159.9314000   -13.2334300   90.3977900 
 		     -10.4984900  100.4540000   -16.0560000  107.1081000   -13.2371400   94.5844200    -1.9175170 -159.7106000
 		      -1.9131820 -159.6456000   -13.1897600   96.1892500   -14.7639900   74.1741500   -11.0359900  105.0636000
 		     -13.1931700   91.1127500    -1.7817320 -159.5626000   -11.1130300  104.9244000   -14.4206300   77.9962800
   57891730000   -15.7422700  110.3362000   -10.0739400   99.4118400    -1.9821420 -160.4229000   -13.1310600   89.9284700 
 		     -10.0730200  100.4217000   -16.5345700  108.6522000   -13.2084100   93.1230000    -1.9740670 -160.2017000
 		      -2.0378940 -159.7288000   -13.2860300   94.3519700   -14.8282600   77.5713300   -10.9609700  105.4996000
 		     -13.1040800   89.8617200    -1.9348050 -159.0414000   -10.9170300  105.0373000   -15.7003100   72.1639100
   57961720000   -15.6132100  105.5415000   -10.5413700   99.3758000    -1.9908230 -160.2330000   -12.8695500   89.7471400 
 		     -10.0169200   99.4841100   -16.7141500  109.5027000   -13.3262400   93.7389800    -2.0449400 -159.6810000
 		      -1.9217930 -160.0229000   -13.1999500   91.3719500   -14.8719700   76.8703500   -10.9517900  104.4214000
 		     -12.9518700   90.3329800    -1.9989810 -158.7893000   -10.9245700  104.0481000   -14.9093500   82.7587100
   58031710000   -16.3008300  103.2751000   -10.2914800  100.1653000    -1.9962820 -160.5961000   -13.1368700   90.4389000 
 		     -10.3454000   99.5505400   -15.6715900  110.4638000   -13.1242900   92.7467700    -1.9795620 -159.7867000
 		      -1.9657920 -160.2152000   -13.4841500   91.3106600   -14.6028800   76.3964600   -10.9430900  105.1308000
 		     -13.1815000   89.6854100    -2.1317120 -159.2071000   -10.9435300  104.5813000   -14.9660100   77.1397900
   58101700000   -15.9842300  109.2194000   -10.7889200  102.1489000    -1.9540270 -160.3984000   -13.2344700   89.3256300 
 		     -10.5496700  101.7530000   -16.1001000  111.0315000   -13.1768600   95.4318500    -2.0653870 -160.5999000
 		      -1.9785360 -160.4409000   -13.5612200   93.5225900   -14.4967600   77.8518700   -11.0113600  104.4155000
 		     -13.5774900   88.3444500    -2.0658130 -160.8539000   -11.1021100  104.2549000   -15.3304500   71.4692500
   58171690000   -15.0865900  106.5080000   -10.0865400  100.1651000    -1.9419470 -161.1113000   -13.3029900   90.6776600 
 		     -10.5023700  102.8669000   -14.8543000   98.1939400   -13.5507300   94.7683900    -1.9984210 -160.0271000
 		      -1.9642700 -160.5421000   -13.5361900   95.6579100   -14.6551000   77.8629200   -10.9975000  104.9896000
 		     -13.3249900   90.0091000    -2.0419210 -159.9946000   -10.9650400  105.1793000   -15.4334000   70.0474000
   58241680000   -15.4150400  104.2127000   -10.4663500  100.2171000    -2.0171430 -161.1976000   -12.8675500   87.9728600 
 		     -10.2279800  100.7982000   -15.8817900  111.6680000   -13.1344100   93.3690300    -2.0122180 -160.6698000
 		      -1.9617640 -161.1969000   -13.1688300   93.8502100   -14.7022700   74.4307100   -10.9770500  103.9111000
 		     -12.8705700   88.1188600    -1.8047410 -159.8925000   -10.9765700  103.1995000   -14.6162100   76.8965700
   58311670000   -15.1669100  109.0216000    -9.9268190   99.1015500    -2.0155190 -161.2603000   -13.0107100   88.4566700 
 		     -10.4394700   99.1638500   -14.8712000  105.8958000   -13.3485400   94.0266500    -2.0495730 -160.7386000
 		      -1.9869600 -161.1376000   -13.3884500   92.6275600   -14.2996700   73.7401900   -11.0022800  104.6676000
 		     -13.1993000   87.8945300    -2.0505490 -160.6641000   -11.1290800  104.3932000   -15.6101800   76.1337800
   58381660000   -14.9217400  106.2620000   -10.3959800  100.9603000    -1.9951330 -161.2018000   -13.0795800   89.3901200 
 		     -10.4216900  101.5094000   -16.3981800  104.9530000   -13.4378200   94.1854100    -1.8766310 -160.5911000
 		      -2.0156010 -161.0533000   -13.0981600   95.2247500   -14.5564500   76.1084000   -10.8727800  104.1708000
 		     -13.1359400   87.9172400    -2.0050260 -161.0554000   -10.9039500  104.0171000   -15.0289400   75.3793500
   58451650000   -14.9791300  104.5117000   -10.8956800  101.5271000    -2.0229970 -161.2637000   -12.8462800   87.8350300 
 		     -10.3485200   99.1370000   -15.8787700  113.8316000   -13.5163700   90.6591400    -2.0537920 -160.8736000
 		      -2.1015530 -161.3367000   -13.4096100   91.4087800   -14.6143800   75.1640700   -10.9725300  103.9064000
 		     -12.9103700   87.2513800    -2.0524660 -161.5556000   -11.0037500  103.3661000   -15.0670100   77.2330900
   58521640000   -15.3333600  105.6873000   -10.5658000   99.5512000    -2.0839390 -161.6859000   -12.7643900   89.1034300 
 		     -10.2199500   98.6587700   -17.2793400   92.8323300   -13.3209400   92.6358200    -1.8706740 -160.8965000
 		      -2.0889800 -161.8047000   -13.7652600   94.7073700   -14.2229400   74.2086300   -10.9355200  103.6562000
 		     -12.6436000   90.9000500    -1.9353600 -161.7804000   -10.8872400  103.1825000   -15.4655700   76.7929200
   58591630000   -15.3963900  106.1245000   -10.1675700  104.5335000    -2.0134850 -161.8234000   -13.0485700   87.6170700 
 		     -10.2724900  100.1640000   -15.5420900   96.7287100   -13.3441600   93.6009100    -1.9885970 -161.4333000
 		      -2.0249050 -161.6982000   -13.3022300   92.3618400   -14.4929700   73.4937000   -10.9460700  103.6505000
 		     -13.1512200   88.2340000    -2.0007330 -160.8305000   -10.9695200  103.7144000   -14.6992800   74.4223500
   58661620000   -15.5870700  103.8684000   -10.5788500   97.5189400    -1.9656460 -161.9541000   -12.8168100   89.5572800 
 		     -10.3427500   98.4642700   -13.6736800  105.1460000   -12.9779200   91.2671200    -1.9406140 -160.8114000
 		      -2.0320690 -162.1762000   -13.1685300   90.5005600   -14.7327700   74.5042800   -10.8963600  103.9618000
 		     -12.8277300   88.5734400    -1.8132420 -160.6016000   -10.8418500  104.4378000   -15.6718500   73.4044500
   58731610000   -15.3518500  106.8709000   -10.3966400   96.4745200    -1.9911900 -162.1060000   -13.0649700   88.7698100 
 		     -10.2223900   99.3438600   -15.1988900  111.7551000   -13.2542700   93.1770600    -1.9494120 -162.3732000
 		      -2.0546310 -162.3191000   -13.2812700   94.3935500   -14.2113600   74.7160000   -11.0368500  103.7600000
 		     -13.3793800   88.8351700    -2.0567250 -163.2752000   -10.9480700  103.5606000   -14.7195400   75.1590000
   58801600000   -14.8682200  106.2545000   -10.5230000   99.4704400    -1.9870420 -162.5802000   -12.8608400   88.0119900 
 		     -10.2434500   98.5069900   -16.2550700  100.4312000   -13.1159400   90.9337800    -2.0221270 -161.9349000
 		      -2.0447370 -162.1128000   -13.2560000   92.3375000   -14.6506100   72.6547800   -10.9418400  103.5571000
 		     -12.9722900   86.4866700    -2.1841930 -162.8607000   -10.8163900  103.8018000   -15.1060500   75.7402000
   58871590000   -15.7596300  107.9700000   -10.4753200  103.5099000    -1.9486500 -162.5039000   -13.0691000   90.2183200 
 		     -10.2246000  102.4542000   -15.0067500  109.3386000   -13.2712100   93.2842100    -2.0084440 -162.1358000
 		      -2.0362710 -162.7424000   -13.0067000   91.4468900   -14.6944000   71.6452900   -11.0661000  105.1499000
 		     -13.3152900   89.7095000    -2.0036720 -161.8053000   -10.9355200  104.1552000   -15.1433900   68.5700800
   58941580000   -16.4645800  109.6168000   -10.2720400   96.7302800    -2.0182680 -162.6182000   -12.8825100   88.3766800 
 		     -10.5141300   97.3965500   -14.4945000  109.5167000   -13.3536000   88.7434900    -1.9395260 -161.9932000
 		      -2.0465810 -162.3988000   -13.3638900   88.3090300   -14.5063500   74.1021700   -10.8629500  103.4458000
 		     -12.8762700   88.6274300    -2.0425400 -161.0655000   -10.9837000  103.1209000   -14.6825900   76.4918100
   59011570000   -14.8288400  102.6823000   -10.5071000   98.6732500    -2.0470810 -162.6816000   -13.0302000   88.9712600 
 		     -10.3970800   98.9672900   -15.5223200  102.6408000   -12.7926800   91.6360200    -1.9112140 -161.8635000
 		      -2.0822940 -162.6314000   -13.4222700   95.5889300   -14.4838700   71.3524900   -10.9314200  104.4740000
 		     -13.5146700   87.1908800    -1.8676320 -163.0002000   -10.8443800  104.5048000   -15.7753600   71.3413500
   59081560000   -15.9531200  108.3270000    -9.8902280   99.9678200    -2.0389530 -162.9374000   -12.9486600   88.0818300 
 		     -10.1897800   97.4106700   -16.2941500  114.1938000   -13.1567600   90.6264700    -2.0079920 -162.0173000
 		      -2.0615480 -162.9748000   -13.6147800   94.4909300   -14.5677600   71.5863600   -10.8809500  102.7334000
 		     -13.1162300   89.5610600    -2.0248530 -161.7661000   -10.9320900  103.7389000   -14.9665300   74.3407200
   59151550000   -15.2584600  104.8310000    -9.7765520   93.8625900    -2.0771600 -163.3634000   -12.9832300   86.8709100 
 		      -9.9991300   99.1280100   -15.0034900  105.1735000   -13.0002500   90.8607700    -2.1214950 -162.2566000
 		      -2.1362970 -163.2224000   -12.7074000   91.9110000   -14.5029100   73.0131800   -10.9644900  102.9920000
 		     -13.0405300   87.2949700    -2.1449990 -163.3501000   -10.9471600  102.6826000   -15.1635500   74.6433000
   59221540000   -15.7131400  105.7349000    -9.8788380  100.3041000    -1.9810130 -163.6351000   -12.9702000   87.0781400 
 		     -10.0714400  100.6648000   -16.7278700  104.4097000   -13.1572200   92.0414400    -2.0303360 -163.0445000
 		      -2.0139990 -163.9218000   -12.7720200   94.6406500   -14.6193400   72.6883200   -10.9680100  103.1651000
 		     -13.1431000   87.4766900    -2.2106150 -164.0322000   -10.8721600  103.0128000   -15.0590600   72.8616000
   59291530000   -15.7738800  105.6567000   -10.3999800   99.2663000    -1.9686340 -163.6753000   -13.1910700   88.0872100 
 		     -10.5992000   99.6116300   -14.9236500  100.2770000   -13.1318600   88.4910600    -2.0066780 -162.8009000
 		      -1.9884590 -163.9947000   -13.5735400   87.6008200   -14.8070500   71.1988300   -10.9223300  103.2133000
 		     -13.4196600   88.2239600    -1.8201600 -162.7147000   -11.0337100  102.8225000   -15.2554500   68.5062100
   59361520000   -15.7962800  109.2897000   -10.0000400   93.6990100    -2.0147920 -163.7573000   -12.8388700   87.4650100 
 		     -10.1451700   95.8643900   -15.0011700  100.8736000   -13.1192300   88.4996000    -2.0502290 -162.7155000
 		      -1.9789340 -163.5943000   -13.5111800   92.3542800   -14.7127900   73.5030100   -10.8446500  102.9859000
 		     -12.8401700   86.3184100    -2.0875840 -163.0730000   -10.8932300  103.0238000   -15.2727200   73.8434100
   59431510000   -15.5292200  101.4838000   -10.3190100   99.5291600    -1.9876120 -163.7693000   -12.7322400   85.9410600 
 		      -9.9098340   98.0677200   -16.9118200   95.9700700   -13.0349400   90.1716200    -1.9628160 -162.8584000
 		      -2.0619870 -164.2500000   -14.1489800   90.7060900   -14.3159300   72.4287700   -10.8281800  101.9831000
 		     -12.8825000   86.4528300    -1.9312160 -163.8743000   -10.7990400  102.4004000   -15.0688300   74.9710300
   59501500000   -15.2308800  107.8820000   -10.3570500   97.4110500    -2.0538050 -163.9657000   -13.0864200   86.8029800 
 		     -10.1172000   96.3124300   -15.3991100  102.0034000   -13.2965100   89.8067000    -2.0204950 -163.9887000
 		      -2.0136240 -163.7508000   -13.1377800   91.0594600   -15.0552300   70.9918500   -10.8665000  103.8821000
 		     -13.0382200   86.6996500    -1.9944730 -165.7467000   -10.7467900  103.1349000   -15.5710300   66.2402900
   59571490000   -15.6365100  105.5815000   -10.2934000   94.9683500    -2.0453370 -164.1906000   -12.7536800   86.0405900 
 		     -10.2787700   96.2274900   -14.9412700   99.4450800   -13.0975800   87.9068100    -2.0684430 -163.4350000
 		      -2.0234800 -163.6333000   -12.5091800   87.5050500   -14.7337400   74.9588900   -10.7986700  102.3396000
 		     -13.0113300   84.6390800    -2.1366630 -163.9856000   -10.8215800  102.5692000   -15.8162300   75.5029900
   59641480000   -15.3223600  102.5926000   -10.3549300   97.7030500    -2.0105710 -164.2308000   -12.9093200   84.7094800 
 		      -9.9741330   98.1809000   -15.8581800  108.6417000   -12.9426300   90.9206100    -1.9741190 -164.2866000
 		      -1.9959910 -164.0658000   -13.4670500   92.5116800   -14.3661500   69.5580700   -10.9003000  102.0954000
 		     -12.9461100   84.4381400    -2.0064760 -164.3991000   -10.8937300  100.9774000   -14.5322400   70.9584300
   59711470000   -15.3724000  107.8344000   -10.6176300   98.4502800    -2.0309590 -164.9870000   -13.0079200   86.7103100 
 		     -10.2105900   97.0006500   -16.2465600  103.3561000   -13.3161800   90.2728900    -1.9549760 -164.3530000
 		      -2.0424530 -164.7227000   -13.2464800   90.7133900   -15.2826600   68.7721000   -10.8713700  102.3077000
 		     -13.0504300   86.1521600    -1.9738630 -164.4740000   -10.8043300  101.3331000   -14.9284700   68.7306400
   59781460000   -15.2328800  100.3621000    -9.9931050   99.4927100    -2.0252560 -164.6291000   -12.9044700   83.8867100 
 		     -10.3719500   97.3581800   -15.8125500  109.7028000   -12.8727600   88.5791300    -1.9138160 -164.1691000
 		      -2.0545730 -164.7074000   -12.6059700   86.6714600   -14.7986200   72.7257700   -10.8433300  101.9076000
 		     -12.9795900   84.5515200    -2.1654270 -164.3144000   -10.8442700  101.8682000   -14.8503600   75.1434200
   59851450000   -16.1617200  106.8228000    -9.9292150   95.7873400    -2.0000180 -165.4892000   -12.7028600   85.1760000 
 		      -9.9551940   99.2665700   -14.4450700  102.1789000   -13.3102100   89.5041300    -2.0752300 -163.9747000
 		      -2.1655140 -165.6246000   -13.5378200   87.3523900   -14.3358900   68.8026600   -10.8727600  101.2766000
 		     -12.9294300   83.9595200    -2.0511570 -164.2076000   -10.7924800  100.8136000   -14.4473900   72.0418800
   59921440000   -15.4203700  108.1755000    -9.6949460   96.7301300    -2.0642680 -165.1167000   -12.6707500   84.7872700 
 		     -10.3051800   96.1995300   -17.4848300   96.5250800   -12.9429200   86.5825300    -1.8780080 -164.5315000
 		      -2.0950620 -165.5536000   -12.9534000   87.8345600   -14.9876000   73.3122400   -10.7264900  100.8727000
 		     -12.8180100   86.3507500    -1.9925080 -163.9799000   -10.7335800  101.3917000   -16.2305500   70.5718400
   59991430000   -15.1424000  100.8865000   -10.3623100   97.0392700    -2.0153960 -165.1242000   -12.8759900   84.5870400 
 		     -10.6617700   96.3744700   -14.8707700  100.7984000   -13.2393800   88.9266000    -2.0420140 -164.3786000
 		      -1.9897810 -164.8383000   -12.8395400   91.1076000   -14.9940000   74.6847600   -10.7786700  101.4548000
 		     -12.8700000   83.9431400    -1.9668170 -164.9334000   -10.7961400  102.2943000   -14.8565200   72.5198200
   60061420000   -16.3476700  102.4994000   -10.6218300   94.2717500    -2.0677570 -165.5844000   -12.5783600   85.0469100 
 		     -10.4456700   95.7631900   -16.8953900   91.8036300   -13.2270000   88.3572800    -1.8798970 -164.6268000
 		      -2.0637830 -165.5084000   -13.5585700   86.0744200   -14.5538500   71.0785400   -10.6533100  101.1383000
 		     -12.4902800   84.6648000    -1.8957940 -165.4982000   -10.6472900  101.4497000   -15.1032600   73.8601200
   60131410000   -15.2419200  111.1635000   -10.0520400   92.9097400    -2.0410080 -165.7268000   -12.6156700   84.0138000 
 		     -10.2988500   96.2398700   -15.7422000  105.5387000   -13.4213500   86.8600200    -2.1318680 -165.4902000
 		      -2.0253500 -165.7953000   -14.1129600   88.8677400   -15.1358500   69.6537400   -10.6718400  100.0301000
 		     -12.4800500   84.1683500    -1.9586420 -165.2595000   -10.6892500  100.9208000   -15.2552700   73.4290600
   60201400000   -16.8093100  106.0998000   -10.4943500   98.8384700    -2.0787890 -165.8166000   -12.7420000   84.5873500 
 		     -10.2871800   97.9566800   -14.9006800  104.9431000   -13.0309000   87.3984600    -2.0830310 -165.7102000
 		      -2.0427870 -165.7802000   -13.3637700   89.6168100   -14.6626300   74.9223300   -10.7701800  100.7623000
 		     -12.7818900   83.0249600    -2.1751540 -165.7478000   -10.8309700  100.3442000   -14.7117200   74.2538700
   60271390000   -15.7548700  108.4410000   -10.0354300   97.1934200    -2.1038890 -165.8006000   -12.3358500   82.1646300 
 		     -10.3139900   94.6712300   -15.9718400   98.2546200   -13.1616900   86.1980000    -2.0550810 -164.9267000
 		      -2.0747400 -166.1730000   -12.9550700   87.9802000   -14.5944700   70.6543700   -10.6987100   99.5958500
 		     -12.6684000   81.7355200    -2.1007830 -164.9038000   -10.6245900   99.5974300   -14.8499300   75.5771900
   60341380000   -15.2691000  103.7571000   -10.4823000   96.0864200    -2.1564000 -165.9548000   -12.8084300   84.6035200 
 		     -10.6739200   96.6951400   -17.2385700  104.8488000   -13.3015900   86.9319800    -2.0337530 -166.2109000
 		      -2.2223440 -166.0511000   -13.6350200   88.1550400   -15.5091700   69.7972000   -10.8739500  100.0532000
 		     -12.6464800   83.6113800    -2.0355200 -166.4734000   -10.8068600  101.0075000   -15.2360200   76.2278100
   60411370000   -15.4661500   96.9465200   -10.3766700   96.7404900    -1.9930960 -166.2529000   -12.9228400   81.6643800 
 		     -10.6479500   97.5245100   -15.0817100   95.1564400   -13.5156200   87.0953500    -1.8649920 -165.1647000
 		      -2.0843040 -166.3756000   -13.4591700   91.4557600   -14.8675300   73.3944300   -10.7570100   99.9177900
 		     -12.9572100   82.7462200    -1.8557640 -165.4844000   -10.6912700  100.4317000   -13.8269500   74.4782900
   60481360000   -15.3240800  100.8930000   -10.3840600   97.2384200    -1.9767650 -166.3303000   -12.6896200   81.3933700 
 		     -10.1913600   94.5630500   -15.2201800   97.1377700   -13.4574200   86.5288200    -1.9814600 -166.4706000
 		      -2.0831400 -166.4163000   -13.3971200   85.5942200   -14.6838400   69.1128000   -10.8381700   99.9682700
 		     -13.0820000   81.0757300    -2.1038710 -165.6605000   -10.7464300   99.6090200   -14.6563300   68.6221500
   60551350000   -15.2620200  103.0383000   -10.3869700   96.1677700    -2.0450410 -166.5891000   -12.8990700   82.0683700 
 		     -10.3624100   95.6120100   -15.3710700  104.8736000   -13.0078500   87.7580900    -2.0556990 -166.4305000
 		      -2.0602960 -166.2484000   -13.1889400   87.3869400   -15.1862600   72.6433600   -10.7266300  100.0116000
 		     -12.7401000   81.3021900    -1.9876220 -165.4646000   -10.7117700  100.1244000   -15.5839100   73.3980000
   60621340000   -15.3971300  100.0499000   -10.2516500   94.8079100    -2.0719130 -167.0850000   -13.0137500   82.5311100 
 		     -10.2578000   95.0664500   -16.3865000   90.4911300   -13.4566200   87.9355300    -2.0112600 -166.2381000
 		      -2.0917740 -167.0841000   -13.1072700   85.5177600   -14.2617000   74.9220500   -10.9020600  100.3587000
 		     -13.3623600   82.9308300    -2.0080290 -166.1019000   -10.7160600  100.4861000   -14.9961300   70.3543600
   60691330000   -15.6461200  106.2217000   -10.3024600   96.5297400    -2.0904910 -166.9464000   -12.7960400   81.7838200 
 		     -10.1644700   93.0551700   -14.3565600   96.4789400   -13.1210400   85.9664700    -2.0757600 -166.7565000
 		      -2.1277300 -166.9421000   -13.7303100   81.5191300   -14.6870000   70.8498900   -10.7203800   99.8515900
 		     -12.9317800   81.5663800    -2.0216720 -167.0930000   -10.9281500   99.9018900   -15.0316300   65.8494700
   60761320000   -15.2507900   99.4750400   -10.2027900   92.7795700    -2.0800160 -166.8810000   -12.7312300   82.7272600 
 		      -9.9810650   94.5411300   -15.7346700   97.5240000   -13.1484000   86.5543300    -2.0744170 -166.9061000
 		      -2.0153480 -167.0339000   -13.6791600   87.1440200   -14.9311200   72.5585900   -10.5689200   99.3171200
 		     -12.6689400   81.8487200    -2.2046620 -165.8876000   -10.7385500   99.0156200   -15.4186800   75.8860300
   60831310000   -15.8490100  102.0166000   -10.3982900   95.7687700    -2.0262070 -167.4059000   -12.7663900   78.5325800 
 		     -10.5469400   97.3078500   -16.4469000  112.5362000   -13.2676100   87.2081400    -2.0267200 -167.2458000
 		      -2.1032560 -167.6816000   -13.3212900   85.8132200   -14.2281500   73.9160600   -10.7561200   97.3890800
 		     -12.4858700   78.4392900    -2.2459710 -166.7769000   -10.7078900   97.8108700   -14.0241800   75.0162300
   60901300000   -15.3954200  104.2677000   -10.2398000   96.3399000    -2.1290110 -167.6401000   -12.8726300   80.7961500 
 		     -10.1933700   95.4478100   -16.5638500   94.4392100   -13.4545300   86.5185300    -1.9800960 -167.0010000
 		      -2.1069840 -166.9052000   -13.3572100   86.7837700   -14.7997700   70.2358600   -10.8232500   98.9036900
 		     -13.1374800   78.5561800    -2.0577490 -166.8241000   -10.8010900   98.3135100   -14.5935200   69.4449900
   60971290000   -14.8995400  106.2922000    -9.9730650   93.3081000    -2.0517910 -167.2983000   -12.8003700   81.6633800 
 		      -9.8819050   92.5002000   -14.8171500   88.4894600   -12.9731400   84.1649600    -2.0394400 -166.5441000
 		      -2.0812710 -167.4251000   -12.8195500   81.0823900   -14.6037200   72.1265600   -10.8030700   99.5433200
 		     -12.7692400   82.6864400    -1.9391200 -167.4626000   -10.6626800   99.7062700   -15.6512500   71.4424600
   61041280000   -15.4248800  101.0303000   -10.3790200   96.6619000    -2.0642520 -168.0027000   -12.7110500   80.9982700 
 		     -10.4488700   93.4397400   -16.4659100  103.0545000   -13.0715200   84.6886000    -2.1663330 -166.7108000
 		      -2.0611720 -167.9583000   -13.2218800   84.9902600   -14.4825600   71.0268000   -10.8276600   98.5405100
 		     -12.5749300   81.4970200    -2.1822890 -166.6823000   -10.6945000   99.1013000   -15.1518200   71.8901800
   61111270000   -15.2066800  103.1367000   -10.1635600   94.7404300    -2.1115320 -168.1287000   -12.9624700   80.4903000 
 		      -9.8669260   96.4613900   -15.9629500  110.4279000   -13.0674100   86.6256300    -2.1611150 -168.0226000
 		      -2.1581890 -168.1904000   -12.9610200   87.8602200   -14.6057200   68.3458900   -10.9197100   98.6201400
 		     -13.1436900   79.4968900    -1.9904210 -167.6794000   -10.8534400   98.5864600   -14.9943100   68.0065200
   61181260000   -14.5170500  102.3789000   -10.2850100   96.5397400    -2.0830340 -168.5644000   -13.0094700   79.8635900 
 		     -10.1810800   94.7711700   -15.7430900   88.3221400   -13.2922400   85.1068700    -2.0520410 -167.5798000
 		      -2.0832840 -168.6361000   -13.6601900   84.6195300   -14.2633300   70.0428200   -10.9093000   98.9859500
 		     -13.1658600   80.7659700    -2.0966950 -167.5522000   -10.9529900   99.3485000   -14.9399300   65.6690300
   61251250000   -15.6224400   98.9108800    -9.9922070   96.5961800    -2.0668490 -168.1686000   -12.6645900   78.7018500 
 		     -10.3016900   94.2491900   -15.3647700  105.9891000   -13.3044900   85.7367200    -2.1401570 -167.4065000
 		      -2.1669400 -168.8416000   -13.5982800   83.2142000   -14.4732900   69.6260400   -10.6887800   97.4037700
 		     -12.5561900   80.1115300    -1.9672500 -167.5159000   -10.7178700   97.8175500   -14.8933900   71.6704500
   61321240000   -15.0646000   98.1087800   -10.5874800   95.2154100    -2.1038500 -168.7204000   -12.9301900   81.1738100 
 		     -10.1562700   95.0129100   -14.8935400   91.5482400   -13.3242000   84.6597400    -2.0809490 -167.5494000
 		      -2.0272740 -168.5336000   -13.4121800   85.6529700   -14.3767200   70.1957100   -10.8424900   99.5453800
 		     -13.1140100   80.2179700    -2.1940360 -165.4507000   -10.8712100   99.9295800   -15.1333900   64.8143200
   61391230000   -15.5168900  100.4150000    -9.9574110   95.4484500    -2.1079340 -168.8519000   -12.9044300   79.1578200 
 		      -9.9011830   94.1625200   -15.9031900  101.3075000   -12.9134800   85.2422600    -2.0660170 -167.8373000
 		      -2.0844940 -169.0106000   -13.1724000   86.3138700   -13.9954500   69.2621500   -10.8903600   97.6094100
 		     -12.7617300   78.5369800    -2.3847430 -168.1740000   -10.8819800   97.7487600   -14.6730100   72.1092300
   61461220000   -14.8209600  104.7036000   -10.3904300   94.2985000    -2.1406710 -168.8578000   -12.6964300   81.0030700 
 		     -10.4357100   93.3250700   -13.9687600   89.6640900   -13.4453300   82.7841100    -1.9699680 -168.7309000
 		      -2.1358570 -169.3522000   -13.4709800   80.7528500   -14.7205700   69.2886900   -10.6861300   98.7581700
 		     -12.9741000   81.3986400    -2.0046630 -167.6568000   -10.7555300   98.8017900   -15.9037800   66.2352000
   61531210000   -15.6078400  103.8347000   -10.7842600   96.0561600    -2.1033190 -168.7758000   -12.8112100   79.1760700 
 		     -10.4445500   93.8168400   -13.8855100   94.8509700   -13.3185100   84.0860400    -1.9770400 -167.9753000
 		      -2.1765480 -168.8059000   -13.3345400   84.7384200   -14.5832400   70.2625800   -10.9997200   97.3284500
 		     -12.8195900   79.9099200    -1.8772130 -168.2619000   -10.9706800   97.0024200   -14.1730200   70.1085400
   61601200000   -15.2930400  103.7372000    -9.6299870   97.1808900    -2.1086680 -169.0237000   -12.9964300   79.2943200 
 		      -9.9158130   94.5592300   -14.9594800  100.3979000   -13.0767300   87.1008400    -2.0667500 -169.0647000
 		      -2.1827460 -168.8586000   -12.9435300   85.0757500   -14.1728300   66.3991200   -10.8452900   99.5934400
 		     -13.1490100   79.1557200    -2.0783720 -169.6481000   -10.8788600   98.4329000   -14.9776700   64.7982500
   61671190000   -14.7954000  103.6364000   -10.2992800   94.3498700    -2.0974490 -169.3296000   -12.5658300   79.3396000 
 		     -10.0885000   93.4866000   -13.9602500  100.0736000   -13.1226800   83.8930800    -2.0787280 -168.8210000
 		      -2.0376120 -170.0242000   -12.9257900   82.0137300   -14.6409300   68.6130900   -10.6900700   97.8624600
 		     -12.9007400   80.9481500    -2.3641710 -167.2491000   -10.7589300   98.1379900   -15.1135000   71.9952500
   61741180000   -14.9628500   99.1475800    -9.9366910   95.5973800    -2.1343540 -169.5929000   -12.8917300   78.2402900 
 		     -10.4571200   94.2581900   -15.2331800   97.9840500   -13.4090300   85.0305700    -2.0157800 -169.5819000
 		      -2.1519130 -170.3919000   -13.3463500   88.6010700   -14.5406700   70.0983700   -10.9207200   97.7352200
 		     -12.8170800   79.2547600    -2.0674160 -170.0992000   -10.8146500   98.2438300   -14.3781600   68.2734800
   61811170000   -15.1483200  103.6839000    -9.8781010   98.7475900    -2.1305030 -169.6402000   -13.1651000   76.5509700 
 		      -9.8110330   94.5741700   -13.9202300   98.4107600   -13.3680900   86.5641800    -1.9824350 -170.3232000
 		      -2.1404520 -169.4828000   -13.2445500   85.5808800   -14.5170900   64.4070500   -11.1619200   99.4789400
 		     -13.3826600   77.4663300    -1.9424600 -169.1046000   -11.2442500   97.5808300   -14.0061700   59.6553300
   61881160000   -15.3953500  102.3086000   -10.0510200   93.6190300    -2.1398780 -169.6881000   -12.8686000   79.9430500 
 		     -10.1556100   95.0270500   -14.5911100  103.4279000   -13.0201400   82.2216000    -2.0654770 -168.8902000
 		      -2.0324720 -170.3212000   -13.0701100   81.3982400   -14.7100600   68.9885100   -10.6641300   97.7308400
 		     -12.9441300   76.0666900    -2.0085500 -168.1080000   -10.8117500   97.1441000   -15.2832800   71.4060800
   61951150000   -16.0186300  102.8805000   -10.0366200   98.2829100    -2.0282040 -170.5616000   -13.0639000   76.3046400 
 		     -10.2835100   95.6715800   -16.5851600   96.3327300   -13.6904800   83.4810900    -2.1914410 -170.0391000
 		      -2.0731250 -170.4838000   -13.7105600   85.8580600   -14.0145300   69.9885800   -10.8439100   97.5846300
 		     -12.8428900   76.6398200    -2.0361230 -169.8249000   -10.8680800   97.5158000   -14.0192500   68.0169300
   62021140000   -15.0417600  101.3634000   -10.0169700   93.5798200    -2.0408200 -170.2849000   -13.1344500   77.1265000 
 		      -9.8828020   93.8189600   -14.2995200  102.3784000   -13.0255200   84.0729200    -2.1592690 -169.2184000
 		      -2.0060730 -170.5477000   -12.9153200   86.7808700   -14.3885000   68.9914700   -10.9516100   97.9163700
 		     -13.7014200   75.0588200    -2.1588550 -168.0069000   -10.9705700   97.4406200   -14.7231700   61.1234600
   62091130000   -16.1412100   97.8541200    -9.8461010   92.5734600    -2.1777840 -170.0429000   -12.6375200   78.3728900 
 		     -10.4690800   94.6073800   -17.3741700  116.0328000   -13.0546600   86.6347400    -1.9698380 -169.3706000
 		      -2.1814710 -170.3519000   -12.6670200   82.9452100   -14.5052600   67.5061800   -10.7380400   95.9823400
 		     -12.6617500   76.6869000    -1.9846900 -168.7648000   -10.7577400   95.5492600   -14.4857300   77.9960900
   62161120000   -15.9014700  101.7793000   -11.5605200   96.5705300    -2.1038340 -170.4351000   -12.7787200   76.5762200 
 		     -10.3273900   95.6470000   -14.6677100   90.4875500   -13.4580500   85.3692600    -1.9043110 -169.0709000
 		      -1.9866330 -171.4362000   -13.7534800   83.0049000   -14.0631500   70.6604300   -10.8695900   96.5907300
 		     -13.2815500   78.3332600    -1.9782570 -168.0721000   -10.9388300   96.5639400   -14.2832600   63.8780700
   62231110000   -15.2240500   97.6912300    -9.4181140   89.0088700    -2.0956620 -170.4561000   -12.7906100   78.6827800 
 		      -9.7968290   93.5105900   -15.1157800   95.1968800   -12.8109500   84.2440800    -2.0655870 -170.1030000
 		      -2.0981260 -170.1983000   -12.3390700   85.5399500   -14.4912600   65.9408500   -10.7594100   99.3892400
 		     -12.8626300   79.7202700    -2.2173240 -169.9060000   -10.7398300   98.0444700   -15.6780100   65.1125000
   62301100000   -15.8146500   93.4942300   -10.1964500   87.1513400    -2.1618770 -170.8681000   -12.8706800   78.2474100 
 		     -10.3190600   92.7119100   -14.8552800   98.8019000   -12.8933500   83.1789600    -2.1318300 -170.3000000
 		      -2.1522650 -170.4634000   -13.0221600   84.8210800   -14.5376100   67.2059500   -10.8237000   97.6874300
 		     -13.1236300   76.5328500    -2.1792110 -170.3941000   -10.7949300   96.6943600   -14.8793000   67.9842800
   62371090000   -15.2732500   97.4034900   -10.6953100   87.9250700    -2.1565200 -171.4755000   -12.6885000   78.6298400 
 		     -10.6207700   90.4892900   -15.6409200   95.6585400   -13.3504600   81.1529500    -2.0389270 -169.5757000
 		      -2.1048250 -171.3674000   -13.0392900   79.4399600   -14.4720800   67.9632900   -10.6624900   97.9297200
 		     -12.5573100   79.2806200    -2.3064180 -168.2784000   -10.6640300   96.8303300   -15.7783600   68.9320900
   62441080000   -16.0966400  107.4158000   -10.3041800   96.3681700    -2.1790100 -170.8171000   -12.4798000   77.1983300 
 		      -9.9392730   91.6320300   -13.5114900  104.7989000   -13.0017300   83.1537500    -2.1246300 -170.8972000
 		      -2.2352080 -171.0940000   -13.8162700   86.5319900   -14.1324700   67.6227700   -10.6690600   94.9109000
 		     -12.6651700   76.3277100    -2.1053030 -170.0477000   -10.7661400   95.7693400   -14.7182400   70.2791600
   62511070000   -15.3091600   98.8975900   -10.1215700   93.6578700    -2.1996380 -171.2976000   -12.8399700   77.2057600 
 		     -10.1070000   91.8960500   -17.2250100  103.4931000   -12.9504700   82.5756500    -2.0133360 -171.6504000
 		      -2.2864200 -171.4818000   -13.0090600   82.6420500   -14.2459000   65.3405000   -10.7602000   96.7789500
 		     -13.1208600   77.4339100    -1.9578110 -170.4058000   -10.7641300   96.7243100   -15.0702600   65.9811500
   62581060000   -14.9821100   95.5497300   -10.2420400   96.3776900    -2.1454900 -171.6791000   -12.9107200   77.2811700 
 		     -10.5070500   92.2599300   -14.9462300   92.9069400   -13.1919200   81.9071000    -2.0365100 -170.5676000
 		      -1.9763190 -171.6084000   -13.0213100   82.5432700   -14.5190700   64.4076600   -10.7510200   97.4324600
 		     -12.7803700   77.5248700    -1.9783530 -170.4326000   -10.7343300   97.3178300   -15.6649900   69.2212300
   62651050000   -15.9440500   99.2149700   -10.4470300   92.8978300    -2.1963400 -171.6455000   -12.7703900   76.2135900 
 		     -10.2984500   91.9564500   -16.0968200  100.4070000   -12.9319800   82.0071900    -2.0576750 -171.3368000
 		      -2.2203630 -171.6912000   -13.0861100   81.8773100   -14.5459700   66.7928800   -10.8241800   96.6961600
 		     -12.6617600   75.4113800    -1.9718570 -171.2497000   -10.7678500   96.4566200   -14.4928600   67.5830100
   62721040000   -15.6033200  102.1764000    -9.8432150   92.0768900    -2.1949560 -171.8168000   -12.9926700   76.0229600 
 		      -9.9046480   90.2227600   -15.6117900  103.8400000   -12.8124600   83.4763000    -2.1490950 -172.0209000
 		      -2.2759670 -171.4885000   -12.9946600   82.4895300   -14.3885900   66.6517200   -10.9963200   96.5448700
 		     -12.9297300   74.4689600    -2.3971530 -170.8558000   -10.8604500   96.1758200   -14.7335900   62.3664300
   62791030000   -14.9994500   95.9471900    -9.7419720   92.1436200    -2.1787460 -171.8506000   -12.7863100   74.3323200 
 		     -10.0595300   92.6930700   -18.5693500   96.0257000   -13.1043700   82.6251100    -2.0547640 -171.9058000
 		      -2.2881680 -172.2879000   -13.4077800   84.8166000   -14.5881500   68.8142400   -10.7805300   95.1331400
 		     -12.9140500   76.7805500    -1.9904330 -172.0046000   -10.7709800   95.5192800   -14.9878200   68.5682000
   62861020000   -15.5399900   98.3560100   -10.1838600   94.5043300    -2.1509590 -171.8496000   -12.5947600   77.3292100 
 		      -9.8262690   91.0000000   -13.8792200   85.1904600   -12.8342900   81.2338000    -2.0799590 -171.5679000
 		      -2.0368930 -171.3247000   -13.0559300   79.3952300   -14.2528600   68.3130500   -10.5245700   97.5473600
 		     -12.7117900   77.9884500    -1.9890200 -170.3296000   -10.6497300   96.8735700   -15.3581300   65.5285300
   62931010000   -15.0024700   96.4480600   -10.8639900   92.1967500    -2.1732860 -172.0321000   -12.7987600   77.0858500 
 		     -10.2502800   92.3472500   -13.8823500   87.9080500   -12.8539000   80.7264600    -2.1058080 -172.3886000
 		      -2.1607660 -171.0573000   -12.9788300   81.1100300   -14.4527100   63.6366700   -10.7136500   97.4968300
 		     -13.1951900   77.4589400    -1.9963530 -171.8550000   -10.7395300   97.0271800   -15.1801100   62.5635200
   63001000000   -15.4149500   96.8366500   -10.2326400   95.9220700    -2.1568110 -172.0197000   -12.4416600   75.6203800 
 		     -10.2168200   92.2705600   -14.4688100   87.8800600   -13.3068200   79.9034300    -2.0585320 -172.4173000
 		      -2.1352630 -172.0308000   -13.0255700   79.7943000   -14.7014700   66.4194900   -10.7932800   94.7852900
 		     -12.6690700   76.8508000    -1.9436450 -172.8465000   -10.8327100   94.9920300   -14.8006400   75.7961500
   63070990000   -15.4806800  102.5637000    -9.8123380   91.9918700    -2.1429520 -172.8453000   -12.5377100   74.4933500 
 		     -10.2072600   89.8801900   -14.9878300   89.1247400   -13.1201700   79.8850000    -2.1848960 -172.3555000
 		      -2.0587540 -173.6132000   -12.9776800   84.2878800   -13.7790800   66.2927200   -10.7726200   95.0614300
 		     -12.6851300   76.3240900    -2.2090460 -175.0934000   -10.7164000   95.4710500   -14.7202500   66.1153400
   63140980000   -14.4783900   96.7768100   -10.3054500   90.4691200    -2.1873880 -172.7386000   -12.7354100   73.9644100 
 		      -9.7506990   93.2713200   -14.5834400   96.2615400   -13.0812000   83.0066200    -2.1758450 -172.7327000
 		      -2.0602480 -172.4750000   -12.5815700   84.6243900   -14.7256500   60.3455700   -10.8781600   95.8204900
 		     -13.1777700   74.3475300    -2.0277310 -172.9029000   -10.7872200   95.8874900   -14.7558500   66.8751400
   63210970000   -15.3539800   93.5381700   -10.4826900   92.5805400    -2.1154030 -172.9296000   -12.5380200   74.4310600 
 		      -9.8604130   94.2568100   -13.6124600  114.9977000   -13.1642200   83.4930600    -2.2975540 -172.4417000
 		      -1.9474640 -173.5591000   -13.2763600   85.8944300   -14.6978700   64.4442200   -10.7128600   94.6426800
 		     -12.7110200   75.9364300    -2.5288990 -172.4562000   -10.8716800   94.9849900   -13.9236700   71.7012100
   63280960000   -15.7315800  102.6946000    -9.9962620   88.9293600    -2.1792820 -173.3367000   -12.7533000   77.9187200 
 		     -10.0596700   92.1706500   -15.0382700   73.4871900   -13.1258600   76.5188800    -2.0982320 -173.1238000
 		      -2.1360680 -172.7080000   -13.3403000   75.5722800   -13.4342300   66.2854200   -10.6263600   96.9583100
 		     -13.1444500   76.1850400    -2.3336300 -171.2364000   -10.5445400   97.0201900   -15.3738300   62.8084600
   63350950000   -14.6167100   98.9883200   -10.2025300   96.7934600    -2.1754970 -172.8307000   -12.7616700   72.5439800 
 		      -9.9887650   92.1626400   -15.1348700   95.9187700   -13.0114500   83.3207100    -2.0250310 -173.6723000
 		      -2.2400780 -173.1559000   -12.9208600   81.7598500   -14.1413200   61.1265800   -11.0014700   94.9556000
 		     -12.6722100   72.2264400    -2.0306960 -175.1819000   -11.0102300   95.4591000   -14.5182000   65.3226900
   63420940000   -15.3420700   93.1713300   -10.0403200   84.8597100    -2.0862570 -173.2319000   -12.9910200   75.3894500 
 		     -10.0071700   87.4995600   -13.8201900   93.5657700   -12.8642600   78.0734000    -2.1338930 -174.2542000
 		      -2.0621090 -172.4945000   -13.0503700   75.5827500   -14.7278900   62.8649300   -10.7932800   96.4693600
 		     -13.7454300   73.9094500    -2.1416610 -174.6817000   -11.0238300   96.5178500   -14.2658300   65.6078500
   63490930000   -14.7346900  105.4895000    -9.8386880   88.9926300    -2.0845570 -174.0055000   -13.0211100   70.9864600 
 		     -10.2674400   90.3472700   -14.6119900   91.4012700   -13.0265800   79.6832400    -1.9781460 -173.6507000
 		      -2.0839710 -173.8622000   -12.2487200   78.8413200   -13.6372800   65.1960800   -11.1092000   94.3311600
 		     -13.2725400   69.0239000    -1.7018810 -174.1505000   -10.9992300   93.8572000   -13.3180200   61.4281800
   63560920000   -14.3666900  101.6304000    -9.3599020   91.6950500    -2.2065780 -173.3854000   -12.5863600   74.9014600 
 		      -9.4276510   89.2581200   -13.4773300  112.1037000   -12.3864400   80.0241100    -2.2525460 -173.6380000
 		      -2.2745470 -172.1870000   -12.9991200   81.8160900   -14.0967200   60.3760200   -10.8642000   95.5859100
 		     -12.4671200   74.8409500    -2.2665560 -174.7754000   -10.8419700   93.4371300   -15.4618000   67.3145000
   63630910000   -15.8763200   94.1614300    -9.9949000   92.1695300    -2.1773190 -174.3476000   -12.9079800   77.0653800 
 		     -10.0507700   89.3415000   -16.2797700   93.2798600   -12.8040900   79.4446900    -2.2482630 -172.8375000
 		      -2.0424110 -173.4526000   -12.6583700   78.2095400   -14.2030100   65.2634300   -10.5461500   96.9269600
 		     -13.2725000   79.2425700    -2.0560990 -171.6454000   -10.6852200   96.7285400   -15.2375400   58.0568800
   63700900000   -15.0421700  101.7023000    -9.6458450   90.4013700    -2.0966010 -174.4749000   -12.9417600   72.9860500 
 		      -9.7785270   90.0378100   -16.6619500   93.5135000   -12.7823500   81.0033500    -2.2096660 -174.1336000
 		      -2.1622560 -175.1594000   -12.9791800   79.4390400   -13.6671900   64.5784200   -10.8329500   93.3395400
 		     -13.0827200   71.3864900    -2.3999810 -173.0759000   -10.7879000   92.9696700   -14.9363700   60.9227200
   63770890000   -14.4167400   93.5486600   -10.0529000   94.4227900    -2.1599120 -174.3629000   -12.7648800   74.3739900 
 		     -10.1852300   91.1788300   -15.6776400   91.3411100   -13.0849500   79.2051300    -2.0605950 -174.2622000
 		      -2.1445700 -174.4739000   -12.9584900   78.5597700   -13.8782200   58.8008100   -10.8842800   94.1609500
 		     -12.7367600   72.7192800    -1.8423570 -172.7297000   -10.7393500   95.4204400   -15.6229800   67.8350100
   63840880000   -16.6062100  101.2505000   -10.2235400   88.9559900    -2.2016650 -174.8545000   -12.7307500   76.3274500 
 		     -10.1396900   92.2452200   -16.0768500   90.4474100   -12.4699100   78.3887300    -2.1057040 -173.4643000
 		      -2.1104850 -175.1064000   -13.3177100   75.8797500   -14.0929900   62.5322200   -10.7078800   94.1807800
 		     -12.7703500   75.2124600    -2.2000350 -173.6312000   -10.8024200   94.0593500   -15.0588300   63.7762900
   63910870000   -15.9320300  102.0893000   -10.3653100   91.1070000    -2.1193750 -175.5294000   -13.0343400   74.8574800 
 		     -10.0005500   90.9940300   -15.2807200  103.9519000   -12.6185500   78.6966400    -2.1188370 -173.9629000
 		      -2.0947200 -175.6408000   -13.3368500   78.0561500   -13.8640100   66.7977700   -10.6662700   93.8143700
 		     -12.6955600   72.7906200    -2.0542400 -172.9259000   -10.8797400   94.1179000   -15.5103400   56.2029700
   63980860000   -15.0756500   93.5893200   -10.4339100   87.0662700    -2.1558840 -174.6764000   -12.5079900   73.3792600 
 		     -10.0659600   87.8610300   -15.9645900   82.6687200   -13.0109000   78.7378700    -2.0965980 -174.6070000
 		      -2.0567020 -173.6078000   -13.5855800   78.1310000   -14.3769300   61.8757100   -10.7308700   94.7899200
 		     -12.5916500   75.5262300    -1.9899680 -173.8198000   -10.6286300   94.3907500   -14.3783700   67.5558200
   64050850000   -16.3416500  101.2763000    -9.7503400   86.7791000    -2.2136420 -175.3480000   -12.5055900   73.3460800 
 		     -10.1231100   87.8910800   -17.2347800   94.1442000   -13.1143000   79.2002300    -2.0420440 -175.5067000
 		      -2.1867670 -174.3600000   -13.1546300   78.2198300   -14.5591600   59.7189100   -10.7227300   94.6830400
 		     -12.5132800   74.2654900    -2.0007910 -175.3306000   -10.7981600   94.7168300   -14.6477700   62.0302900
   64120840000   -14.8878300   98.8720400    -9.6491830   90.8166000    -2.1070440 -174.9266000   -12.5451500   73.2652000 
 		      -9.7469990   87.8315700   -15.9273600  103.7667000   -12.4426700   78.9216700    -2.1764190 -174.6351000
 		      -2.2350630 -174.8510000   -13.0878500   81.9869500   -14.4670500   65.8435100   -10.5626600   93.9733900
 		     -12.7415100   73.7565500    -1.9845980 -174.1024000   -10.5575400   95.0947300   -16.0899100   63.6524400
   64190830000   -15.4436500   93.0236700    -9.6165260   87.8008200    -2.1584840 -175.4640000   -12.9418900   74.8165200 
 		     -10.3010900   90.8714600   -15.0667500   99.9710800   -12.9584700   78.0262800    -2.1161610 -174.5439000
 		      -2.1472990 -175.5566000   -13.7320800   72.3341100   -13.7130400   60.6356600   -10.7087600   94.2642700
 		     -13.0049000   74.0366700    -2.2161440 -172.9811000   -10.8450100   94.1551400   -14.2117700   62.4283600
   64260820000   -15.3716600  106.7271000    -9.7457900   90.1431500    -2.3049520 -175.8570000   -12.6218800   73.3979800 
 		      -9.5646180   88.0775000   -15.4835400   94.9719600   -13.0784300   78.8958400    -2.0432870 -175.6207000
 		      -2.2619850 -175.5719000   -13.3963100   80.4195300   -14.5528800   59.2307700   -10.9720800   93.6189000
 		     -12.7160900   73.4549700    -1.9631250 -175.0145000   -10.9920700   93.8895600   -14.5845900   54.5156600
   64330810000   -14.3658200   95.0022100    -9.5160420   89.8098200    -2.2036750 -175.5148000   -12.2137900   72.5158800 
 		     -10.4052000   86.6917000   -16.5241200   79.6611000   -12.8984700   77.9108200    -2.1142850 -175.3457000
 		      -2.1850920 -175.9437000   -13.7848300   75.8404400   -14.1701000   65.1655900   -10.5326100   92.5244400
 		     -12.3033700   74.9627600    -2.0933300 -173.6230000   -10.5020100   93.1397700   -15.4869700   69.6596500
   64400800000   -15.6998900   89.1295800   -10.2953500   89.4365300    -2.1722390 -176.3394000   -12.4817300   71.5706300 
 		      -9.6887950   87.7989500   -15.0782900   83.8659000   -13.3692700   77.1570200    -2.0108260 -176.0551000
 		      -2.2657450 -175.5670000   -13.4486800   75.8591000   -14.1980800   58.3795000   -10.9065600   94.4276500
 		     -13.0216600   70.3568700    -1.8822770 -174.4961000   -10.8056200   93.7115900   -14.3706000   65.1497100
   64470790000   -15.3843200  105.6153000   -10.1143800   84.3742400    -2.2805020 -176.4715000   -12.6772700   72.2058800 
 		     -10.2548300   90.9902400   -15.9811300   96.3077500   -13.0025600   76.6069600    -2.1326070 -176.0873000
 		      -2.1239710 -176.2625000   -13.3581000   79.2704900   -15.1990500   55.3324000   -10.6654300   94.8225600
 		     -12.8320500   69.9261500    -2.2100130 -175.4612000   -10.7612100   94.8806900   -15.0962400   60.3772100
   64540780000   -14.4382800   98.7828500   -10.2714900   88.9479700    -2.1595510 -176.4716000   -12.4454700   73.2175700 
 		     -10.0798300   89.5578500   -15.5427900   81.4434400   -12.6259700   76.8924300    -2.2234100 -176.0667000
 		      -2.1313510 -176.4539000   -12.9373200   76.7021500   -14.0986100   60.4372800   -10.6335200   93.2058900
 		     -12.4735700   71.9573700    -2.2610640 -174.6755000   -10.7194800   93.1997500   -15.3902300   66.5137400
   64610770000   -15.4719900   98.2034100   -10.4098500   90.6248700    -2.1655920 -176.4087000   -12.3350300   70.5544100 
 		     -10.2070600   89.3635000   -16.3534800   86.7211700   -13.0048300   78.4939300    -2.2403290 -175.8182000
 		      -2.1450500 -176.7709000   -13.3958600   76.8098400   -14.1337600   60.9774000   -10.6709900   93.2155200
 		     -12.3529700   71.0743400    -1.9350740 -175.0197000   -10.6708100   92.5994100   -14.4379300   63.8786400
   64680760000   -15.4756700   99.3887600   -10.0504700   90.9997400    -2.1654280 -176.7400000   -12.7085300   71.0046000 
 		      -9.7492920   87.1282300   -14.6415100   93.7042500   -12.9011600   78.4411500    -2.1520230 -176.7289000
 		      -2.1291380 -176.0760000   -13.4485800   73.2703900   -14.5472800   61.5821500   -10.7754500   93.3029500
 		     -12.8640400   72.8823900    -2.1025900 -176.2394000   -10.7965200   92.0230900   -15.1606600   56.6205600
   64750750000   -15.3808300   93.1893100    -9.8282640   90.0589400    -2.1627460 -176.7191000   -12.6342800   68.2711600 
 		     -10.2544500   90.0146100   -16.1256000   98.8849900   -12.8049600   78.4830600    -2.1832610 -177.3605000
 		      -2.1830020 -176.4352000   -12.8117600   79.0795800   -14.3369300   64.0178100   -11.0584900   91.4325100
 		     -12.4978500   68.2660600    -2.3350810 -177.2387000   -10.9243200   91.3419600   -14.0558900   65.1378300
   64820740000   -15.7879600   94.5794400    -9.6226180   85.7112000    -2.1293270 -177.3409000   -12.8339900   68.1719700 
 		     -10.0647000   88.0548600   -16.8504600   99.2203500   -12.7603800   79.3096700    -2.1536850 -177.1550000
 		      -2.2573180 -176.9007000   -13.0104000   83.4693500   -13.7489300   60.1736400   -10.8832800   91.5388600
 		     -12.7782200   67.0834900    -2.1324540 -177.6860000   -10.7566000   90.8445500   -14.1309000   60.3649700
   64890730000   -15.0702800   98.5455600   -10.1773500   83.7062000    -2.1693780 -176.9651000   -12.5795700   68.8837100 
 		     -10.3791400   88.2249100   -15.0118600   95.8041500   -13.1869400   75.0684700    -2.2997240 -176.5438000
 		      -2.2176780 -176.9606000   -13.0345400   76.0105500   -15.1524400   60.2133800   -10.7984400   90.4962600
 		     -12.4777900   70.5500000    -2.4093940 -176.5281000   -10.7110100   90.6985800   -14.9264200   65.9218900
   64960720000   -16.0452300   86.1264500   -10.1061200   88.9884900    -2.1176760 -177.4139000   -12.5096700   70.6309600 
 		     -10.2307400   89.0706700   -14.9049400   90.2712000   -12.7295300   77.4627000    -2.1316810 -176.6055000
 		      -2.1414370 -176.9028000   -12.8429000   77.0671500   -14.6750000   63.1667000   -10.7342500   92.9172400
 		     -13.0383400   68.9472500    -2.2334820 -177.1263000   -10.6551400   91.3777800   -14.8306200   64.8220100
   65030710000   -15.8497300   94.4390700   -10.5193900   89.1739700    -2.1504190 -177.4847000   -12.5990500   65.9991500 
 		     -10.5834000   88.9421000   -16.2798000   92.4634700   -12.7860600   76.8435500    -2.1818070 -177.7318000
 		      -2.2577840 -176.3247000   -12.8911700   75.8434700   -13.9467400   58.2551500   -11.1342200   91.3356600
 		     -12.8796600   68.0489100    -2.2621190 -176.8101000   -11.0141200   89.6788300   -13.4224800   63.0127400
   65100700000   -14.7050000   95.0456800   -10.1766000   85.7609300    -2.1179910 -177.7596000   -12.9083600   70.3557400 
 		     -10.3209600   87.0655700   -16.0550500  102.5723000   -12.9107600   75.4164000    -2.3292930 -178.0632000
 		      -2.0928000 -177.1071000   -13.4721400   75.5724300   -14.7845700   60.3904300   -10.6080000   91.8396300
 		     -12.7367100   69.4803500    -2.3139320 -178.0202000   -10.6947700   91.6802100   -15.6587200   58.9361800
   65170690000   -15.0289800   89.4332700   -10.5799000   86.6748200    -2.1905840 -177.6977000   -12.4239300   71.0502100 
 		     -10.4047100   87.7154800   -15.4910000   92.2388000   -13.1043100   76.2933300    -2.2200130 -177.3553000
 		      -2.1915710 -177.3926000   -12.4405300   77.5080500   -14.1185000   61.0142300   -10.5864500   92.9379500
 		     -12.4436700   70.3103300    -2.1694970 -178.1147000   -10.7275900   92.5889600   -15.9803300   69.7947800
   65240680000   -15.6373700   97.6882600   -10.2364500   81.6807800    -2.1656070 -177.7966000   -12.8258200   67.4080600 
 		     -10.3112300   85.9434900   -13.8273200   88.7298700   -12.7145100   73.8973400    -2.2131740 -177.0139000
 		      -2.1745570 -177.0622000   -13.3233100   71.5798900   -13.9798100   60.7749400   -10.8624100   90.7061100
 		     -12.9946200   64.1145300    -2.0244540 -176.2317000   -10.9894800   89.3307000   -14.1942100   60.0918100
   65310670000   -15.2255300   86.9101200   -10.6154700   87.0162600    -2.1018730 -177.8719000   -12.3730800   70.3652600 
 		     -10.5913900   84.9857400   -17.5767900   89.9047300   -13.0516400   74.1378100    -2.1995190 -177.8926000
 		      -2.2024870 -177.9381000   -13.5460000   78.2457100   -15.0598900   59.5044100   -10.4783400   90.4229400
 		     -12.4320400   71.4503700    -2.0762330 -177.9173000   -10.6437600   91.4237400   -15.7505800   63.8582300
   65380660000   -16.1476400   92.0950900    -9.9056960   87.4997900    -2.2006680 -178.9626000   -12.5667400   69.3976800 
 		     -10.2039200   86.1428100   -16.9051600   91.5052100   -12.8906200   77.5478100    -2.1247330 -177.9628000
 		      -2.4103070 -179.3875000   -13.4900700   79.4046900   -14.0637000   63.9244800   -10.9493600   90.1881700
 		     -12.7983000   69.9921700    -2.0252910 -178.0198000   -10.9275400   91.2830000   -14.9902500   62.3291600
   65450650000   -15.2847000   95.4237100   -10.6137100   82.1520100    -2.1884390 -178.8277000   -12.7539800   69.0401500 
 		     -10.3399900   85.8412900   -16.6560700   95.3904400   -12.7422800   75.9475900    -2.1142590 -178.8445000
 		      -2.1851330 -178.5542000   -12.7373900   74.8367400   -14.3940400   58.2515300   -10.9628600   92.3184800
 		     -12.7894900   67.2037700    -2.3256430 -179.0330000   -11.0773100   91.5358900   -14.7469100   55.4464000
   65520640000   -15.2512000   96.0616600   -10.2491900   85.7779200    -2.1337300 -178.7123000   -12.9585100   67.8490500 
 		      -9.9634050   87.5911900   -14.6208100  102.7259000   -12.7212800   75.1261100    -2.3034790 -179.6948000
 		      -2.2696390 -178.9117000   -12.6712200   75.4057800   -14.9620300   62.0678900   -10.9689300   91.0272400
 		     -12.8688700   66.7001600    -2.3312520  179.0875000   -11.0278500   90.7959600   -14.8584900   53.9848300
   65590630000   -15.1800200   92.5516100   -10.0306000   85.7321000    -2.2377180 -178.5507000   -12.1841200   67.2595200 
 		     -10.5750500   82.8285800   -15.2198700   86.4840400   -12.9721000   72.8614000    -2.1116570 -177.5922000
 		      -2.4179160 -178.6059000   -13.2552900   73.9657400   -14.0665400   60.6482400   -11.0042200   89.0830300
 		     -12.1259600   67.7353800    -2.1235790 -178.8220000   -10.9023100   90.4637600   -15.0934700   69.0328000
   65660620000   -16.4945600   94.9932500    -9.6687760   84.8535900    -2.1752020 -179.0099000   -12.6642300   67.8408400 
 		     -10.3927000   86.5397400   -18.7844000   90.3167600   -13.0513700   74.7604900    -2.1058470 -179.1356000
 		      -1.9890780 -179.2366000   -12.6815700   75.5382200   -14.5557500   58.3003000   -10.8887400   89.8710000
 		     -12.6108100   68.9548200    -1.8952900  179.3989000   -10.8780800   89.5820800   -14.2821000   59.3170000
   65730610000   -14.4583300   93.0895200   -10.5885800   88.2706100    -2.1738600 -179.3861000   -12.7648300   65.8019900 
 		     -10.3204000   85.2668200   -15.6714300  101.6471000   -12.9661300   77.6862900    -2.2397530 -179.6887000
 		      -2.1137040 -178.3316000   -13.5828900   82.8657000   -14.3140400   59.4498100   -10.9561200   89.9245300
 		     -12.6431300   66.1477700    -2.2141520 -179.7783000   -10.8338200   89.7392900   -14.8828000   57.4310700
   65800600000   -15.0077000   98.7249500   -10.0818800   88.0613900    -2.2006390  179.9965000   -12.8327900   67.7184000 
 		     -10.6906800   87.1812400   -15.4848400   81.7533600   -12.9330500   73.7264200    -2.2530040 -179.7713000
 		      -2.1436510 -179.7810000   -12.0078500   74.4689600   -13.6914200   60.0219400   -11.2302500   90.9630500
 		     -12.5712900   66.5040400    -2.2494350 -178.3878000   -11.0797500   90.9873300   -15.4162600   61.9505000
   65870590000   -15.9270300  100.5181000   -10.0948600   86.5008200    -2.1632800 -179.4712000   -12.9691200   65.3283100 
 		      -9.8990390   86.0206000   -15.3544200   99.5973800   -12.6611700   74.4243200    -2.1806620 -179.5916000
 		      -2.1777050 -179.7989000   -13.2557500   76.9597700   -13.9199400   58.8328300   -11.2995300   87.7832900
 		     -12.9044400   65.1052900    -2.2849620 -179.0579000   -11.3975200   88.5184200   -13.6914700   57.9429600
   65940580000   -15.5251400   97.3861000   -10.0582900   83.2590500    -2.2451870 -179.4034000   -12.7993700   65.3434300 
 		      -9.5501770   87.9662200   -16.5282500  119.8056000   -12.9235800   77.4624600    -2.3374490  179.1399000
 		      -2.2632660 -179.4811000   -12.8271300   79.3016800   -14.3380000   57.0965700   -11.3523300   87.8115200
 		     -13.0190300   63.0162700    -1.9441390 -179.8087000   -11.2893600   89.1450900   -13.7592800   61.6119700
   66010570000   -16.1054600   97.5887300   -10.3847200   85.3104500    -2.1534440  179.6454000   -12.9517000   68.1714300 
 		     -10.4796000   85.8860700   -14.4461300   87.0722700   -12.7257000   72.5398600    -2.3719930 -179.8333000
 		      -2.1513910 -179.8885000   -12.7831200   71.8354700   -13.9909000   56.5660900   -10.9752900   91.1422700
 		     -13.0988000   67.5465800    -2.1998300  178.8598000   -11.0671600   91.6231400   -14.9396000   59.0255100
   66080560000   -15.5910300   94.1415800   -10.7443400   88.0671400    -2.2238090 -179.3137000   -12.5085400   68.0280700 
 		     -10.3018200   86.3242300   -17.6784100   82.2683900   -12.8483100   72.5053600    -2.0418740 -179.5334000
 		      -2.1691110  179.0440000   -12.3843200   74.5947600   -14.0511100   58.1216500   -10.7947500   89.4833500
 		     -12.4338100   66.3900500    -2.2134500 -179.6396000   -10.6985200   89.8781300   -14.5780900   65.0486200
   66150550000   -14.7877200   95.1451200   -11.0226300   81.0164600    -2.1751090 -179.7216000   -12.2479000   66.4415100 
 		     -10.3087900   85.4821900   -13.9003900   89.7178600   -12.7927100   72.1022000    -2.2712990 -179.7808000
 		      -2.1458930 -179.4113000   -12.0109600   77.3333100   -14.1670000   56.9253500   -11.0397900   90.2365100
 		     -12.5611400   66.7957200    -2.5561600  179.8048000   -10.9165300   89.0622700   -14.6834300   63.9551400
   66220540000   -15.3784900   92.7605200   -10.4628500   81.4339800    -2.1711540  178.7413000   -12.5452800   69.0960900 
 		     -10.1081200   86.2238100   -15.1911100   70.5952100   -13.1603000   72.6772200    -2.2091310 -179.6077000
 		      -2.2112700  179.6012000   -13.2552900   76.7554900   -14.0091000   56.6375100   -11.0642200   90.9576000
 		     -12.4168700   69.0100000    -2.0717990 -179.8513000   -10.9169600   91.8015800   -15.7592800   61.5937600
   66290530000   -15.6121900   95.0864200    -9.9707370   83.7218900    -2.2615550  179.0658000   -12.8163300   65.5995400 
 		     -10.3888400   82.2223400   -17.2092100   87.9792600   -12.6717700   75.5799300    -2.3026590  179.0861000
 		      -2.1915230  179.3344000   -12.4633400   73.8870400   -13.9730600   59.7492000   -11.2544700   89.6698800
 		     -12.6302800   66.4884600    -2.0413150  177.7249000   -10.9489800   88.4961500   -14.5019700   58.6890200
   66360520000   -15.4166900   87.9120200    -9.9247230   87.0089200    -2.2319400  179.9252000   -12.3579800   70.3144400 
 		     -10.5882700   85.7461300   -16.9748100   78.7266700   -12.8781500   72.9758900    -2.2906540 -179.6833000
 		      -2.0648590 -179.7849000   -13.3228900   72.7071200   -14.2153300   53.2325900   -10.5510000   91.5613600
 		     -12.3102300   69.2072300    -2.3267350 -179.8419000   -10.7895500   90.6456500   -16.2963900   66.6531900
   66430510000   -14.4222000   87.3653300   -10.1906600   84.8626500    -2.1364300  178.9449000   -13.0882800   67.1686400 
 		     -10.2447500   85.7573000   -17.4363800   88.8704400   -12.6207500   73.7236400    -2.3168780 -179.7288000
 		      -2.0928860  179.5463000   -12.4649500   74.8952000   -13.9874400   57.5120000   -11.3043400   93.1004200
 		     -13.2433900   68.1198300    -2.6102500 -179.2544000   -11.2665700   91.1347000   -14.6882300   51.6354300
   66500500000   -15.9050700   95.2117500   -10.0949400   88.7899800    -2.2864620  178.6597000   -12.6534100   68.9042500 
 		     -10.1236200   85.7964600   -16.7082500   87.6210500   -12.5821200   74.1434900    -2.4457610  179.7162000
 		      -2.2267310  178.8785000   -13.0632000   72.8011900   -14.0646700   58.7313400   -10.9902400   89.9017200
 		     -12.7079400   67.9101100    -2.8222390 -179.8421000   -10.9076700   90.7298600   -15.3997600   60.0679500
   66570490000   -14.9435300   91.4318300   -10.5954700   86.9390700    -2.2382270  178.3162000   -12.7551200   65.4063000 
 		     -10.0500000   84.2271500   -15.6039300   89.2543200   -12.8764900   75.9347400    -2.4168040  179.1707000
 		      -2.4345720  177.9664000   -11.9709400   75.8371800   -14.2056400   54.9724700   -11.2491800   90.0522700
 		     -12.8675100   68.2790000    -2.4648780  176.5376000   -11.0388500   89.4218400   -14.9478500   55.2362400
   66640480000   -14.9982400   91.2933100    -9.7562140   84.1906000    -2.2792110  178.0775000   -12.4629500   67.8788900 
 		     -10.0411200   84.4127300   -13.2537900   78.4308700   -12.6884100   73.4716400    -2.1745500 -179.9977000
 		      -2.2483720  178.7533000   -12.1517100   66.8914800   -13.8731100   51.7271500   -10.8203300   90.4389200
 		     -12.1692400   65.7046200    -2.0334630  179.0229000   -10.9451700   89.1402100   -15.5476300   60.8354800
   66710470000   -15.4971900   97.0678300    -9.6546740   87.4417800    -2.1520730  178.1812000   -13.2461700   68.2537800 
 		     -10.4006100   85.2801700   -14.7962000   84.4933100   -12.8573100   71.8138000    -2.2116930  177.9109000
 		      -2.1630610  177.8922000   -13.3048300   74.9155600   -13.5082000   57.0706600   -11.3354800   89.9707100
 		     -13.3238600   66.9584400    -2.2562770  177.6647000   -11.2804600   90.9599900   -15.2556200   48.7248400
   66780460000   -14.9217600   89.9401600   -10.2268400   86.9464200    -2.1192770  178.8017000   -12.7398600   68.4084800 
 		     -11.0723300   81.6950400   -13.4815500   91.5595500   -12.6658800   71.1626500    -2.1745660  179.6233000
 		      -2.1456870  178.3487000   -12.1567300   72.7385200   -14.2341400   55.4030500   -10.8107700   91.0206400
 		     -12.7384600   69.6325800    -2.3531960  179.3196000   -10.8259000   90.9425600   -16.4929200   53.3269300
   66850450000   -16.0198900   97.0701400   -10.5771400   83.4140600    -2.1480560  177.8799000   -12.5106800   64.2882500 
 		     -10.6749900   83.3772300   -15.2077900   80.3641000   -12.9200000   71.8633300    -2.1692400  177.5570000
 		      -2.1346970  178.1970000   -14.1263800   73.1381300   -14.0607700   56.2515600   -11.2400500   87.5044800
 		     -12.7105600   65.5519000    -2.1962340  177.1028000   -11.2708000   88.1919600   -13.7499200   57.9848800
   66920440000   -14.5133200   96.7253000    -9.8594600   80.5323200    -2.2747550  177.6505000   -12.7647600   67.4624300 
 		      -9.8254410   84.3857400   -15.1394500   72.5533100   -12.4962100   69.9744300    -2.1829810  178.6536000
 		      -2.2490390  178.1814000   -12.3859300   69.2678800   -14.1163200   54.0020500   -11.1117500   89.6018100
 		     -13.0799600   64.3617800    -1.6747650 -179.7599000   -11.3657600   90.3104900   -15.1520100   48.0078400
   66990430000   -15.8412600   92.4425200    -9.7832220   80.7549500    -2.1487720  178.7079000   -12.5400100   63.3124600 
 		     -10.4309100   88.3594500   -12.8322200   92.6276800   -12.8392000   73.6396900    -2.1723400  179.0976000
 		      -2.1378600  179.0423000   -13.6782800   69.1889200   -14.8960300   52.6642300   -11.0473800   87.8323700
 		     -12.5422300   61.5388800    -2.5573730  179.2644000   -11.2400200   88.5410400   -13.3853300   61.0007300
   67060420000   -16.0702900   96.1746400    -9.8580150   86.3980800    -2.3378660  177.9424000   -12.1706300   65.6220300 
 		      -9.9804420   82.7433100   -17.6035100   95.9316100   -12.9741600   72.8617400    -2.0960820  177.4369000
 		      -2.2906800  175.9828000   -13.1575400   71.9897900   -13.5311600   44.7718200   -11.0675600   88.7987000
 		     -12.1402500   63.6937200    -2.3350190  178.4717000   -11.2675600   89.3812900   -14.2155000   60.1775500
   67130410000   -14.4846300   92.0876200   -11.5513400   79.3151200    -2.3940890  177.6315000   -12.1123300   65.9553100 
 		     -10.8226800   83.3250100   -16.1775000   71.7211000   -12.6734500   72.1807400    -2.0700340  178.2514000
 		      -2.3451950  177.9545000   -12.1799800   74.7880600   -14.5878400   54.8330200   -10.7945900   89.7212700
 		     -11.7364300   67.4073300    -2.0538150  175.2664000   -10.8534400   88.6679300   -17.0949200   63.9457900
   67200400000   -16.1207000   95.1585400   -10.2235000   76.2028100    -2.2207670  177.5046000   -12.2365400   62.9808600 
 		     -10.1765100   82.2152300   -17.5434700   67.6883300   -13.0578100   71.8098900    -2.1902660  176.8606000
 		      -2.2443880  175.8038000   -12.0997200   77.1294500   -13.9387700   55.9752700   -11.1885500   84.5843700
 		     -12.5933800   67.3638700    -2.5214330 -179.9554000   -11.1081100   85.9384800   -14.0882200   66.9361900
   67270390000   -14.1128500   90.2722300   -10.2240500   84.5112300    -2.1308090  176.9738000   -12.3199000   63.4375500 
 		     -10.3473500   86.4372900   -19.6187600   85.9972800   -13.5455800   74.6246100    -2.2092560  177.5120000
 		      -2.0059280  175.5532000   -14.8834200   70.6945400   -14.6254400   52.4678900   -11.1230800   87.4424700
 		     -11.8850100   63.3395600    -1.5822610  176.7074000   -10.8269400   88.1414900   -13.5472500   59.2725000
   67340380000   -16.9574900   90.1417500   -10.1724800   82.0742100    -2.2275470  177.1355000   -12.1691200   59.1195100 
 		     -10.5978900   81.5738600   -18.4244400  105.5305000   -12.8148200   72.9475700    -2.1028960  177.3099000
 		      -2.4281140  176.5105000   -12.5395000   76.0602600   -15.4291500   57.2875400   -11.1471600   86.3336400
 		     -12.5238300   62.4834200    -2.0729750  176.5299000   -11.1313500   83.8543800   -13.6752400   63.1072800
   67410370000   -15.4674900   87.4226000   -10.0190700   89.9399500    -2.2791140  177.3301000   -12.5199000   62.2475400 
 		     -10.5735800   84.1833000   -12.5916800  111.4648000   -12.6020600   72.9113500    -2.2495150  177.4696000
 		      -2.2394040  176.9507000   -11.3156200   70.6045700   -14.6859800   51.1440200   -11.5792500   88.2747200
 		     -12.2092400   63.1235700    -2.6955500  177.9614000   -11.4032000   87.7791500   -14.0631200   55.5798000
   67480360000   -15.0011300   90.9790900    -9.6181960   81.1650700    -2.2490380  177.3914000   -11.9675800   63.1672400 
 		     -10.5054100   83.4272700   -17.1307500   77.1285400   -12.7348200   73.2427600    -2.1209790  177.0051000
 		      -2.3097360  178.7890000   -14.8793400   78.3742500   -13.8854000   50.1679800   -10.8283600   88.6284200
 		     -12.1553100   62.2262300    -2.3210540  174.3048000   -10.7179500   86.9036600   -14.3761700   60.4624200
   67550350000   -13.6832600   94.9316900   -10.8995200   77.5655800    -2.2671500  176.9723000   -12.5460000   63.1797300 
 		      -9.6964060   84.8348000   -17.0557700   95.1121400   -13.5286300   71.1497800    -2.2139580  175.7135000
 		      -2.2227390  177.0954000   -12.4321300   62.3519800   -15.2056300   48.3462600   -11.4050700   89.7390300
 		     -12.5514500   66.4326900    -2.4678170  175.8121000   -11.5395100   89.5301100   -14.4846400   53.3421700
   67620340000   -16.3296300   80.7381100    -9.9433320   84.1044200    -2.1701660  176.5020000   -12.6759000   60.9633000 
 		     -10.5043800   84.6300500   -13.7829600   99.3436700   -12.5055300   70.6162600    -2.2836620  175.3891000
 		      -2.1703460  178.7262000   -11.3887500   65.0314900   -14.5950700   62.7693300   -10.9953100   87.4407300
 		     -12.9082900   56.2318100    -1.6827290  178.7364000   -11.1733600   85.7296800   -13.3250400   51.2671800
   67690330000   -14.8449700   83.3827500   -10.0770600   82.4691500    -2.3761130  176.0722000   -12.3596000   60.2736000 
 		      -9.9152410   81.9193000   -15.8392300   93.7082100   -12.7430600   70.7175900    -2.2315230  177.3792000
 		      -2.1715330  176.6446000   -12.0402000   69.0482700   -14.9612000   46.8973800   -10.9944400   84.6245300
 		     -12.5494100   62.7576400    -2.1940130  176.0897000   -11.1019600   84.9149900   -14.5252200   59.5376000
   67760320000   -15.2903000   87.1574200   -10.0890000   83.7571300    -2.3746090  175.5588000   -12.4541500   66.4406400 
 		     -10.3826800   80.3949400   -16.6420200   71.8236500   -12.9111200   70.8757600    -2.2309480  176.8622000
 		      -2.4320240  175.5809000   -14.7035800   75.3431500   -14.6065600   54.5800100   -11.1536100   89.7650300
 		     -12.6476000   65.2328000    -2.8272410  175.9161000   -11.0029500   89.2223100   -17.2430800   57.3609400
   67830310000   -15.2407200   94.4586900    -9.6087660   79.8925700    -2.3443100  175.3260000   -13.2896100   66.8672100 
 		      -9.9845620   78.4876100   -11.4148500   74.6848300   -11.8258200   69.5880400    -2.5269070  176.6534000
 		      -2.6061330  176.2477000   -13.8176400   73.8580500   -14.1188200   56.6162600   -11.3592600   88.6392400
 		     -13.2921900   66.7839000    -2.1105870  174.8729000   -11.4295800   89.0898500   -15.6253000   42.2688300
   67900300000   -15.2922000   91.8943400    -9.3292510   80.3359600    -2.1416790  176.3152000   -12.0258700   63.6032200 
 		     -10.9854500   84.3283500   -16.4864300   61.4792500   -12.5868200   68.2628900    -2.1064570  175.8754000
 		      -2.1845820  177.0487000   -14.3806600   58.9714600   -14.4530900   47.1682600   -10.7584300   86.5888100
 		     -11.6360300   62.1938400    -1.8771390  179.3980000   -10.8101500   87.1504200   -15.2190400   61.0761800
   67970290000   -15.2222800   80.8688800   -10.5549000   86.5347100    -2.1665100  176.5223000   -12.3560100   60.8103500 
 		     -11.5028700   81.6142400   -18.2302500  115.1957000   -12.4510900   72.5045900    -2.0124010  176.2464000
 		      -1.9361210  176.3218000   -11.4394700   65.0628400   -14.4743300   50.3549300   -11.4165300   86.5323500
 		     -12.8651600   62.2967500    -2.2791720  173.1451000   -11.1311100   85.3206300   -14.3940800   61.4201400
   68040280000   -14.5943400   87.7775300   -12.9453400   86.7511400    -2.1363010  175.7956000   -11.8613700   60.4881100 
 		     -11.1931400   80.8725100   -13.5783000   85.6250200   -12.2878100   64.2525000    -2.4121530  177.2414000
 		      -2.2010670  176.7096000   -11.8823100   66.7630800   -14.6953500   56.2007900   -11.1703500   85.5495500
 		     -12.0627000   57.8768300    -2.4130790  176.7846000   -11.1229800   84.3289000   -14.0840000   63.7909900
   68110270000   -15.8520800   96.0057400    -9.6499110   75.6539800    -2.1963330  174.8548000   -12.4070000   61.6634800 
 		     -11.2369500   85.3077000   -12.7556500   77.4227100   -12.8572600   69.8690900    -2.3294390  177.1099000
 		      -2.1904650  175.1846000   -14.2331000   74.7692200   -14.7430900   53.2259100   -10.8695800   85.1889600
 		     -11.8996500   63.1722900    -2.7336980  175.8315000   -11.1258600   85.7241800   -14.7390000   53.2722300
   68180260000   -12.6949700   85.3249700   -10.8545600   61.0280300    -2.1727610  176.0283000   -12.2092700   61.6364800 
 		     -10.4646800   80.2126500   -18.8547000  107.9179000   -12.3030000   70.9611200    -2.2948740  174.9259000
 		      -1.9821540  176.7766000   -11.7768100   68.8540300   -14.9728300   45.3286500   -11.1401000   88.4198800
 		     -12.1774800   57.7470300    -1.8157460  172.3634000   -11.0545900   87.8171600   -15.4050600   54.6951500
   68250250000   -14.6113500   84.9779700    -7.8891620   78.9923300    -2.4653480  173.8936000   -12.3482500   69.2365700 
 		     -10.5022100   80.8556100   -19.2520000   67.2333100   -12.1476500   72.2191200    -2.2582850  177.2348000
 		      -2.4521060  173.5077000   -15.0408400   72.4634200   -13.5439000   54.2146100   -10.8441900   85.1494800
 		     -11.6059500   66.1589800    -2.1397420  174.1671000   -10.6172800   86.4813400   -18.6160500   66.1325800
   68320240000   -15.5880900   80.2790100   -10.3203300   89.4180100    -2.1854200  174.3157000   -11.5467000   58.6094100 
 		     -10.7985000   83.4650000   -29.3966900  113.1184000   -12.7617300   70.6353600    -1.9685320  173.8237000
 		      -2.2320460  175.3172000   -11.6052100   70.6600700   -14.4717900   53.8311000   -10.8752000   83.0636100
 		     -11.9910900   62.0551000    -1.4750850  175.5770000   -10.7178300   82.5749300   -16.0128400   63.6366800
   68390230000   -15.8475100   93.9684100   -10.0620400   85.2359300    -2.3485890  174.7457000   -11.8642600   57.1613200 
 		     -10.7212100   80.6550000   -15.9215700   89.7418100   -12.6566800   72.2156800    -2.4196310  175.1506000
 		      -2.2025250  176.8027000   -12.6303100   73.0931600   -14.4577600   48.5107800   -11.4035600   84.9072000
 		     -12.6910500   63.5609500    -2.0961030  175.2116000   -11.5263200   82.3481700   -13.4928000   61.9611100
   68460220000   -14.2245300   81.2842800   -11.7821600   64.2858000    -2.1792290  174.5623000   -11.6906900   61.8575400 
 		     -10.6191100   83.9933500   -14.3230100   71.0871000   -13.0139600   70.0011500    -2.1059680  173.6322000
 		      -2.3864270  176.7076000   -12.1709100   43.7470800   -13.9932400   52.6001700   -11.0063600   87.1386000
 		     -11.7336600   63.6735400    -2.0651750  173.5978000   -10.8078800   86.2948200   -15.8554200   63.5836100
   68530210000   -15.1281600  101.3819000   -10.5644000   75.5075200    -2.2208800  174.0327000   -13.1163800   58.2623100 
 		     -10.8402800   78.6066900   -13.7870900   80.5661800   -12.8052800   67.5662200    -2.2574620  171.5475000
 		      -2.2525090  172.5772000   -11.6912600   66.3264800   -14.6394700   52.7623300   -12.2406600   87.2178300
 		     -13.1643200   55.7898800    -2.2100450  171.9424000   -11.8889600   89.2348600   -13.5683000   35.8662800
   68600200000   -15.7878800  106.5353000   -10.2469900   92.5123400    -2.2083050  173.6691000   -11.8549200   55.2299300 
 		     -12.2984000   86.7954300   -15.7568800  112.2391000   -12.7848300   68.4860300    -2.1009960  173.5744000
 		      -2.5384530  171.5511000   -12.0434900   68.1511200   -14.0655800   58.2824100   -11.4643000   80.3101400
 		     -11.4025100   62.8004600    -2.4430480  172.1313000   -11.1234000   82.3852100   -14.9740200   64.0869500
   68670190000   -12.7664500   82.1627000    -9.2751800   69.9311400    -2.2084420  174.1143000   -12.2736600   63.9497200 
 		      -9.9051360   79.2695200   -14.6352100   90.9359700   -12.2793600   68.4369600    -2.4851420  175.1458000
 		      -2.1276210  175.7138000   -12.9427000   59.0729200   -14.3450000   47.2986700   -10.9389900   90.4728800
 		     -12.2144200   59.3433600    -2.4789220  177.5240000   -11.6022500   87.4499200   -14.7471100   56.6853000
   68740180000   -15.2347100   82.6238100   -11.5230000   80.5920800    -2.1607940  172.1094000   -12.7805200   61.6437000 
 		     -10.2087000   80.0327000   -13.4775400   56.2954700   -12.8380200   68.7026000    -2.3420750  174.5346000
 		      -2.2066920  173.0897000   -11.1877400   77.8327600   -14.0165500   54.4594700   -11.8474700   92.2783400
 		     -13.2250900   63.0862500    -2.1750520  175.6003000   -11.3319900   90.4303600   -15.6181700   36.7820300
   68810170000   -15.1463800   87.1139800   -10.2688500   82.0700100    -2.3446760  173.1081000   -11.9920100   60.6897000 
 		     -10.6475800   77.2948200   -15.6661200   73.6023500   -12.2170100   66.4865300    -2.4256240  174.2170000
 		      -2.3671990  175.0244000   -13.1311400   81.5333600   -13.9546300   50.6858300   -11.2496100   84.4030100
 		     -11.8525200   62.2577700    -2.7221890  171.3706000   -11.2357900   84.4969800   -17.7355900   62.4421300
   68880160000   -16.4090000   71.4790200   -11.0625500   76.5074800    -2.2724540  173.6898000   -11.0835600   61.4312600 
 		     -10.0057900   76.2782100   -15.7091000   69.6050500   -12.2764300   65.4678000    -1.6642520  177.9634000
 		      -2.5217800  172.1502000   -11.3125100   66.2566500   -14.0743300   48.8430900   -10.4862400   84.3764700
 		     -12.0744100   61.8231900    -1.8545950  173.5247000   -10.6514900   82.2986400   -16.5814300   90.9838700
   68950150000   -15.5107700  114.7502000   -10.1091300   85.9596200    -2.3272840  173.4109000   -12.8044600   49.4255300 
 		      -9.7976370   86.6362500   -17.1264600   92.1436100   -12.6296400   74.9245700    -2.2249820  169.7475000
 		      -2.3471330  172.8434000   -12.5326400   66.3694200   -13.3837800   50.8688000   -12.7973200   82.3797500
 		     -13.7268400   46.9870300    -1.9416920  168.4664000   -12.7981200   80.8686800   -11.2161100   43.8443200
   69020140000   -13.3156100   87.3829200   -10.9716600   84.8768400    -2.0777850  172.7135000   -12.9120700   53.2834200 
 		     -10.5889400   81.8082600   -13.4754300   86.1754800   -12.5511900   68.5826000    -2.3074430  175.4437000
 		      -2.0836390  174.6597000   -17.7850600   72.9826000   -14.4273600   42.7948800   -11.6448700   84.3146100
 		     -14.2580700   56.3682600    -2.3196950 -179.0470000   -12.5844900   85.6983900   -13.8554500   39.9413300
   69090130000   -14.6943100   61.2515600   -10.9480600   84.9399900    -2.4201890  173.3484000   -12.0035600   58.5798500 
 		     -10.7167400   83.2214300   -18.0324400   53.3030800   -13.4809700   70.3872900    -2.0017040  172.8680000
 		      -2.4825490  174.6250000   -14.0466400   67.3017600   -15.2653800   45.7898100   -11.2186100   84.8764400
 		     -12.0089900   57.1255900    -1.4025170  174.4067000   -11.0067700   84.3649100   -13.8002100   65.6852900
   69160120000   -15.3618400  100.1962000   -10.7808600   88.8005400    -2.2333350  171.8914000   -11.4877800   57.1619800 
 		     -11.5469200   81.1581600   -19.3863700  -10.4582800   -14.1869000   64.5165900    -1.9843580  172.6093000
 		      -2.3200390  170.7312000   -11.6110000   65.9873400   -14.2041300   55.2034100   -10.9270900   81.2673100
 		     -10.8442400   56.8249300    -2.3739830  175.8666000   -10.9105000   80.8030500   -13.7760800   65.4593200
   69230110000   -14.5496600   90.7456200    -8.3475120   77.6971100    -2.2768360  171.2566000   -13.7380400   65.0201300 
 		     -10.2363900   78.7031900   -15.1339700   54.7108900   -11.7316800   65.2222200    -2.6009730  170.2008000
 		      -2.3471570  169.0476000   -10.8119500   58.5791500   -13.5934300   45.0669300   -11.8548200   89.5332600
 		     -13.5696800   58.1403400    -3.7307370  173.6200000   -12.2376300   83.1360100   -15.8449900   46.7634800
   69300100000   -14.9277000   90.8659100   -10.2692100   74.9677200    -2.2488180  172.3220000   -12.3297700   60.5043800 
 		     -10.6074000   83.7503700   -13.4350600   98.5659000   -11.8883900   70.5600400    -2.0078860  172.5619000
 		      -2.3970150  172.5574000   -12.1578400   60.7127000   -15.5410600   46.9653100   -11.2132500   87.0790100
 		     -13.1344600   63.3382700    -1.5930230  172.1923000   -11.4416800   86.7247400   -13.6334300   56.4797300
   69370090000   -14.7584700  100.4587000   -10.7716700   80.3124200    -2.3773910  171.4999000   -13.3977400   53.5001300 
 		     -10.0448000   84.0369700   -13.4517000  106.5461000   -11.6651300   73.3357000    -2.3249690  170.1414000
 		      -2.1982920  171.3193000   -11.9013900   85.3099600   -13.5129600   50.8504300   -12.8617600   84.8592100
 		     -13.5788700   50.8805200    -1.7778440  175.9775000   -13.1845300   84.7993900   -11.4335100   27.3661000
   69440080000   -14.7977200   72.8986400   -10.4460700   80.5657800    -2.1481410  173.0279000   -11.2764200   52.6533800 
 		     -11.6309200   79.1078000   -35.2703700  134.0135000   -12.9874000   68.2399400    -1.5710090  170.9529000
 		      -2.3616700  174.5589000   -14.5571200   79.3224700   -15.5874700   46.0988800   -11.0778100   80.1086000
 		     -11.7064900   49.0446900    -1.4337100  171.7332000   -11.1628600   79.1260300   -13.0270100   69.7908200
   69510070000   -15.9077500   85.7223400   -10.3656700   86.2941100    -2.2375250  171.1977000   -12.7627400   57.8983400 
 		     -11.5139500   71.4089400   -12.0259700   61.1968600   -13.1585400   66.5850200    -2.0985620  171.6370000
 		      -2.3629230  171.6149000   -13.7912000   52.5499200   -15.0108400   52.2375300   -11.4984700   86.6898500
 		     -11.7400500   54.8130600    -1.8980260  172.2396000   -11.8645100   86.5028500   -13.8289600   46.9309200
   69580060000   -15.0227000   96.7860500   -11.3506600   89.4259300    -2.1417610  170.9429000   -13.2298800   57.8967200 
 		     -10.7287800   83.1013300   -13.7284600   87.7989900   -12.4771700   69.4449200    -2.6688980  170.6579000
 		      -2.4979250  168.3551000   -13.2277100   64.1806500   -13.3132400   53.4571800   -11.8434100   83.7773100
 		     -13.1012600   62.7583600    -1.8426350  163.8664000   -11.8643800   88.0421100   -15.7606000   16.3995700
   69650050000   -12.4998500   81.8674000   -10.0760900   64.5504800    -2.0328970  172.0811000   -12.0138600   54.9611300 
 		     -10.7391300   77.4386800   -14.3202900  111.4953000   -12.4951800   62.3265100    -2.1047550  169.3398000
 		      -2.0128650  170.5204000   -11.0886100   64.3013300   -15.5360000   30.3944600   -11.8310300   84.6788300
 		     -12.3410900   57.6549200    -2.3395300  168.6788000   -11.8729100   83.0456400   -14.4073500   66.9546400
   69720040000   -16.3438900   91.4293400   -12.0777600   77.2811400    -2.6886800  170.1964000   -12.9066000   62.6905700 
 		      -8.5184760   72.6597300   -10.4100100   83.3798400   -11.0798100   69.2133300    -2.1670330  174.5762000
 		      -2.6080100  171.4193000    -9.0929160   81.4046500   -14.2496200   64.1419600   -12.0484000   96.8454300
 		     -14.3971200   65.3346600    -2.7427490 -177.8017000   -11.9023400   93.5903800   -13.0065700   10.9651500
   69790030000   -14.1016200   79.2991800    -8.5583190   77.7566500    -2.0164460  169.4813000   -13.7235300   57.9120400 
 		     -11.7440600  101.6143000   -10.6282500  -18.4381200   -13.6716400   81.3910000    -2.2075290  171.1123000
 		      -2.3086310  173.0012000   -15.2004200   48.9745100   -12.1976300   44.4203700   -11.5206400   84.3323600
 		     -12.6031500   51.0468800    -1.4350350 -165.4664000   -12.4453800   87.5213500   -15.0354400   38.7574100
   69860020000   -15.8401800   65.2196100   -13.1878400   98.3075300    -2.1136870  170.8827000   -11.6358300   59.2288300 
 		      -9.4657260   87.2849000   -16.5240100  100.4816000   -12.5242300   60.8256600    -2.4797720  174.8359000
 		      -2.5962100  166.6530000   -12.2902200   42.9601900   -18.6171400   31.2394700   -10.9661700   81.7904200
 		     -11.8729400   52.4608300    -2.6651230 -168.6701000   -10.2761000   85.9236800   -12.7220600   56.0887900
   69930010000   -15.5285900  109.1605000    -8.0046460   76.0177000    -2.4851790  168.8056000   -15.0337800   63.8393200 
 		      -8.7760760   73.8392400   -11.3236900   67.7884500   -11.9292400   69.4597900    -2.3933200  166.5372000
 		      -2.6298410  170.4725000    -7.9561710  112.1226000   -11.0044600   72.0902600   -14.4222500   98.3685100
 		     -12.9398200   65.5081900    -1.9391470  162.1278000   -12.7655600   93.5332600   -21.4458000   29.2706900
   70000000000   -13.9504500   58.3814600    -9.9382530   53.3196400    -2.6397980  175.6153000    -5.4072020   72.3014200 
 		     -14.9996600   65.7718300    -7.3718080   -8.4139590   -14.6949800   46.2296600    -1.0056660  178.5030000
 		      -3.0877600  175.6411000   -11.4939100   49.0176700   -12.3701900  -13.5941800    -5.4439920   83.4648400
 		      -9.9782730   74.8102400    -1.5128430 -161.3958000    -7.3501130   89.4641600    -6.0743070 -115.7554000
