!Pstart = -2.000000E+001
!Pstop = -1.000000E+001
!Pstep = 2.564103E-001
!
! 4/30/2026 12:19:54 PM
! C:\ANRITSUVNA\TEMP\TEMP.S4P
! CHANNEL.1
! TR.MEASUREMENT
! CORRECTED.DATA
! RF.CORRECTION: FULL.FOUR.PORT.CAL.PORT.1.2.3.4
! AVERAGING.OFF
! IF.BANDWIDTH: 100HZ
! SWEEPTYPE:  FREQ.SWEEP(Linear)
! Reference Plane Port Info
! DISTANCE:          0  m               0  m               0  m               0  m
! TIME:              0  s               0  s               0  s               0  s
! PHASE.OFFSET:      0 °                0 °                0 °                0 °
! LOSS:              0  dB              0  dB              0  dB              0  dB
! REF.LOSS:          0  dB              0  dB              0  dB              0  dB
! REF.FREQ:          0  Hz              0  Hz              0  Hz              0  Hz
! Power Info
! POWER:             -20  dBm           -20  dBm           -20  dBm           -20  dBm
! EFF.POWER:         -20  dBm           -20  dBm           -40  dBm           -40  dBm
! SOURCE.ATTEN:      0  dB              0  dB              20  dB             20  dB
! TEST.ATTEN:        0  dB              0  dB              20  dB             20  dB
!
! Created with skrf 1.9.0 (http://scikit-rf.org).
# Hz S RI R 50.0 
!freq ReS11 ImS11 ReS12 ImS12 ReS13 ImS13
! ReS14 ImS14
! ReS21 ImS21 ReS22 ImS22 ReS23 ImS23
! ReS24 ImS24
! ReS31 ImS31 ReS32 ImS32 ReS33 ImS33
! ReS34 ImS34
! ReS41 ImS41 ReS42 ImS42 ReS43 ImS43
! ReS44 ImS44
!
10000000.0 0.9991825851947452 0.001805357942152625 1.899948037408946e-05 7.975449652068081e-05 0.00020925229883048992 3.639697578827069e-05 -0.00015396607020201104 -9.313758608770072e-05
 -1.582982367374603e-05 4.312706931694264e-05 1.0000276801369028 -0.005761970496738589 -3.9313965397877255e-05 -0.000391630686555096 0.00011235417941768321 -9.552839325542812e-05
 0.0007034883478181036 0.0008907889685975989 5.537701549654059e-05 0.0008755785748506997 0.9940884809048347 0.004767133882153294 0.0028311794762110637 -0.0057727105799220855
 0.00016050656890457507 -0.0007514460421416466 -9.947750133015004e-06 0.0010063308397198884 0.005810179912969541 -0.001067974572316126 0.9973676126418843 -0.0028140655312778955
79990000.0 0.9983382285429617 -0.005035122099537709 1.877524945264522e-05 0.00041236406183814064 -3.823317977153893e-05 0.00010076079022285424 0.00021449542263945193 -5.488287999849751e-05
 4.6628498866682293e-07 0.00044122464005280464 0.9978789590831489 -0.007508704702553678 1.920665666709591e-05 -8.41150287556581e-05 3.8520322663303916e-05 0.00020174388899670857
 -1.147333941757854e-05 -3.2260607541623116e-05 -0.00010425747244473833 8.726773757870069e-05 0.9952288176357121 -0.005487710348794221 8.33698475711574e-05 0.00033242883229144324
 0.00022315009484428822 -0.00023487857527752378 5.2158862303313556e-05 -0.0001106640426077743 0.0005732941595155299 -0.002675194318632276 1.0004186579687564 -0.007172741609189507
149980000.0 0.9982000436561279 -0.005657581797778978 5.642186074954914e-06 0.0007645874681310331 -8.133181392191464e-06 0.00012415311310295224 1.6893556739261716e-06 -0.00019076138663220112
 3.5666998768628464e-05 0.0007829514618994445 1.0015424297391937 -0.008274814183664084 6.42369637737336e-05 4.819743751203821e-05 -0.00012961187420366797 -9.641630819539066e-05
 -8.700573362683354e-06 5.221694058252843e-05 -4.940212643661698e-05 0.0003866021958321935 0.9978872400893227 -0.0134398030335705 0.00034049175150702605 9.32665004101531e-05
 4.510835557174914e-05 -0.0002203777238295909 -0.0004141740398292247 7.101630593555617e-05 0.0010860924216907115 -0.00011265334777441454 1.002157344034171 -0.011666572952931574
219970000.0 0.9968338629512257 -0.012908847632042218 5.3991941600916384e-05 0.0011405726435095764 0.0002955649812816581 5.7798393373267565e-06 -0.00021757329798836867 6.863274528375531e-05
 1.973143562029902e-05 0.0011541706990332167 1.000692732026483 -0.012443566983349828 -0.00010154502217842094 0.0003072470340745318 2.0061384836883853e-05 6.181743952225291e-05
 -1.5207861230535835e-05 -1.6298423058909877e-06 1.956754081021035e-05 -0.00035829215263004214 0.9990621165705522 -0.018129467429958294 -0.0017199791646783107 0.001018546630871926
 6.388708903873466e-05 -8.642213843654527e-05 0.00021485267419250496 -0.0003232378863401783 0.0007920819711151337 0.0009163258469161223 1.0039538120715743 -0.016038575290226207
289960000.0 1.000709999544958 -0.01673720185645627 0.00011231473218401934 0.0014780966185659386 -0.00030289847479930844 -0.00020048564749833682 0.00010721506216869398 -0.00042599259245257266
 7.201868017555282e-05 0.0015181033881978038 0.9955739226774256 -0.019746360759022894 3.3050628711332274e-05 -8.486661824733153e-05 8.434548147340512e-05 0.00014850271796327676
 -9.258726254007213e-05 -0.00011221234717687121 8.368843647191669e-05 -0.00011367502107103626 1.0018899401798123 -0.0266930841119428 0.003043141473048993 0.0011295799182569422
 -0.0003901534768907638 -4.6163897396860515e-05 0.0003226168131707471 3.2696347507280466e-05 0.002086981109440037 0.0012152138288423152 0.9965617050286443 -0.028837376584887227
359950000.0 0.9967986880886546 -0.020780938845439384 4.790518217116891e-06 0.0018444718658279394 0.00024670457069033406 -0.0003009450579775136 0.00011937949930139892 0.00010060249674303891
 3.329213153317404e-05 0.0018704677258635665 0.9973016322816627 -0.020235530929990666 0.00035564987091193614 -2.4057676513654904e-05 0.0002127741719848227 8.683976223302534e-05
 -0.00018197427789793394 0.0002252198010844928 -7.517145299874037e-05 3.5294829857330915e-05 0.9963765716108629 -0.03165918578565994 -0.00043290485876125494 0.002054191932252218
 0.00031642443205332974 0.00020134445796568217 0.0001343983076610247 -0.00011352898312885803 -0.003380246888738094 -5.5161718251760935e-06 0.998242926739533 -0.034984554027028256
429940000.0 0.9992296782771022 -0.02426801043276932 3.7652053506058184e-05 0.002183687315982858 0.00021891451725314354 -0.00034894473684961763 -0.00015194000445108342 -0.0002611303470782947
 1.700411560530324e-05 0.0022224770711404508 0.9964250977480962 -0.023899972219945383 6.06051242220355e-05 -0.00023130441588075544 0.0007348826400553419 -0.0005882324698229473
 3.056575666561225e-05 -1.1276469990247418e-06 -9.9024950525965e-05 0.0002459737220852935 1.0024181905682301 -0.03873380541646483 0.00035535938246120986 0.0018111346666666581
 -0.0005832269100418101 0.0002666675964800369 -0.00024375651138119726 0.00014080663925590374 0.00015101727779935764 0.003145996286935618 0.9946175922414109 -0.04194854838793091
499930000.0 0.999925201393893 -0.027078348078002277 3.6581146571626785e-05 0.0025532093671469633 0.0005954328869662022 0.00016085435200605878 0.0005929669456651154 0.0009579503767582249
 -1.710912018090954e-05 0.0025968004281936925 1.0068793175409905 -0.039691115616964916 -4.984697006650375e-06 0.0001408609925875648 -0.00024555340868277856 -0.0004808463542881087
 -0.0001456487046551915 -0.0005859684577107941 -0.00019890863829909522 0.0008281320534762792 0.9972981122559427 -0.04426339947476919 -0.0032437677950639594 -0.004822743378193872
 0.000297370043904239 -6.271692326093804e-05 -0.0003034869406781327 0.0006975493150045644 0.003837192943409234 0.0034957660494926352 0.9984082040708708 -0.04303263819338162
569920000.0 0.9996169857537976 -0.033867184345770726 0.00028192507597723094 0.002652047813232894 -0.001216072617344822 0.000211193367108409 -0.0008447573682201794 -0.0006938470813765483
 0.00017945797726743923 0.0030087795576364297 0.9912666599983082 -0.039794580090689126 0.0010766857167463933 -5.692047087788568e-05 0.001351133759442902 -0.00041738152666886654
 0.00034358105134069784 0.0009605396163510817 -0.0009490606232501498 0.0015111095684013903 0.9948822300321262 -0.03687938973564905 0.0026043665106111 0.006441611267013715
 0.0006929363809798806 0.00031285457355465255 0.001158298594768918 0.0005682013720138545 0.00873668167554357 0.0037682435525459757 1.0138905037097445 -0.037683738118552496
639910000.0 0.9939655657798815 -0.0297930778596984 0.00042747794786598324 0.0032248463554235356 -0.00024759940262874755 0.0011850571677073528 0.00025200593363071074 -0.00020343699668593225
 0.00010933755274098085 0.0030151515262620333 0.9918776786274637 -0.04112171692027187 0.0009729361992615651 0.0004645819281118974 -0.0008497678432604078 -0.0014482494368038613
 -0.0008840815490894515 -0.001969229351023555 -0.002798853857959314 -0.0007926659137963256 0.9975378625144434 -0.06267241943671699 0.0011373850359065703 0.0071542205743934
 0.0015346029937101208 -0.0016307754539358786 -0.0007488230136977503 0.00044974261491219895 -0.0006100861018648532 0.009460898983951289 0.9936584374952627 -0.0705397381346872
709900000.0 0.9798265576431244 -0.03081545086823779 0.00015463975233280286 0.003260864090957487 -0.00018745096393428184 0.001171396444031327 0.0005910449203465883 -0.00011320185527613322
 -3.1843093591994235e-05 0.003574783713794804 1.0065926246516173 -0.029484632672509694 0.0010984361890312604 0.0008044078535260817 0.0008973267581194761 0.0006015916934628784
 -0.00041254884894607776 -0.0020100128139884277 0.002397718095692218 0.004383340435260813 0.984578983014347 -0.05559165803472775 -0.002444364888534577 0.008321484346338663
 0.001031936489597324 0.0009613435148519999 -0.0009213764022840165 0.00019824936738682943 0.007491131725223437 0.00711117706634832 1.0093259878355827 -0.05451976899309884
779890000.0 0.9960718669554772 -0.05231576677496821 0.00017783276174792616 0.00374573116955501 0.00026397053030035244 0.0003681757906544373 0.00010990380938954242 0.0005553707100846958
 0.0002718781888197443 0.004011857648788683 0.9986718360402144 -0.048168375058642424 -0.0003090713470130707 -0.0004349940602312927 -0.00018071045493265675 0.0003946367141053176
 0.0006710729025057668 0.0002539421199878173 -0.00034051004302811555 0.000369206262277907 0.9931673363994871 -0.07877222791342359 -0.003958164307166957 -0.0004972814023462167
 0.0003251236655071206 -0.0003302233845868459 -0.0003176029610454126 -8.483118966475367e-05 -0.00023348564626569416 0.008175681585300168 0.9925418556037445 -0.06779320757876257
849880000.0 0.9926599297732651 -0.04969862832845847 8.102542388584464e-05 0.004339296262568869 -7.748187847783515e-05 -0.0001829503177171858 8.203890146748608e-05 -8.088832664048806e-05
 0.00019052530446589345 0.004314275967557125 0.9949135738591587 -0.045153617582579166 0.00013973538518779292 0.0003039525312008974 4.341143283293067e-05 0.00039002447681451
 -0.0009944549670293141 -0.0006283622849935749 0.0006100015237701145 0.0003766463799609973 0.9952254303296015 -0.0707284730973383 -0.0033846636014219717 0.005926686191708565
 -0.0002988188143684125 2.7486518780627595e-05 0.0007249635746263872 -0.0006735216493564133 -0.0027235684612518887 0.0011807046515786806 0.9926822200861437 -0.06990076215384222
919870000.0 0.9989876023347218 -0.05045945008011342 0.0001362290238675846 0.004696879340500882 -0.00011139844764123321 -0.000202609569534056 -0.00012160824355798714 -1.6111524800872974e-05
 0.0002961191192208371 0.0046902193396041215 0.9966057011668887 -0.049650850479897715 2.8330429754271294e-05 1.4187682090030885e-05 0.0005285225518602135 0.0002487513832666178
 0.00015396070611206977 0.0005326559753672374 -0.0002541028342798647 -0.00032341088755143273 0.9959852544056749 -0.06538273121190268 0.003771134844982954 0.006406025097044438
 -0.0016288248838862058 0.00015121907605695893 0.001004663740435411 -5.266007268266269e-05 -0.0032324776844304885 0.0024606608545446004 0.9884544605830418 -0.0726127255565746
989860000.0 0.9935354113708124 -0.05528077087776937 0.00017426706466988493 0.00507621174894385 -0.00017951331220733582 -0.00038863778071605067 0.00019084163836223641 -4.2510636078595324e-05
 0.00025578429618352454 0.00498278374777434 0.993551180266646 -0.05548264309278488 -0.00019711349670207515 -2.1709300976100456e-05 0.00014723565219511503 0.0005353914525086808
 0.00018216597799931264 -0.0002706925612587375 0.0011348073823947637 -0.00044357181121399975 1.003091787940944 -0.07034320276161897 0.0046630031699133765 0.007128395095049537
 -5.649518212368949e-05 0.0003241370063581834 0.0010762907323212968 0.0007666407331641753 -0.006836862677708109 0.009484706895124203 0.9775852020069294 -0.08811264266960364
1059850000.0 0.9958848453053429 -0.05750624211547148 0.0002648368108870675 0.0054932056170011135 0.00023747093613421584 -0.0005133935541651563 -0.00024218794378675357 1.863619705621303e-05
 0.00023604076018989389 0.0054399707113447 0.9936924003366112 -0.05589453818651499 3.5484683093039626e-05 -1.067872986497532e-06 -0.00016810644913528176 -0.00017657852445430517
 -0.0008436165903442636 -0.0005047421424793313 -0.00040433783660905927 0.0011890541464940013 0.9912107660763192 -0.08904769368843427 -0.000621387879914019 0.0018510858594729155
 -0.00016601861484449493 5.473477007378995e-05 0.00034440546554905877 -0.0003822185318507806 0.0010047950388610489 0.0013796535966347587 0.9967084675233262 -0.08691948093337237
1129840000.0 0.9974793727786241 -0.05791254212904611 0.00038217604235649485 0.005769941668350508 0.0001405791778933583 -0.00030343969964136835 0.00035492165334008615 0.00017077548464402643
 0.0002692126947925526 0.005773809185090936 0.9980792386327619 -0.05995494043413053 -9.81785688830719e-05 -0.00019160698786692773 -0.00013222719371383705 -0.0002620380310046497
 -0.00039901041095316634 -0.000125386526569375 0.0004903978549454924 8.214856605056048e-05 0.9965914756268899 -0.08520695730966651 -0.0005936835754170941 0.003363205330105393
 -0.0003359279580550743 0.0002285287514156994 0.00026603495150349086 -0.0004921732730020099 -0.0008585221891424038 0.008390217836708137 0.9972578427077383 -0.08880996251703395
1199830000.0 0.992113585499445 -0.06555885280083577 0.0003102040657474074 0.006113192733475113 0.00018958960095492874 -0.0005876721774187891 0.00025681713976715017 0.0003256694984570625
 0.00032142502005094985 0.0060994237957515025 0.9943149814562134 -0.06298752436270541 6.419526637974921e-05 0.0002449635899377526 0.000352821362910643 2.5491940678998438e-05
 0.0005959971640663576 -9.233899809147749e-05 -0.0001328334180059899 -5.663003260109944e-05 0.9912578954820253 -0.09624470263786117 0.003021425564615118 0.005542591033849938
 0.0002855950400515438 -0.0004434748989754459 0.0005475507986649381 0.0008231159430026742 -0.00246988341813607 0.006428262912009238 0.9910370054419223 -0.09549753273814052
1269820000.0 0.995686827877004 -0.06627689005343175 0.00035408984524180323 0.006430334415204153 -0.0004044654020394969 6.788605490980166e-05 -0.00027043632102028277 -0.0005908040213692587
 0.0003456265177801587 0.0064063679370587245 0.9935709350356967 -0.06994586262312559 -3.835504299282648e-05 4.058690584771008e-06 -0.00012018440524492755 0.00012241245868951909
 0.000457635461189536 -0.00011481737450903402 0.00046922087971603153 -0.0003501072502052754 0.985852196138946 -0.1005265254800204 -0.0005298499390590455 0.011364936919796223
 -0.0005412310950913256 0.00010931123821740431 0.000578386108802641 9.063772584904144e-05 0.0021410690878001463 0.0007860222469105202 0.9908005568468912 -0.10056200793151414
1339810000.0 0.9959432572374578 -0.06988721419291723 0.00031838592795293766 0.006864142901036933 0.0003431517972843214 0.0002373421625970984 -0.00035248434895672606 -8.174362275549221e-05
 0.00046131411540879954 0.006843860119321699 0.9894276260752559 -0.06731500554380608 3.751617385588779e-05 -0.000604158365584201 2.4143591411060254e-05 0.0005822371796274974
 -0.0006249032451209911 0.00046019504784320644 -0.0008496420185605758 0.00027916569797198197 0.9893609747930086 -0.10679146098706277 0.0028168959625726048 0.009223968691856045
 0.0008724494431874197 -5.5476682341631855e-05 -0.00013354214024324722 -0.00021265430960737164 0.004214571839008929 0.0036361664433030025 0.9832665956066864 -0.09802821176059677
1409800000.0 0.9934834772187067 -0.08084474664713115 0.0003610741876724726 0.007131626298630298 -0.00036832186572241917 0.0005657597501196573 -0.0009152737982935264 -0.0003507085090859257
 0.0006077741785862486 0.00711476666481475 0.9930410368213506 -0.07924110265697201 0.0004953539878491304 0.0003630420284584658 0.0006865777933596709 0.00042800505079704465
 0.00043894149035337757 -0.00034251989685947043 2.7179096443033517e-05 -0.0002513818057969792 0.9872673688325949 -0.114422832916064 -0.006090288216807718 0.003459216922368339
 0.0006042585029274501 -0.00016588127392649246 0.0005637232429962625 3.574974392449802e-05 0.0071623459852412 0.011318847848549096 0.9859294789533151 -0.11488304289667806
1479790000.0 0.9896834671473771 -0.06651609359405738 0.00047762196643647047 0.007518252206992049 0.0005228793895863604 0.0003052441062551919 -0.00038554684747210585 9.014527328878459e-05
 0.0004105847513214225 0.007637934206017133 0.9844655317104166 -0.08998579534615227 -9.207014978372517e-05 0.0004357431359705072 -0.0001956329431324874 -0.00014825360628034192
 -0.0009957618493422928 -0.00042168756445115256 8.448145805734488e-05 0.0009455542707319757 0.984107010583281 -0.11776905316889012 0.0021964032427058914 0.001864685862913684
 0.00027073112134942413 -0.0002111989212090827 -0.001967937349099678 -0.000702636329458661 0.00026029272813754485 0.009656589832519989 0.9675167911871382 -0.10407868177775151
1549780000.0 0.9897346019064969 -0.07554041469755536 0.0004953064567619627 0.007943306702988871 -1.5191749341813745e-05 1.9343866092652384e-05 -0.000417575934478187 0.00016524317981320827
 0.0003301473372533163 0.007906298233016003 0.9909979214529306 -0.08551935701582494 8.224170482181249e-05 -0.00014380550500834506 0.00010565657769195709 -0.0005577229040556027
 -0.0005290876679937295 -0.0011006457744366627 -0.001090929270347353 0.0019146830298868768 0.9862785376970942 -0.1120839294290401 -0.00012647157638804685 0.00900044802793366
 0.0005119119505445783 -9.216939082348304e-05 0.00028351100818692923 0.00026888733771229974 0.0007320347460048374 0.013304624416358185 0.9882054245838986 -0.11445829784909582
1619770000.0 0.9992250846939739 -0.08624693476656232 0.0007066408039957096 0.008220892969586833 -0.00020712214641785678 0.0005156771888760743 -0.0009463408345605366 -0.0004856830955553848
 0.0005529327525584561 0.00813070235315814 0.9870320676163943 -0.08301720843792101 0.0001422233035172152 0.00018025637795984257 0.00020824406217983537 0.0006023077542400936
 0.001053346016452253 -0.00012992788096788917 0.0004973834099781028 -0.001607797389406811 0.9816627625521205 -0.11835158359818947 -0.006828930647240193 0.0035349289511505517
 -0.001029089088352846 0.0011245540598009167 0.00018636567987733195 0.0008017004973617703 0.006020875938287469 0.005722177831598826 0.9848621341873139 -0.1275990952901892
1689760000.0 0.9887431837629447 -0.09803615437537863 0.0006643940043114754 0.00839811202635075 0.0006055655062381257 -0.000159091845029068 0.00010267484662531274 -0.00024416719797117737
 0.0006413248414237192 0.008676003547738911 0.9864515562018069 -0.10018478797567994 -0.0003088689704499471 -0.0001991631169767444 -0.0001605937134649382 -0.0004971394735308081
 -0.001106034324432308 0.00082104224692317 -0.0005205140524100753 0.0013517246030172443 0.982948011853167 -0.14429915149113165 -0.002305402760827255 0.00723171176861249
 7.949974427672492e-05 -0.0004256185861695781 0.0010569120176891478 0.0002738151054964555 0.0008957024888259959 0.004841346048819775 0.9852964786030067 -0.12689234953398
1759750000.0 0.9890995093650932 -0.08898454075962192 0.0005952713555981449 0.009016616697675459 -0.000279840358267897 0.0003480798231237889 8.013901805924384e-05 0.00021485180838886868
 0.0005563925827403915 0.00886112891617808 0.9968693325097067 -0.09580812188264541 0.00044077340890187524 0.00010920661614159837 2.136998259240188e-05 -1.4211072771437449e-05
 -0.0001257118658750626 0.0005540703077822225 -0.0006206502697388323 -0.0003928532556449892 0.9875079985884241 -0.1339958434403964 -0.004264390596690904 0.014463243470157771
 0.0012262308458100145 0.0005174350064140209 0.00031150576384043356 0.00015640461235623624 -0.0033856863623570343 0.009609626992323303 0.9913691355870046 -0.13894708187835908
1829740000.0 0.9972640640503684 -0.09329272733210817 0.0005194421508474949 0.009254243712775752 0.00018990629389745438 0.00015499514802771715 0.0002247774346619037 -6.600365089181889e-05
 0.0006855730157624882 0.009360353357089374 0.9874654447133343 -0.09543800772727982 8.295854402524617e-05 0.00010231354056213674 -0.00018695203546385865 -4.077273180853633e-05
 -0.00024333279382186547 0.0012674330042106506 0.0007908505459827449 0.0008189090971742862 0.9884258371877667 -0.15618191001187182 0.0013194254994166174 0.0036788063624214537
 0.000553418961192577 0.001078821091872392 -5.810993307161245e-05 -0.0016154804882922082 0.0010840132881325421 0.007983615244125261 0.9839312278294737 -0.1352539827793182
1899730000.0 0.9860243295260094 -0.10606969761231255 0.0008829188330205412 0.009637404142501528 -2.7530024840121207e-05 6.180499592575855e-05 0.00014039529837979014 0.0001496870588625965
 0.0007413790609192703 0.009580951789687948 0.9885923741821068 -0.10429578076589262 -0.0006394626498011333 -0.00015554843088818013 -0.0001826923711005849 -0.00010928110533022679
 -0.0008329650634803426 -0.000507488702974662 -0.0010090564465224017 0.0001975392414522876 0.9845619929326298 -0.14930974222746154 -0.001990017398029118 0.009196967461669734
 -1.1732641196409416e-05 0.00015053846079766362 0.0006090516723468338 0.0004992129405269489 0.011151788653414377 0.0041385616329815385 0.987832528906518 -0.14389819256400152
1969720000.0 0.9842561060898877 -0.1065818412780968 0.0008753985690918662 0.010074806857133765 -0.000108540706011398 0.00023881339407922676 0.00014450791347429416 0.00029552299814959466
 0.0008771130533971964 0.009944541834068657 0.987719478749851 -0.10723158398589094 0.00046710531088047213 0.00032492722925012943 0.00045511661450415046 4.864854583555462e-06
 -1.7896129240118813e-05 0.0002662660356612718 0.0004834502130974957 3.813921041861674e-05 0.9748063758151979 -0.16256517772774687 0.0016649551543286294 0.0100310677500783
 0.0004112346090775629 -0.00018018937941277798 0.0003570680385819477 0.0005201204294681648 -0.0020843420265950433 0.010957359008576887 0.9929569382445128 -0.14430461580884119
2039710000.0 0.9909266167984564 -0.10704888395497533 0.0008910378733395141 0.010303758155428633 0.00019025575175997037 -0.00024380451597598394 0.000492955232501024 0.00026368887491260784
 0.0007547703507790967 0.01038323325807109 0.9866296016218857 -0.10346404026382296 0.00019630949242110528 -6.36031613143931e-05 0.00022974658734001323 0.0002266665209077994
 -0.0014692093489516464 -1.8335368273178598e-05 0.0008147015828993186 -0.0005286065289995779 0.9808642867462087 -0.15861372693427297 -0.004124310262615867 0.008065578598146531
 -0.0022433550146994524 -0.0009115888567080361 -0.00014593807333386974 -0.0001256533422624422 -0.0025970047539718936 0.003936097494481588 0.9756039889203484 -0.16458576888832632
2109700000.0 0.9839917576097618 -0.10719585073967376 0.0009821999576407104 0.010807691006423934 1.0490665767848345e-05 0.0005123284491481195 -0.00017569507396970752 0.00031800472761079864
 0.0008891076222642996 0.010677920036963886 0.9862658481425579 -0.10506760220902259 9.446209515028914e-05 5.907723459087357e-05 0.00013028565072400886 -2.0999783690047034e-05
 0.001266355974077115 -0.001011056572579204 -0.001509684871482147 -0.0012781873337216491 0.9806315349442202 -0.1713277638765051 -0.0002608170848914144 0.013252258738073595
 -0.0010067573441295678 -0.0006604032936483626 -0.002241225835640024 0.0021310407564164072 0.0031717160719927024 0.01022437984392989 0.979103556367623 -0.16254475745081515
2179690000.0 0.9875253946727024 -0.11881312618889252 0.0009956508807138645 0.011051907867175985 -0.00042313154030876755 -0.00041226127212092543 -8.264284523620533e-05 2.322254145015196e-05
 0.0010000235854565464 0.010937289732269194 0.9880193386564184 -0.1186078816498025 0.000188162026192884 0.00036802754209727873 -5.867477614906121e-05 0.00057099736060735
 0.0007526355732503893 -5.2268273936914956e-05 -0.0007679801373565993 -3.91998411501577e-05 0.9802249683859425 -0.1777528795412852 0.0028391862938435992 0.014033196015486556
 -0.0004242341002951978 5.938237921495031e-07 0.00020312836701807374 -0.0005836558200704706 0.013552783899710473 0.006840998824696863 0.9895632288032481 -0.1643029128395292
2249680000.0 0.9872412098166167 -0.11885504352246 0.001133244487922275 0.01133109289535851 0.0007236480258983753 1.7580040721432036e-05 -8.5586643531754e-05 0.0003670350247632841
 0.0011745697060308394 0.011452967640758333 0.9896743310308481 -0.12320202722877023 -0.000561501192805878 0.0003372372511387105 6.563587155605694e-06 0.0009139633930325539
 5.0004424602495116e-05 7.307992685322708e-05 -0.0004282994910162395 0.0002586380460781311 0.9761472242870114 -0.18232657400015884 0.005559099000249862 0.009009679360468752
 0.00034777122900904277 -0.00045141377464074116 0.001635849496141565 -0.0005345882864599195 0.003863306923049549 0.013261875166007138 0.9758173792846163 -0.17090831794380087
2319670000.0 0.9824899501766174 -0.12763765571719587 0.0010868112457087938 0.011760435957115444 0.00015142208983968638 0.0004693542710243239 0.000342018810854422 -0.00019268686747158818
 0.0012402802300038548 0.01158928401126714 0.981422423704228 -0.11988393770046021 0.0005501350232235475 -0.0005134324790421593 -3.422283381560346e-05 0.00025263699582016085
 0.00013418494782879912 0.00040581596493968975 0.0006132177878563605 -0.0009175961901075805 0.9574842135030539 -0.17768098918432396 -0.0035397329649284716 0.007853120570375
 0.0008301679828100883 -0.0002035025005690484 0.0003736048014514544 0.0009098934797697448 -0.004019609804515949 0.005556567885261279 0.9771570023388637 -0.17912891882551812
2389660000.0 0.9920561743594922 -0.13061729481077988 0.001067881959449967 0.012068070088162039 0.0009555042293225733 -0.00011783112576705532 -0.0001421879530402813 0.0003543486134356764
 0.0011317180466009107 0.012055934482783082 0.9971860174795142 -0.1167581222206081 9.8713726504045e-05 -0.00042427747325908 0.0006945462103927101 3.713459380944243e-05
 -0.00014250485843589437 9.203387494254426e-06 0.00018780850517197497 -0.0006417481275866547 0.9732920106854939 -0.17807189819444652 0.004868494181880515 0.01241214853200962
 -0.0001733280505121025 0.00041535959807765225 0.00013429132987937716 -0.0005099357513672321 0.00664551953579297 0.012833299345507998 0.9777882861364522 -0.17049152699367254
2459650000.0 1.0071016446222694 -0.1507948107478226 0.0012935047690458843 0.012195094193685894 0.00018467896210996564 -8.580352719401448e-05 -0.00032907391753765185 -0.00023731813312373917
 0.0013996520247930445 0.01227167719244288 0.9936549109373755 -0.12873652726925464 -0.0006325971941736731 -0.0008520662183877746 -0.0011707127412462876 -0.0005879216279381429
 0.00010364017440463809 -0.0003458592324247589 9.94291208540008e-05 0.0009711010597837994 0.994666837858831 -0.22068827747011519 0.005656807156564937 0.00862583526087818
 -0.00011076974318231596 0.00017403516708168178 0.000408729968377184 0.0009337316386177372 0.00465580397920503 0.011496156840102167 0.9878664012245886 -0.1921611663763581
2529640000.0 0.9927556005463604 -0.14245792746636018 0.001304501760165766 0.012784011264966753 -0.0003144453090470887 -0.0005740630218898428 0.00023165109121866859 0.00046193343100926955
 0.0014167470583026159 0.012896207201850857 0.9903862314573247 -0.13908602760426186 -0.0003824278304689109 -0.000501566853898936 -0.0006036564036765005 0.0005841201863222548
 -0.0006221048488149562 0.0002736134617320234 0.00019723072898235368 0.0010529275072080951 0.9702431521319402 -0.1998395430998374 0.0002850397859653712 0.006839875809570334
 0.0009314535135834946 0.00030734811304940327 7.163033871539554e-05 -0.000220594369656214 0.0030455654642050642 0.011569713248277769 0.9700149127730232 -0.19035630303531959
2599630000.0 0.9921967041338722 -0.13188871575536235 0.001431261807188427 0.013137657144472814 -0.00035213842396786103 -0.0001247506335333697 0.000510571673516801 -0.00014740359801270576
 0.0013320096758027413 0.013092571417549426 0.989705325084298 -0.13697835553567286 -0.0007007342583420644 -0.00016021413976515073 -0.00012827213240432258 -0.00010905469693813831
 -0.00012214993618463508 -0.00016242201129714552 -0.001702575859204481 0.000858034730437426 0.9761106248546747 -0.1923203175598594 0.0006756265964270789 0.01036728951845227
 -5.309905143679959e-05 0.0009229175340254874 0.0003012330977102882 0.00010720984143007259 0.004414557054906053 0.013225616844005177 0.9705064184198405 -0.1892528131231591
2669620000.0 0.9871897790357417 -0.13193229545412066 0.0015609814644259928 0.013589647070807554 7.890782329582951e-05 -0.0005464837367154389 0.0005809810819497152 -0.00019976987168407147
 0.0013615116158281918 0.013403645966347104 0.9912132569912561 -0.13170089551039602 0.0004673836790893181 -0.00039913428034746117 -0.0006993092474192215 -0.0002854611291930927
 -6.505601142148738e-05 0.0004984634681006225 0.00011911803568791907 0.00032845100993331714 0.9722288260927745 -0.20671657736249882 0.002991186315708288 0.011542445764788717
 0.0003267042850344747 -0.00034622412176343485 -0.00010519877929812662 -9.337259839594812e-05 0.0071082206268062555 0.01994697642197936 0.9659109979699652 -0.19427888863157364
2739610000.0 0.9782969462451884 -0.1374217195371671 0.0014624242105221554 0.013780457434062057 0.00014543256178313845 0.00010823307014061586 -0.00046160693466626733 0.0001538864448391207
 0.0014141942619466637 0.01364077320118945 0.9810898383865189 -0.141366525879032 -0.0003102216425681051 -0.0002608498575117574 -0.0009241146768873532 2.717041091605562e-05
 0.00010859894297014775 0.0006448657703192367 -0.0009647729014678434 -0.001330115971574114 0.9649078292643187 -0.2090615526908535 0.008386712481613713 0.017006428384815888
 0.0008696976253718456 -0.00020808229968498912 -0.00105186706934578 0.0005144782635916388 0.0053405942094016815 0.013399492243335556 0.9741016241846066 -0.20511205652136988
2809600000.0 0.9782194398561371 -0.15165639271669007 0.0014288008892174159 0.014010098498773028 0.00014488941535249682 0.0002503181707462034 -0.00013108336190967513 -0.0003783304628339104
 0.001737695028104082 0.013906364761676391 0.9828720151067016 -0.13702117274813527 -0.0008659481199879918 -0.0004111083157844729 5.6534755782970703e-05 0.0006727432974472248
 0.0007352515450155193 -0.001413600582830572 0.0001783920944579551 0.0013710492932294401 0.9628279398799946 -0.22222740396831983 0.00601015797954394 0.016908828947095694
 -0.00018500015219343483 -0.0004811886558782835 -0.0010570731126420484 0.0003348523063213453 -0.004828588161848453 0.021347251025825086 0.9621712104763729 -0.2107776821039858
2879590000.0 0.9831579340537674 -0.15184327769364625 0.0016152361389560087 0.014517875109492446 -0.0006007575106601941 -0.0007129930077010181 -0.000386965641804007 -0.00021939044943573144
 0.0019517704059882229 0.0144292702719395 0.9916567689151244 -0.1481461666192813 -0.0006204410506987628 -0.0003054751046204589 -0.00021200148826937856 -0.00020312675086007424
 -0.00020686497125219086 0.0005809411228460018 -0.0008245362859642706 6.207389813810134e-05 0.9641954679445304 -0.22554218798065317 0.0038163201560905413 0.016390522637825415
 0.0007653777449865909 2.9030221113410064e-05 -0.0001441562812141813 0.0007163679179919753 0.0012030196225676177 0.021512529859266116 0.9862075455652725 -0.22132507169344992
2949580000.0 0.983121280055282 -0.1525895081804316 0.0018637015681045802 0.014913115377331932 -0.0002815932535746554 -0.00039429279311282924 -0.0004207263234901458 -0.0002716137683884575
 0.0017631487016279397 0.014734890807781058 0.990045426472622 -0.1567827092282938 0.00035609971131105446 0.00018333090530202098 0.0002565627066541234 -0.00047420128080801014
 -0.00048094450397563967 0.000995138560700972 -0.00034263061860711125 -0.0012210986018657821 0.9611492189837944 -0.2346011605542115 -0.0054447970875524734 0.01616945780961445
 0.0009378456555331202 -0.0005183522334679319 0.0011378434147327695 6.268263555285048e-05 0.0036454663961534776 0.013703942502400021 0.9773394433339946 -0.22256131942936988
3019570000.0 0.9776576210455057 -0.1594217276985832 0.0019920863689522218 0.015105137813210835 -0.00011869149180073933 -0.0002283914463700622 -0.00015467869914636778 -0.00029362389028890875
 0.001956128682875455 0.015219367514870295 0.9800268524558712 -0.15819764603267308 -0.0002464238490475509 0.0002653080486992085 0.00040683629036716645 -0.00036848899778611825
 -0.0018733476477020394 0.0006240950711631651 -0.0009234113121160843 1.6498674049308675e-05 0.9576439308802411 -0.22710853875477918 0.009655100128960193 0.010068252355568472
 -0.0003340984951270926 0.0002484067347809203 9.625064976572784e-05 -0.0007204088049969028 0.007734316443043575 0.014421725361909134 0.959558238634716 -0.22694543078790017
3089560000.0 0.9727080000264345 -0.1626779199782318 0.001934745666469496 0.015702000240549602 -0.0005264192903391781 -2.944246732444521e-05 -2.336415784798117e-05 -0.00036687880163844243
 0.0020766579199202116 0.015343097968263728 0.9857204482637302 -0.153325577633597 0.0001727980665386664 0.00044150268818342683 0.000511272990637159 6.728048141631757e-05
 -0.00046188682621761814 -0.0012558450741018278 0.0014829539712285786 0.0004208027122635378 0.9516266693434812 -0.23965212786421808 0.008316419331996033 0.01593442674511462
 -0.00011774870278642797 -0.0002486543569885175 0.0006635355749460739 0.00030101068059259253 -0.005880982170134468 0.015913808863832233 0.9666469246639892 -0.22665931087375782
3159550000.0 0.9745756473209923 -0.1642749117634417 0.001897843111657326 0.015813967322911165 -0.0005447427544063076 -0.00032706477521751346 0.0001575347935623182 0.0004111501931353818
 0.0020263396702767263 0.01580066019190773 0.9814291046085463 -0.161331278553854 0.0001608919172244686 0.00013428794364676982 -0.0005689939464299105 5.381582252312056e-05
 -0.0007162306308056508 -0.0010376037480217817 0.00030724706214596835 0.00025705745452272506 0.9488841325947289 -0.24930808761147602 0.003616348093060783 0.00842577946030525
 -0.00045683105230211174 0.0009854324734051773 1.1663697124973516e-05 -0.0005757273943691389 0.0071328256756815955 0.009581255924842493 0.956117453720948 -0.23910022461826963
3229540000.0 0.9807195031170276 -0.17292159064731238 0.002301711048668502 0.015994024404429336 -0.00014429979010887958 0.0001409697553441098 -0.0008907484008830028 -9.516366718378836e-05
 0.002264934676039422 0.016067315813132428 0.977977033125081 -0.17270668775955106 -0.0004466912753781632 0.00017431574116082152 -0.00032951233835826145 0.00075599279324809
 -5.931822347294827e-05 0.0010896095277431927 1.1036017072926144e-05 -0.00061513029502787 0.9639750268861994 -0.2507700902588405 0.010841790438998194 0.012147554130864225
 -0.0005922449806965995 0.0012104460465774713 0.00015250945403767183 0.000570181600377508 0.006959176056203269 0.01140066973719519 0.9685990613519566 -0.23980773311932893
3299530000.0 0.9754444956535478 -0.16957541608493315 0.0023328441152281392 0.016398988164589734 -0.00011941276232990079 0.0007546380842226911 5.5828334022134436e-05 0.00029055061731954763
 0.002140821281062356 0.016354266780288215 0.9746439519411682 -0.17266945423755814 -0.00024546967557316865 -1.8270411196556866e-05 -0.00033490803952280075 0.0002683263301739194
 -0.0016360703311584022 -0.00010989527030251574 0.00024085000022956788 0.00016519118849916465 0.954248541453639 -0.25941757976452046 0.00446223122538736 0.012685423019555029
 0.0006630345759877745 5.3843621256652384e-05 -0.0008731908589586058 0.000566857456223901 0.005576972595881141 0.020135649196818248 0.9604876869820874 -0.25415956307246507
3369520000.0 0.9754825167390744 -0.17220471999580864 0.002164373474202528 0.016609776983692554 0.0002927331219531191 0.00046337272894549927 0.00014885940690462086 -5.556355312151153e-05
 0.00225957281531364 0.016609340286884364 0.9729794954770243 -0.16694336973319843 -0.0001666347147235339 -6.522460098005391e-05 0.00038285302280870317 0.0003631605741913004
 -0.0006593653665388278 9.380284261638564e-05 -0.00047304842756130223 2.665972183323119e-06 0.9504849183247255 -0.26231125296115154 0.007197729891320218 0.017040657646620945
 0.00010856553119686659 0.0003383648058783963 0.000811838854245547 -2.5502128533093136e-05 0.001609068470447268 0.012128803124645047 0.9563683862155403 -0.2559654755807944
3439510000.0 0.9725627262809794 -0.1727160419340328 0.002387061540827936 0.017079204389623463 -8.229108837421371e-05 0.00027566385737735254 -3.896785667918517e-05 0.0003622717491843458
 0.0022665335054902445 0.017034297216508152 0.9736786360158856 -0.17104027955139833 0.0003550899243352773 0.0003495260072712291 0.000516529820800132 2.623174023472432e-06
 0.0008592196541227582 0.00033730658499885746 -9.57243683013937e-05 0.00017077920662826457 0.9526015322550105 -0.2652461405142663 0.0023945764464866474 0.020354777852875632
 0.00014586319789394291 -0.0001459177899119303 -2.1531782940559727e-05 0.0001432360016990331 0.004755414409710172 0.013510737913169599 0.9466972408865764 -0.25507411017870774
3509500000.0 0.9751379494724811 -0.18216518415079194 0.0026134881168257754 0.017589262499649996 -0.0007009414056694081 -0.00030724538193535 0.00021773484129384814 -0.0006268238024667603
 0.002566895298150703 0.017228294716967792 0.9717900710422706 -0.18963958010992088 -0.00012232879679607508 -0.0003341490316167473 7.15846188012456e-05 9.737660978466213e-05
 0.0012902869023216925 0.0009769267483269119 -0.0006726722373246027 0.0010062422407484271 0.9432174837497309 -0.27140169015448495 0.008384150540707421 0.01136510649043493
 0.00015108887162397876 -2.458351758755148e-05 -0.00012416760108943534 -0.0013136832684690117 -0.0019047380094869605 0.01334350006921335 0.956297665833425 -0.2719551448536693
3579490000.0 0.9768943985923195 -0.18592515887667366 0.0023892183068876744 0.01747638019252755 0.00032287413868863074 0.0003475252258435517 0.000789548979722082 -0.0006562372516989024
 0.00263488218224969 0.017861765970053102 0.972835122677396 -0.18396858465718657 -0.0007645782859403929 0.0005849428229285285 -7.734313740989047e-05 0.0008614200875196212
 0.0008077073014209976 -4.0471061170692195e-05 0.0007779293125378788 0.00022857409708071865 0.954795894217385 -0.2805292058839006 0.009706324029907743 0.014399154630012642
 -0.00023649306627718686 -0.0006104580432719299 -0.001120688583945009 0.0009201116718007254 0.014565966454844287 0.015774465503710772 0.9475077411863492 -0.2611780298231042
3649480000.0 0.9654831164204632 -0.18940870698240334 0.002817187259928305 0.017791039661875636 0.0005219729483078027 -3.441663499104112e-05 5.388782377095548e-06 -0.0005036010627389857
 0.0027739490015175924 0.017912189388161293 0.9734464271248219 -0.18530924807098653 0.00036341469809070926 -0.0009669895432338281 0.00019395231652673213 0.0004245228801705452
 -0.001386043310877041 0.0008967059463360944 0.0006916726755308766 -0.0005075341557689084 0.9454616110414592 -0.2890669076489419 0.0044035981286949495 0.013332522379127614
 -0.001083982381028181 0.0002443317041549832 0.0005032973777714308 0.00036805402935894966 0.004390522650641474 0.015926412783168753 0.9453127237422675 -0.26716583033139646
3719470000.0 0.9706224199722248 -0.18955592589733702 0.0029973566573095116 0.01820750971012784 -0.0005771863897391015 0.0004665945738253152 0.0003426189169399574 0.0009044886963513573
 0.0025511488228198926 0.018374773733898717 0.9739620075013861 -0.1878146825335316 -0.0006260222190001182 0.0001708540288385021 0.0009741774168254353 0.0001432755742431789
 0.00015645015388016315 -0.000755758166267792 0.0009257412184821535 -0.000736848055879236 0.9512917089875937 -0.2815402045967039 0.0076666160103760345 0.017836437457664465
 -0.0007011305211544389 -0.0002495234705457313 0.0005583067354453199 -0.0008301189760080172 0.005813989616026948 0.012220714805216904 0.9537920549704944 -0.27355059919761
3789460000.0 0.9626325361060477 -0.18776917043410676 0.002843308589120362 0.01870481861117171 -0.00015241695289570524 0.0004535628491269571 0.00028808404449150784 0.0009154036455491689
 0.00270358977444057 0.018573690227872267 0.9688309451913456 -0.17975757393472877 0.00024498852613661607 0.00023221367146976908 0.0005095085672990993 -8.144615849772957e-05
 0.0002591024222199791 0.0013249789882465435 5.712597895144907e-05 -0.0004036777807472602 0.9429807152963812 -0.28292912071983456 0.009096980015321453 0.012969775017703328
 0.0005107258320832666 0.0007578439292894982 0.0009326997318564883 0.0005741063779077382 0.0032136127467685053 0.026439204927197892 0.9472973647646344 -0.27521568435510657
3859450000.0 0.9742634670946732 -0.19102458290434374 0.002785400557906407 0.019072439605182134 -0.0006919975781179649 0.000868689745345578 -0.000332062321647487 0.00034468793900255495
 0.003016920058907247 0.018867205230545955 0.9737917095401332 -0.18530505961585045 0.0007232742711233661 0.0013302014343708373 0.0004844281884204326 0.00038905376909147414
 0.0007802856477766978 0.0001612080865542224 6.852305855406777e-05 -0.0005259495228676552 0.9478494952186488 -0.30251139592575377 0.012580348208223952 0.012219529371991666
 -0.0002125936697093147 -0.0005710491532889718 0.00022403442061967263 0.00036231011223426465 -0.00012338124166126816 0.01062210779580952 0.9487085404863606 -0.28649794312043336
3929440000.0 0.9784460780084798 -0.20114139975764064 0.0031029794398512267 0.019422361060800468 -4.2046592968173095e-05 -0.0001149219533587635 0.0003750566116847175 -0.0004144131689197054
 0.003372524983754415 0.01942500866101787 0.9810923866578998 -0.19100448765180233 -1.624995827313441e-05 0.0006391424731895732 -0.00023182405354858513 -0.0006439936649436987
 0.000865987886738155 0.0005099739338718816 -0.00025602098254726835 0.00047499983981587806 0.940632281344987 -0.3029499389615323 0.006196873903077151 0.021704669245879656
 0.0010485426657835144 -0.0007960224897778066 -0.001284320058044403 0.000227162965183831 0.013727310860652951 0.01193985674637982 0.9366737153436816 -0.2813246002100678
3999430000.0 0.9784313407861718 -0.20266702278649043 0.0033413734340440185 0.019753708637858025 0.0002020021324691456 -0.00026283802894319256 0.0005449273385004056 0.0005749990812063644
 0.0034332106686537724 0.019518710822103855 0.9761207213564603 -0.2051506217009989 -0.0008127669335173041 -0.0008300716946686976 0.00013089370919198537 -0.0002491716308314124
 -0.00016706680047004596 0.00015414915069630655 0.0006902621925206256 0.00037565079816570963 0.9376666675047174 -0.30109425548142477 0.009080780096159272 0.017178787919393968
 -0.00015879397297413264 -0.0005035412691510801 9.673563740345742e-05 -0.0005853698738818711 0.012120760766922284 0.023296490179413196 0.9340737145774437 -0.30960474580865155
4069420000.0 0.974746872267805 -0.20936037824814027 0.003673425917401875 0.019781513306131177 0.0005898117024923354 6.95617513337065e-05 -0.00016900483481607878 -0.000310705411456393
 0.0033961599791151515 0.01995225689520511 0.9671920010134943 -0.214536070293505 -0.0010691075404269759 -0.00011972123957643707 0.0002387720085634897 0.00010904470846901442
 -0.0003404761586962658 7.608360087853556e-05 -0.00036349276099165704 0.001981704551269813 0.9370828786539382 -0.3097439783095456 -0.002188761999212483 0.012700163928054871
 -0.0002151036804602467 -0.0011036914474178393 0.0006781537562483706 -0.0002356848370962811 -0.001926810248639094 0.025285510327993338 0.9439990876346467 -0.3049052169687072
4139410000.0 0.9654514329886283 -0.21191958647561948 0.003597415439879001 0.02010691659686165 0.0009896391968604488 0.0003078021549959056 7.745169113559526e-05 5.2879473367385254e-05
 0.0034475607239855973 0.020039877694394036 0.9617209990145771 -0.2160091017265073 0.0005658195405983234 0.00013761068169773052 -0.00021216117613605641 3.235419495046774e-05
 0.0002973442078505134 -6.074449469719043e-05 0.00017714655957197216 0.0007515636798113062 0.9422476853556033 -0.32391073808103593 0.003200825152639512 0.02530712376088204
 -0.0001084360161422407 -4.175415615198377e-05 -2.1472948151902335e-05 0.0010172220349880172 0.0013836822628013072 0.016215340476896545 0.9348160524602945 -0.30903216387267823
4209400000.0 0.9672159431732061 -0.21425482406520446 0.0035187162720605727 0.020495918488886326 -0.00034785745485742026 0.00013073924213299301 -0.0003449383014887574 0.00034668499390596197
 0.003604801386702787 0.020492698155567386 0.9612730592111786 -0.20621491652696972 -0.0003112534987027018 -0.00027870944573985164 0.00011763117303895269 -1.9647706445785176e-06
 0.00043037042416614217 0.00033219129837912996 0.0010761231021524235 5.864959768603535e-05 0.9248599623768806 -0.3290730191798382 0.003809546235209435 0.018449611790044035
 -0.001284764599206725 -0.0007149527695668491 0.0004194242560943875 -0.00014575731820448194 0.012472553008931266 0.021638569908125852 0.924129336119795 -0.3110169898185288
4279390000.0 0.9635318950627331 -0.22596651103343895 0.003441595594304314 0.02079038992657959 0.00013843087642365984 -0.0001804466660264378 0.0002930663681026987 0.000347865550067366
 0.003819723845209112 0.02056023653065501 0.9647623394105197 -0.21740672863794258 -0.0004709496335990402 0.0005596036153314218 5.445176050623965e-05 0.0004205511737560855
 0.00040799781582477856 -7.760829322479937e-05 0.0010125535211997067 0.0010853999392547102 0.9345267944699082 -0.3299624002402695 -0.0012629592957178444 0.011018183645814594
 -0.00019156310323430848 0.0008448948486907891 0.00012831467326207042 -0.0002343775667248027 0.0020791961524320238 0.009606272647660731 0.9334284194231521 -0.3296061011666161
4349380000.0 0.9621334706398207 -0.2235012897982561 0.004190892268593911 0.02120887286697899 0.0005476120961315948 0.0003907105946601541 -0.00016192630319539545 -0.00013534099199894446
 0.004108928083378191 0.021007185677754368 0.9656579875707372 -0.2235114087771922 0.00031366928699028736 -0.00021548487538674142 0.0003696555554513196 0.00031371582957000904
 0.0003500470710422768 -0.00021184167496569075 0.0003852491948213939 -0.0011102810461500385 0.9112564185503331 -0.3407983560625156 1.860702498213773e-05 0.009817687856104736
 0.0003129343951966672 0.0001295565354165246 0.0013894050468215638 0.0006960983153835689 0.0015248577461504445 0.017464063609984894 0.9355926041145218 -0.325395910732082
4419370000.0 0.9596596168250389 -0.22548676165110088 0.003948290182933627 0.021384186708719135 0.0001648569905694968 0.0002175380703360258 -0.00044689714823976164 2.121740920682604e-05
 0.0038898468394192778 0.02117685123535866 0.962996658904684 -0.21521907967053877 0.00025368349210022097 0.00011998649847250329 -2.677025033084879e-05 -0.00018782286140791942
 0.0003004174586745418 0.0007785520646638945 9.277165684702474e-05 0.0013105560656860406 0.9291723602802058 -0.3263438255036153 0.002455210476088141 0.022344776733104494
 -0.0005869363165429031 0.00043136685161977706 0.00042529144935604673 -0.00054672794631193 0.0035213860542333787 0.024693545266837393 0.9317879860521597 -0.33222400689570764
4489360000.0 0.9514057039659262 -0.22664487753391532 0.003989053300159082 0.021334077625829537 4.044221254103809e-06 -0.00023924532465029964 0.0003855360628994319 -0.0004806030042871285
 0.004175857260916822 0.02133665515509964 0.9591450288538556 -0.22436698160908544 -0.00021419707723714407 0.00038208524824602844 -0.0007436006417862673 -0.00035451842354995315
 -7.625577943753146e-06 -0.00022625332675526642 -0.0003665884509254747 0.0019323124562717951 0.9282015439807076 -0.35453369201528817 0.00586382100713574 0.01804945070734865
 -0.00024255159202491323 -0.0005201749001958831 0.0003520994147683964 0.0005305287744900364 0.008309704053599628 0.021402896932914098 0.9101044912150282 -0.3200562033100001
4559350000.0 0.9576626506755521 -0.23161344735416223 0.004293374085985717 0.022025854654140146 0.00013909598739120487 0.0007325482707284186 -0.00039831685195593073 0.00023035039364409281
 0.004364066343730067 0.021923204811823048 0.9648649159821685 -0.23108367718177739 -0.0005276132242539205 0.0006186887783767423 0.0002838984597342011 -0.0012014048890730254
 6.611124337983792e-05 -0.0002854224955597171 0.00012474284680105032 -3.7899392255635994e-06 0.9168130305190748 -0.3518454471436627 0.007634635619772816 0.024611128191804024
 -0.0008913727427010229 -5.915178397938497e-05 0.0007508983862003971 0.0005010574047125192 -0.0018551566318914454 0.02312351216293677 0.9251160467331999 -0.3508939951633274
4629340000.0 0.9569918437386058 -0.23180306526466898 0.004721107021364188 0.022280386660118265 0.0005798865675204952 0.00024086769172709604 0.0004962281339151563 -0.00030491793081031645
 0.004286646988187947 0.021896817857304768 0.9590146490873617 -0.2356469289010547 -0.0005559668424277793 0.0003479735759892142 0.0007428445237269303 -0.0001330588690472762
 0.0001791992059273802 0.0003723055432749155 0.00048582755855931526 8.027682069897124e-05 0.9218437982220061 -0.3414154536946167 -0.0012045964748787698 0.015681820696839155
 -0.00028804020772163935 0.0001479779097425787 -0.000662696264511842 -5.418662904893754e-05 0.007576203146200415 0.015902264478130677 0.9276555715846134 -0.3332354831490184
4699330000.0 0.9613336918018914 -0.24000412129779364 0.004196653950132529 0.02202632156151292 0.0003328212778765108 -0.0004901613930679114 7.582851592777703e-05 -0.0007372442213848374
 0.0043932790304616 0.022605758406446172 0.9477002742162383 -0.23331601330831409 0.0003179914299177439 -0.0002369256175309403 0.0009200604760915041 -0.0005288719281804409
 0.0003599493339483242 -0.0009270453282659164 6.669790237646464e-05 -0.00024671756829414544 0.911107240919781 -0.3591324056553682 0.01093335433911308 0.016804421885932355
 -0.000256854292612526 -0.00010914776819413868 -0.0016251230723208683 0.0005834563892334777 0.008499635130039157 0.02207647516469204 0.9105816495005119 -0.34460293073917053
4769320000.0 0.9585104547008908 -0.23431854159854212 0.004862273104364461 0.02281935705840948 -0.00028182092608284063 -0.0006242251643690974 -0.00014762385028715022 -0.00041386036438007093
 0.004360787145062151 0.022418198622930652 0.9553946223529772 -0.24050758016575638 0.0010770615538760713 -0.0005173220518503405 0.0002710119806027077 -0.0001427864458065146
 0.00044709373924881616 -0.00043244355597912154 8.009359431225394e-05 -2.0825041622272033e-05 0.9210183221802567 -0.3597060974186312 0.008472116590849567 0.023936693521698086
 0.0006160604588114365 -0.00027739821435402177 0.0019184165284671952 0.00028869251252886864 0.0051671410444124235 0.016733900052419627 0.9197169801975239 -0.34512210903026075
4839310000.0 0.957065601377052 -0.24967885015623298 0.0045703414869302916 0.02277994293315368 -0.0005540615227966247 -8.20755887703836e-05 -0.0003726597886912991 0.0007446160740687231
 0.004797037571208171 0.02327789441345135 0.9598606310006644 -0.24475033276851063 9.698747773077023e-06 -0.0007270333950433365 -0.00037724760127405115 -0.0005055969571276332
 0.0006788729425838404 0.0005800639504687159 -0.000402253007641647 0.0019425599667409917 0.9144453529524177 -0.36498119038958154 -0.002928169930780038 0.03414708077845761
 0.0007322762779211837 0.00047144824198399655 0.0018560021689663327 -7.81364022562805e-05 -0.0015901120745557685 0.01967807960814479 0.9129043770938103 -0.35943861470032434
4909300000.0 0.9524184261234077 -0.24593674653483763 0.0048582476424349295 0.023388516399223184 -0.00031977073782240797 -8.52589427602397e-05 -1.4037242550274063e-05 0.00031224110196538144
 0.005050178981390983 0.023159881801850617 0.951577265582159 -0.25036139018112774 0.0010934839284600624 9.89420357760489e-05 -0.00025426017089748336 0.0005480421503206766
 0.0009881292172889149 0.00047632659731494426 0.0015414390541299507 -0.0010878419448356526 0.9091512117637739 -0.3629365807107917 0.0036286546973934137 0.02300675340910626
 -0.00019040177956143958 0.0003494333997285219 0.0006450529079520216 0.0005378415401262545 0.006005450921507596 0.020963020348317183 0.9244659458145648 -0.36609923344465983
4979290000.0 0.95086700348473 -0.2574989047829037 0.004879982851164483 0.023671174337889553 -3.8203996595744074e-05 -0.0007678592615049844 6.677870275295619e-05 -1.0767587140552603e-05
 0.0050999622998753645 0.023531327092928198 0.9508807054176897 -0.25266684401225487 -0.0002354293690917496 0.0005621422293013214 0.00027229323330056035 5.412509344809132e-05
 -0.0009136747758746004 0.0004325966016642216 0.00028668454839749473 -0.00014503070584101475 0.8978743260805754 -0.38219725196869403 0.014757872515857053 0.02454891659299483
 -0.0009580346492938606 -0.00023689264722862553 -0.00021248309341921818 -0.0003859482594568386 -0.004418040628442257 0.020359571886815364 0.9106111803689892 -0.33944950713009303
5049280000.0 0.9573413451232262 -0.2577217672353088 0.005010652209599967 0.023773773362018642 -6.968915936845495e-05 -0.00012111195007238391 0.00035238532434951484 -4.06224110939941e-05
 0.005274800926460584 0.02371177904750327 0.9480821084674058 -0.2519031858956023 -0.0003541715216335202 0.00017252679021737945 0.0012843393774625584 0.0004885900310095357
 -0.0005699137656145865 -0.00036906071243703834 -0.00019875429693179514 -0.0008933640339284317 0.9118784966095155 -0.38000699856649556 0.008717666855826704 0.02600944087758145
 0.00010968215180023225 -0.00024307127400089858 -0.0005945915138016377 -0.00044523548434102257 0.0004937274444287605 0.020380301138028602 0.9070182697419097 -0.36886393437706816
5119270000.0 0.9506115567056806 -0.25697710305797705 0.005197322656805674 0.024373989634957297 0.00025743062494064866 -0.00017949332776964676 0.00020089510389733367 4.037337166869046e-05
 0.0048732698987348335 0.023949891350044723 0.9661070153782234 -0.252251892850531 -0.0001777146097107994 0.00045267867528255246 -0.0001833784515685088 -0.0006405249372720726
 0.00022736647495220856 -0.00013920265842018542 8.023691720179042e-05 -0.0002058016143449937 0.8957908072096997 -0.3890754683100984 0.011060868151940557 0.014935330213521366
 0.0008628021690968534 -0.0010264999061635155 -0.0016845733364067785 0.00025611222302902197 0.0028645096332378943 0.02817562648620546 0.9121374600688733 -0.3616614726996425
5189260000.0 0.9616562779257015 -0.2596959040885535 0.005495904435981488 0.024646418973160247 -0.0005803669214177197 -0.00022908546320568322 0.00012268651572785018 -0.00046612786619491304
 0.005474728666080469 0.02469565986061158 0.9539025710057946 -0.2710327203055047 -0.00019973729914424674 0.0002144102523174448 0.0008752791482471532 0.0005439914711269242
 -0.0001983351611001234 -0.00043798308884243024 8.156451565319478e-05 -0.00040868533911818703 0.9190067256521673 -0.38633825948143113 0.010123014799253456 0.028744849760718852
 -0.0005585233874756805 0.0005336134649624328 0.00014662442090038297 -0.0005666779280456602 0.024386333710000416 0.018565780933071995 0.9129497948739748 -0.3831303053518433
5259250000.0 0.9558748054768048 -0.2595812921005096 0.005443282745121385 0.024554298896579153 0.0004514111981947634 -4.0122234521641234e-07 4.724691118323483e-05 -0.00038662204881454544
 0.005136639534614695 0.025052702489963444 0.9520180031427606 -0.2600938929500601 0.00028985509283132357 0.0006309468044063272 -0.0005337269220991238 2.388356410638656e-05
 0.0019320039189598048 -0.0003070320263161347 -0.001702651192526589 -0.002353088629393719 0.91065964545375 -0.38858706499018 0.005511688552806664 0.022288714926834957
 -0.0006381253895001923 -0.00021029131108630882 -0.0006388579477368948 0.0004443105953508088 0.006934858785993102 0.02054395310411618 0.9096368207835072 -0.36740208263489554
5329240000.0 0.9513744606407998 -0.2710339698792397 0.0055141525006889664 0.025103953218418077 0.0006008091100870305 -0.0007556231660827813 -0.000311715121954276 -3.535178262683478e-05
 0.005566000249896056 0.025164984154248594 0.9489888249272019 -0.26559744461131984 0.0007975000927436513 0.0006491252885644258 -0.000469521907402574 0.0005442785238087245
 -0.0007204363145360004 0.00041156145565103027 -0.0008510261608557795 -0.0005401609689438037 0.895470888746176 -0.39737203911164487 0.01201344932064819 0.01712147022422667
 -0.0005307362924499065 -4.811959952854711e-05 -0.0009089716287067766 0.00047952417027266223 0.0005943631347740141 0.01659181977392062 0.904777305655009 -0.3881303493854801
5399230000.0 0.9433143874045364 -0.2670388293925201 0.005803549882371167 0.025635590578327698 0.0003100226314066026 0.00039358952737342896 7.534330439897848e-05 -0.00040766673740989427
 0.005554822412474161 0.02516146835001262 0.9514183347558414 -0.2656959045148886 0.0001263339525742517 -6.439466795939874e-05 0.00012522794798189494 -0.000764085967140674
 -0.0004138503157264102 -0.0013837069064477191 0.0018371840432247746 0.00014745403320245848 0.8866626903039392 -0.3999035950090796 0.014007655724231342 0.021359347055110556
 0.0010337440601107671 -0.0006023038102359042 0.0009916990801974858 0.001039713878222524 0.0010046901635332557 0.01955318247080736 0.8896335250930228 -0.38962786248333564
5469220000.0 0.9356255567624717 -0.26756966295637813 0.0059409177027834525 0.025140846415253312 0.00024815353243740464 0.000629675342926455 0.00038389518861807047 -0.00016792981646129878
 0.005804782090397032 0.024956423069259843 0.9458034060968497 -0.270131061310248 0.0007341845685478759 -0.0013839448212983395 0.0006661889838418141 -0.00025456537894811014
 -0.001083340063945161 0.00035973888118729546 -0.000592050299588124 -0.0005630772195550914 0.8779702417110496 -0.4086936949026421 0.008011956241210892 0.01540028667782048
 0.0011642016283457022 0.0009824001912538557 -0.0014527440766746672 -0.00039892782896896756 0.0019023767882443657 0.016981528846065578 0.9108315052807604 -0.40022701395205085
5539210000.0 0.9460700502733238 -0.27824171827674554 0.005787769607896708 0.025861993117395697 -0.00033769071349049897 -0.00019417763559627022 -0.0012114118551311258 8.5744935781137e-05
 0.006417965037232401 0.02587044922404654 0.951846755926006 -0.26828840307266305 0.00010847112363530544 -0.00020599236973406113 -0.0005104723746797699 -0.00031973596671823197
 0.0004602346748567087 0.0011314448614374373 0.0002547242105868503 -0.0006526666220191917 0.8748126476914024 -0.4196886819964689 0.012315326126225669 0.016441371620708262
 6.619455948203059e-05 0.000621814773409614 0.0004295095184150817 -0.00017996621534155794 0.00628363947704886 0.02503663391845616 0.8995935235709841 -0.3973486284745082
5609200000.0 0.9578319418368955 -0.2689983121829239 0.0063513789735803895 0.026194795560242384 3.42187525716625e-05 0.00013173289594385363 -0.00010718240922900663 0.00023045170166469237
 0.006078017760353322 0.02614011474625127 0.9482526606793973 -0.28507835132637555 0.0005981150746933962 0.0006972046050780036 0.00030341246029543 -0.00019146951019436258
 -0.0008402113986047721 0.0009137134295555885 -0.0009559129133773366 0.0010689952283442492 0.8880246480320753 -0.40195398978227537 0.01564807011743119 0.023490690812186722
 -0.0019651603769815446 -0.00016215607664287024 0.0008379736137602442 0.0009806959293994263 0.006166206993798303 0.02941196462576994 0.906380818770291 -0.39255904903110195
5679190000.0 0.9405627436034647 -0.28564359988133525 0.006413714071890657 0.02643356880190783 0.0010122998810494362 -0.00023499934304979574 0.0002909916480436087 0.0009211095433475556
 0.006209762152729753 0.026265743417974205 0.9432480203042226 -0.28468403257358466 -0.0004328858360776887 0.0005092763117383717 -0.0001901150167273639 0.00021392705663354937
 0.00028665658349772365 -0.0006434742629275642 -0.0009181951448194464 -0.0014965108861548064 0.8802116558185229 -0.41641720869937066 0.0035659610131270002 0.02149050011721952
 0.001187594325424491 -0.0006980874021114554 -2.7161585928798596e-05 -8.759280836120786e-05 0.005845741630363973 0.022348562419436654 0.8927623163782924 -0.4127336503953795
5749180000.0 0.9342694309583388 -0.2901813263638274 0.006557826833698529 0.026607915783623506 0.0008640348002280171 0.0005798261554729849 -4.8967712845200817e-05 -0.0008629954274235958
 0.006509575221628621 0.02633252889919003 0.9423785192528801 -0.2794422468977876 0.00020694491303535593 -0.00012753602264374366 0.0008789914214359499 -3.766573271552815e-05
 0.0017679047216672082 -0.0008408449778090478 6.722997612052367e-05 0.0008291325945867811 0.8788503754335023 -0.4322445321681192 0.01021361256397147 0.02229951804484745
 -0.0005248933444870309 0.0008737972037659137 -6.563612417125782e-05 0.002186633182392174 0.00754560952404877 0.016685196359165076 0.8837203912538845 -0.40958673480409485
5819170000.0 0.9401601165764886 -0.2946879697994151 0.006316733523466319 0.026764161518855516 0.00044957487132200576 0.00011897597832959411 6.38769213033456e-05 0.0009781781977039681
 0.006923054214290923 0.02672529855635428 0.9492764820645879 -0.2778234850988583 -0.0006525150746834256 -0.00033802799087886916 -0.0005860141697290876 0.0016102793109087801
 0.0005241838340449768 0.00025128856332935166 -0.0011361915975058397 -0.0016832183017130374 0.8709427707293583 -0.4323287570621338 0.00897560341373792 0.019775359079795073
 0.0010193335602094883 -0.0009555175919704192 0.0008816146596610342 -0.0013424644705033978 0.0005961000483249235 0.023840441007397618 0.8914931145173964 -0.40629110014695274
5889160000.0 0.9352796700402582 -0.29188855099735794 0.006882881821280607 0.026960034624838376 -0.00025910536581398206 0.000502457069193652 -0.0005421917391087359 7.250274955742548e-05
 0.006988186115896157 0.027102512677379793 0.9402540250644389 -0.2950391436712443 -0.00014749582278467954 0.0005106934420101581 0.0005770176769900804 -0.00036215227121329035
 -0.0002852455109403279 -0.0002674224396177311 0.0001566440346356959 0.0010322836266307895 0.8680134151827875 -0.44198395233363946 0.008110359904151345 0.01775938697114955
 0.0010207220933312886 -0.001159188283200531 -0.0009180478986307066 0.000420196922592784 0.007042996360781856 0.027914846934259926 0.883999898934633 -0.42977536365890256
5959150000.0 0.9269180703388545 -0.2986185277153787 0.006721852397643397 0.027249896955159114 0.0005262858013959437 -0.0008051884557454213 -3.372084992871779e-05 0.0007927064918490883
 0.0068941186829221 0.02686966469639196 0.9400906652600814 -0.2939169321329085 3.6032188651340795e-05 0.0005452507485735143 -0.00030169059043196246 0.000836475071869084
 -6.957655641487502e-05 -0.0006441728673610465 -0.0017160243589804526 0.00010516698381637047 0.8728532673308269 -0.44325577195633065 -0.0013653126607556937 0.01889210428829813
 -4.410058219266563e-05 -0.0003768754204598061 -0.0007715680396898476 -0.001246387894381956 0.00925357704575734 0.022257265122863315 0.8863387924862933 -0.43197120259349947
6029140000.0 0.9445914430589416 -0.2882170567879376 0.007051534017966923 0.027699776945996235 0.0010143997382055302 0.00013392565376969042 -4.606053948470931e-05 -0.00032586238346624184
 0.006828145784961526 0.02771091867221532 0.9433208984436917 -0.295003489192576 -0.0007537869111078726 6.451891071310983e-06 -0.0003526446191917514 0.0006257182491085616
 -0.000857478642403874 -0.0004718765647691499 -0.0003606274732737948 0.0006554287617576756 0.8714102557824122 -0.43859617818883095 0.016564302940306995 0.013980491577333812
 -0.0003633669128185086 0.00030724282539066944 -0.0008489326995050352 -0.00033596370277617606 0.004327642206799875 0.021899517194709457 0.8866088671594541 -0.42621662507337
6099130000.0 0.9306493322171827 -0.30313674909622396 0.007315705987391266 0.028097087622334763 -1.3054680798915454e-05 -7.697840054737796e-05 5.462157538991576e-05 0.00024212636604768848
 0.007083692275823713 0.027532158091610862 0.9407943959549018 -0.2957899500196923 -0.0008865863704454968 0.0002452806930578103 0.0008315195026759287 -0.0004900385919249495
 0.0008277604080654949 3.76532515560999e-05 0.0006994975452226853 0.00038433234398572167 0.8582325684810819 -0.4486004790859652 0.005551898772693688 0.022329017664155154
 -0.000565454723548283 0.001395284847918677 -0.002149652723453853 -0.0011912678926343143 0.0113566556783732 0.02089905328375344 0.8777088232880164 -0.4292847860503274
6169120000.0 0.9354243352828789 -0.3073740475413456 0.007379629091275887 0.02796272637028122 0.0004390275545973072 0.0005541821147140593 0.0002604354262799813 0.00016583841699184347
 0.007652468522276502 0.027762314260616663 0.9367411814990254 -0.3090259687489788 0.0002997526783223877 0.0001648436416839681 -0.0008144593503605486 0.0006772512486796913
 0.00015030964431213522 0.0001944123771696865 -0.0005616603342677105 0.00035802522943936273 0.8710913596443748 -0.44831052583771275 0.015462055014711755 0.02062746236555177
 0.0007544156985713072 -5.2743220165979726e-05 -0.0016729767048527368 0.0016819531421610485 0.00797750916882754 0.02895057904387229 0.8744513288223236 -0.44154437417265263
6239110000.0 0.9437747611309744 -0.30792719473555297 0.007436641568713308 0.028011904555633065 -0.0004223231223447805 -0.0006273164547708488 1.0274832822582897e-05 -0.00013746884367697273
 0.008044125738967258 0.028426580203876235 0.9314437092392188 -0.30836372157842995 -0.00041289249082441035 -0.00019936537425647416 -0.000529139444715615 0.0005999101028464101
 -0.0004481742683681317 -0.00012139591196884816 0.001043377082837643 0.0003136145700109758 0.856884168155401 -0.46518566184555765 0.0061471705006333425 0.02241478905530733
 0.0002443363631454095 -0.0004232476903321787 -0.0002800995723814805 0.00025728340368482864 0.008672387703317163 0.028559098077790356 0.8691323716270083 -0.4383394269890281
6309100000.0 0.9284557052243994 -0.3156105256952274 0.007294209164998739 0.027886702730297922 0.0007246417553817124 0.0001350174964849802 0.00032050485917624913 -6.171596890952031e-05
 0.007833526186145894 0.028298867545201802 0.9259139588882247 -0.30458135732588265 0.00031097230734617907 0.00021218707890757323 2.0906112605769896e-05 -0.0005911880131111585
 0.0005988439299562727 -0.0008919069809658957 -0.0003918045319045738 0.0021891751718329205 0.8654546555100247 -0.4667682612943619 0.013605112783976489 0.01884595036722859
 0.0011316251090027051 -0.0003383372994701474 0.0001556625069328018 -8.966731168481531e-05 0.005589031102501214 0.024424950002431122 0.8682655991751975 -0.45724606927931155
6379090000.0 0.9307978372434031 -0.31169695248196844 0.007802536385178643 0.02871927363505036 0.0008335530656752963 -0.0011859956848771312 0.0006264934338927429 -0.0006078845066931087
 0.007867704956224096 0.028504790469954997 0.9348473878987047 -0.3193420993543115 3.943949200103287e-05 0.0001803513218370043 -0.0005194498796469245 -0.00023952684003012553
 -0.000168287925224862 -0.0002314746483584614 -0.0011879332824873993 0.0017351471770519868 0.8650778593630755 -0.46690812878137816 0.012846737969090024 0.01796606590957677
 0.001637821887116181 0.00034419154578251964 -0.0006054198834083664 3.456904731816998e-05 0.018498062303486325 0.025090573917244473 0.8746416512122265 -0.45398760494232965
6449080000.0 0.9338517022577606 -0.3246429966866625 0.007853889268687365 0.028804384272700503 -0.00016041685326465016 -0.0003020142419337376 -2.4565281849866684e-05 -0.0004945479279544733
 0.00820353537272476 0.028832365294230927 0.9267788459495458 -0.3185119018060977 0.0005713588832804246 8.189996759726065e-05 -0.00035444575831881193 -0.0006775197965896722
 0.0004406499869268578 -0.0003307003865182874 -0.0013728089636798296 0.0016874591200890152 0.8617103253455632 -0.4879137099276865 0.0150586678561019 0.02024808939648739
 0.00027993890410692846 5.954130470678317e-05 -0.0005192991691626425 -0.0006948616389369538 0.013520456225954425 0.021010730201099528 0.8688321303600364 -0.4595374743587142
6519070000.0 0.9245378634044323 -0.32290489657723176 0.008295193721969874 0.02927277905328874 0.0007827741830451741 -0.00014639209431500661 9.053735647492669e-05 9.515739331990641e-05
 0.007958841516404077 0.02884310515169898 0.9374383635883138 -0.32629006249349163 0.000216822394643582 0.0007634533779080921 0.0003305255103280313 -0.00030741427368772054
 -0.001523276232439767 0.0019639657497800872 -0.0009417302228680326 -0.0012406882466954965 0.8600715717276799 -0.4795944544265402 0.013565085438626076 0.021880101903299132
 -0.00029214729204289793 5.934618112503808e-05 0.001283295555522075 0.0004413543058096239 0.0017930637204387667 0.016581276312084 0.8694077332075506 -0.46224523716234617
6589060000.0 0.921340974239451 -0.31944942815494765 0.008143184712723244 0.028600512342788313 0.0004316504210324149 0.00020386632002505846 -0.0006230203306428818 0.0005553796156863596
 0.00831127270741079 0.028981244369652354 0.917856179140518 -0.3242561628338762 6.338526106007465e-06 -7.017713534378157e-06 -0.00020789016021131824 -0.00020483227564645188
 -8.127136027380746e-06 0.0006035678974942922 0.0007845302498869192 0.0001465984951620867 0.8406615946837689 -0.4791296746322002 0.0157507142414964 0.02318181554090032
 0.00020331305108439046 0.001144834522918318 0.0006245032543481208 0.0005200820225462078 0.015962522032001165 0.02101294252876563 0.8597017972035569 -0.46963015647894085
6659050000.0 0.9346006981922576 -0.33169485978840774 0.008360659649732406 0.0294005836191514 -0.00015877885523145306 -0.00020067706609970832 0.0007216091673175748 -0.00023174004109890496
 0.008589292465526241 0.029462517132769477 0.9241641970685478 -0.32514702949452706 -0.0007654591406721248 0.0003426918482976313 -0.00030907372743227396 -0.00024820249081902094
 -0.0005308122496853047 0.000980129712625567 -0.0014969498536762165 0.0008314506297345848 0.8542017100979233 -0.4886849715486479 0.004538639263983718 0.023764864487101304
 0.0003026286831512697 3.8120323351063896e-05 0.0003541966470583544 -0.00031325036256066004 0.010210973736913485 0.027566891448815245 0.8571439050346665 -0.47255283411763793
6729040000.0 0.920992041985482 -0.32686778870512334 0.008350842460347578 0.02997039778230746 0.0003680120803233068 0.00010786586858759135 0.00012125739414611507 -3.981288605926118e-05
 0.008642242199906905 0.029299352653940635 0.9268286557599131 -0.32778258592904497 -3.205429298503921e-05 -2.879512626763217e-05 0.0006160481513352406 -0.000855315047575101
 6.997151029015011e-05 0.0005336331170951923 0.0006850379899217382 5.127861706126129e-05 0.8351239124752328 -0.4980262020178672 0.006194688012189169 0.02452836348975491
 0.00040758743638210477 -0.0005903709972452209 0.0004749163937360897 -0.0010752036691885456 0.015247187437207824 0.02043395920473945 0.8630393600144368 -0.4704345225595315
6799030000.0 0.92317045575781 -0.3322626242833828 0.008492890701115344 0.029652643188770512 -0.0001428334791474856 0.0001714584048417603 6.018836494613836e-05 -4.063826395383557e-05
 0.00865217244246135 0.029856619164365588 0.9243948836164823 -0.3310071337645152 -0.00018486725665795844 0.0002946042761059644 -0.00020086338503852522 -0.0003780921902224745
 -0.00036717890751932576 -0.0004029094060122011 -0.0003701017452221697 -0.0002944407381264272 0.8409013108194018 -0.4920018483875393 0.004698682039399225 0.025815221199874935
 0.0007781195384191211 -0.0006997558708776114 -0.00018509786556794269 -0.0002271158402422367 0.00834597023975696 0.02327939060520814 0.8611261035792243 -0.48136613118609906
6869020000.0 0.9244498575952284 -0.3467216040035017 0.008748695603769655 0.030265874151060308 -0.00014630295261302054 3.805208162242376e-05 0.0010327770056722057 0.0006322604274255219
 0.009327106981862742 0.030128519865548983 0.913656286093536 -0.33297265342760507 -0.00010792776995275115 -0.00043834287182697486 0.0004566340563681245 4.514026449783986e-05
 1.7743805169594422e-05 0.0010255480339083915 -0.0005899011097291934 -6.814120725473022e-05 0.8378567455678392 -0.5077231326255776 0.012628875718713297 0.023678292929967044
 -0.0007691029372555137 -3.206149968898973e-05 4.0666917158531854e-05 0.0012743404634805806 0.015341843379779478 0.018820419520289965 0.8513321843403262 -0.4784763202002813
6939010000.0 0.9175749333695394 -0.3432112365706668 0.00885900018926059 0.030364102797868425 0.0004214704915750292 -0.0005094826174098394 -0.0001484761448178847 0.00026242642276733076
 0.00934128502834547 0.030197039478024674 0.923142097694687 -0.3367794069787862 -0.00015282404887459933 -0.00022012756529482723 0.000544101272593373 -0.0005121654237504587
 0.0005469411158460365 -0.0005806206730682952 -0.00041098597283614665 0.0010133335898087144 0.843315230305918 -0.5155124389974939 0.019218380691257454 0.02141788162174274
 -4.476354824764787e-05 -0.0009140181006432917 -0.0014832431244800196 -0.0009984914370480798 0.0053226610049803575 0.023908241352295787 0.8458936083576111 -0.48232876032665467
7009000000.0 0.9234946601830413 -0.33824570237504004 0.008876155926403383 0.030317155017547153 0.00012883591381791467 0.0009556833962235527 -4.7864689603284254e-05 0.0006399560390924149
 0.009326832389879343 0.030583404942172654 0.9226170188018129 -0.32703244693587696 0.0003014709236308861 0.0008470558106720901 -0.00018592458552826047 0.00011615872322677759
 0.0006217994367356287 -0.0004013425921859585 -0.00045163486869848545 0.0011123539453315736 0.8232832659633599 -0.4958093599707189 0.017371228528591715 0.020733702395658558
 0.00043062327154022286 0.00021277416218783173 0.000422587292608512 0.0008079739202993916 0.014254488591482942 0.01953054316895384 0.8413214687395726 -0.47939352442572175
7078990000.0 0.9132790748927786 -0.34645732281989444 0.008892903259885659 0.030593549216325622 -0.00012558146411679753 -0.00010294252233498416 -0.0010190015760339673 0.0002015866258474199
 0.009264416835423986 0.03025658374712272 0.9181424094981454 -0.3405421684246554 0.00025428541740244766 1.17866713081512e-05 -0.0002297410945349275 0.00018247736093666734
 0.00027628290101805995 -0.0005351961769226128 -0.001063730447257479 -0.0008652288980091754 0.8353684097392823 -0.5120520076435051 0.00447747646712568 0.026656132477843767
 -0.001517976284978231 0.0008473255074656849 -0.0002059948267101603 -0.00010326067280339706 0.006788633538342357 0.020466642514009047 0.835327189253141 -0.48488803671239417
7148980000.0 0.9216495438547669 -0.35046871825848847 0.009513328808026526 0.03099032858690203 -0.00011180398845493754 0.0012056496639430091 -0.00048059817094082697 -0.0003713560358021262
 0.009616019445747623 0.03094158301487639 0.91313628161744 -0.35010058730523197 -3.427575934600792e-05 -6.759658926019392e-05 0.00017278946271811593 0.00012941902162701716
 0.0007590486291480029 -0.0008594751702184848 -0.0002436470043722092 -0.0020032319754151352 0.8179523865366498 -0.5029418399327076 0.012027517086366325 0.012401118688842324
 -0.0007164484049568491 0.00023394447584633297 -0.0008120020227593953 -0.001170509165117736 0.01211899913060916 0.016307510803568695 0.8398520241863779 -0.4962177215028435
7218970000.0 0.9180138040249073 -0.3525294453362424 0.00961683330330845 0.030752231217824926 -0.0004610407854588543 0.0006066685252964772 0.0003139117196146889 6.710282814765829e-05
 0.0095943861858473 0.031020345229496406 0.9116813173830756 -0.347902250528068 0.001241137037079603 0.00036654590625176544 0.0009342533432007356 0.00010801365156497195
 0.00020117694193718996 -0.00012567454683936875 0.0004120488152557378 0.00018549621142257666 0.8216326656632958 -0.5068852697887916 0.006560180299752891 0.022199658760745065
 0.0005326540058428782 -0.00027394279306418415 -0.0005912151887900333 2.157245251463553e-05 0.01735172752218124 0.03205681155598401 0.8348631316736037 -0.506024421206504
7288960000.0 0.9124961629053322 -0.36007775723005625 0.009616438099066057 0.03105216572083151 -8.905316720924824e-05 0.00033273652257558007 -0.0002710560599690016 -3.115181142948312e-05
 0.00978356492897563 0.031140751375648812 0.9064270431200838 -0.3471798825357438 6.99200356411843e-05 0.0001840561159349779 -0.0002452494350504129 0.00012316961028792503
 0.0011822931650106831 0.0005328555663727709 -0.00043000516072118556 9.803235516357446e-06 0.8134053668339843 -0.5260298766673471 0.009640135001410036 0.012700703424760759
 -0.0005775686233186114 0.00050896596297303 1.5083863072607461e-05 -0.0006892043547805101 0.011049146220393494 0.021690205163847728 0.8304785427965966 -0.5170126376235482
7358950000.0 0.9129872736339839 -0.355088662486447 0.010211023636019405 0.031172097114256492 1.6934840402882336e-05 0.00025231174396844345 -0.00020534391313977422 -4.443688240815323e-06
 0.009817050308778271 0.0311641141402395 0.9121968260400121 -0.3607704006798365 8.982492594188833e-05 0.00037090509192242316 0.0003671733338840573 0.0004279209012808581
 0.002030995338553681 -0.0002457453234683879 -0.0008339945957215054 -0.0008176293830449687 0.8179102248960354 -0.5183168092810798 0.022704504618741073 0.019767481945011874
 -0.0007428175913042249 -0.00016574267900447656 0.0008754518250345322 -0.00034650578912858164 0.009222731725257583 0.02075089165948139 0.8452849528766953 -0.5172630416593934
7428940000.0 0.9147102185336787 -0.3677649307187116 0.010247970764036031 0.03141139604453095 0.00029258682573329 0.00011284518337882003 -9.62624919544642e-05 0.0001997206553700523
 0.010446577642624466 0.03171791256378948 0.9104187128881439 -0.3609840367194707 0.00033671938823035165 0.00014262140096745743 9.306436322998524e-05 -9.116288544396048e-05
 0.0006685541315042069 0.0008275278266021657 -0.00015315088802286876 -2.58136352845942e-05 0.8101267895641427 -0.5299166717159188 0.006807053006402685 0.02255553669148277
 -0.0007583851521130331 -0.00042051126897372945 -1.5687884512881088e-05 -0.00048796837464939297 0.0008366891021299559 0.022228469599719348 0.8262346500796679 -0.5165993554910864
7498930000.0 0.9060181694241025 -0.3681725306858432 0.009806492124373765 0.031896327880386675 0.00016356344080762738 0.0007697604829031984 0.00011116021195985832 0.00035530019373946394
 0.010202480897457525 0.03151773491743132 0.9061606156942257 -0.3517538576799565 -0.0006236635726342347 0.00013998030858389457 4.455480237177156e-06 0.00042867390123910615
 0.0001269171679020971 -0.0012968601866301585 0.0009392935444172703 -1.2121917805690453e-05 0.8132130540888373 -0.5396375123773113 0.013752121377163301 0.025296756062437947
 0.0006344402240378375 0.0003221307189507634 0.0005004301550056227 0.0007667675403868387 0.022994734753353438 0.024911512195332768 0.8196729506817203 -0.5305864378338538
7568920000.0 0.9126238170507576 -0.3738677044752197 0.010181285952173671 0.031965950346436664 4.0372935619128884e-05 2.735338350676565e-05 0.0009904477110813175 -0.0005700013498185631
 0.010541357361188487 0.03209269617181429 0.9021902638246163 -0.3629426725548409 -0.00019502023551778741 -0.0001895561981511486 0.0005345586406731095 0.0003927795262354752
 -0.0007360167460143045 0.0005253911309539498 0.0007447520503024984 -0.00010103720806358783 0.8109786331664871 -0.5458140453189508 0.014852891274723435 0.021582818521015196
 -0.00015840887742970213 -0.001896778945279687 -0.0011537979661833501 -0.0008372376477246302 0.022351796920046567 0.026842527064032035 0.8286030415942115 -0.528938231695174
7638910000.0 0.9051441554821511 -0.3744000498728938 0.010503095986231675 0.03231772040272763 -0.00018474032803033168 0.0004918742102368723 0.0009138205247408794 -0.00033226556996991154
 0.010528554714159626 0.031966548573721325 0.9048960947056772 -0.3667764056522222 0.0007053846454897946 0.00014318509696541326 -0.00042533945381139705 -0.00039033124550724084
 0.0006979879617564921 -0.00017022675581348693 0.00017260909635360744 -0.0005973713466283858 0.7988807622783497 -0.5414054930761995 0.01662159420242443 0.028455632889536845
 -2.5770342172806256e-05 -0.00041358048785641074 9.601793138034877e-05 -7.089290783119894e-05 0.009708305381198075 0.015474624894872268 0.8198524399105649 -0.5252379465947568
7708900000.0 0.9050203864809816 -0.37957285207963776 0.01056622378680042 0.032523471758567644 0.0001454712495311232 -0.000666152340526452 0.00014759761791396624 0.0006285474114490115
 0.010788448396445103 0.0320861034893571 0.9109902807801303 -0.37437310060631895 0.0006587450889411115 0.00032614395200295106 0.0002666368262780512 -6.049168679866358e-05
 0.00046147114800577384 0.00036202848495499627 0.000592599243554442 -0.0006165251664545033 0.7923872550250334 -0.5522532954715546 0.006627352309398504 0.02954552667073787
 -0.0008683139449387929 0.0006024112251299495 0.0004321780024564798 8.960926777020368e-05 0.011156032835177992 0.025012953186735284 0.8310141923685801 -0.5272016732650678
7778890000.0 0.9041370125291834 -0.3766745871155698 0.010704071121483931 0.03233626320861961 2.7865179526264726e-05 0.0004216291318609962 -0.00014582020101794663 0.0006897942718192519
 0.010498283762294145 0.032588428859985856 0.9093925011221826 -0.37215198770144836 -0.0004478318952153824 -0.0006140182565827085 -0.0011069420621049912 0.00016859315891156585
 0.0001300687556899951 -0.00015551701738957522 -0.0005935329081776804 -0.0007603218619983964 0.798317652721032 -0.5435643191582056 0.022897250813965767 0.02433977944109579
 0.0007511450393090927 0.00022200127653961005 -0.000578581256556515 8.709526327953685e-05 0.007160959954035328 0.02309546127991636 0.8112378179988814 -0.533846295719095
7848880000.0 0.9133830706199414 -0.3797180962778321 0.010928761993660835 0.03242140162510992 0.0004119536246076242 0.00010687749305464492 0.00034711657813972296 -2.115620203351255e-05
 0.010768159484031252 0.032375620646752985 0.8964374652759775 -0.3819776625225144 -0.00041483395207262026 0.00016086517143331652 0.0009299849564356436 -0.00028067824068915445
 -0.0011324800907513855 0.0013365328420574655 -0.0003625259920136524 -0.0014689999269677293 0.8017866981015219 -0.546303903902381 0.013203277754079625 0.01903216252665188
 -0.0013165522072290704 -0.0003544172255740928 -0.00020974032662755577 -0.00010220431353929683 0.026071787128243543 0.027260973441658416 0.8131770874657147 -0.5413431229801375
7918870000.0 0.8918158764498395 -0.39036959844382196 0.010653123179692173 0.03291006529057172 0.0001517301850142294 9.965836028079526e-05 -0.0004848091176437154 -9.411090272736617e-05
 0.011286146356250557 0.0324302089044829 0.911056218185796 -0.3710135472982478 -0.0007664955056856686 -4.856227582648617e-05 0.0005049572222632878 -0.00019769072079567023
 0.0011197241339947488 0.00023446065198111043 -0.00047251650780804467 0.00032420305624361714 0.787111303566885 -0.5650366809973896 0.007139368056464009 0.03316380198610671
 -0.00011215618047976368 -0.00031054417280488786 0.0005814928498051968 0.00029605201137266544 0.020219295204738266 0.029799245392722218 0.8077715305258871 -0.5423584342908709
7988860000.0 0.9029358523575143 -0.384973112627875 0.011360418659327912 0.03318571699688718 -0.0008666834589683954 0.000201776045409879 -0.000965904965350538 0.0003160031148337314
 0.011124429138548218 0.03279448887135782 0.9009841123758987 -0.39024766099488867 -5.489723808457867e-05 -0.00027034293414061265 0.00011557795065242776 -0.00035495270826637866
 0.0003674313670427241 0.000592683502087626 -0.00030160174928553995 0.0007846554445017223 0.7923594751604687 -0.5712993014948878 0.015224797147377877 0.014907302204792278
 -0.001156706763470927 0.00034208103566923324 -0.0005351976157738774 0.00040866723812061213 0.016908321269280425 0.02080725021008911 0.8119367013967242 -0.5529317313447362
8058850000.0 0.8891535456778217 -0.3820765082007713 0.01146991457736663 0.03283184847465496 0.0010791791241653128 0.00039224588086333 0.0003747384039960427 -0.0009346615682990277
 0.011495015357466283 0.03278969448152672 0.8927971929062624 -0.38789988784873936 0.00037993167931041274 -8.565655972995747e-05 0.0004008953870020746 8.342942934021738e-05
 0.00036788225323435204 0.00026591259367737694 0.0004411360112405748 0.0005641404958671394 0.7620297230506431 -0.5739068154370528 0.008023077241043796 0.02223149395579321
 0.0006541147971109301 -0.00013185192871351795 0.0010573884183653866 -0.0013697344402294012 0.01309258738351411 0.02065720783131935 0.8027030905363731 -0.5569232251286171
8128840000.0 0.8905342310400385 -0.38830988882754 0.01148769059260957 0.03292892621786529 0.0005131411069479006 0.0004308864206132266 -0.0007453603897767264 -0.0011190968828774
 0.011479780026881435 0.03296414107279196 0.8966791365931933 -0.39159256747404964 -0.0014929575761335404 0.0006218954829653844 -0.0004568127317374333 -5.015823090834576e-05
 -0.00013114260143471122 -0.0008660440906040819 -7.482765557796748e-05 0.0005662401392704102 0.7793586725348274 -0.5669865668880715 0.013148139280448178 0.01898717750222012
 -0.0009636614303996906 0.0016350587522349672 4.0760409415566685e-05 -0.00027844501495758475 0.006442923018871348 0.026659904870298633 0.7998858348098479 -0.5564421301663469
8198830000.0 0.8981643337853986 -0.39130638308540777 0.011697665826433267 0.03315268713412964 -0.0004151247575271867 -0.0003775040803118728 -0.00039414351238085916 0.0001614853169848002
 0.011543938619405853 0.03349408706978219 0.8909432359964382 -0.39583364815129307 0.0013029118168336065 -3.3980905691862275e-06 -0.0009072083365848459 -0.00046616769795338435
 0.0005903813778622886 0.00010917368561821634 -0.0011287936192160028 9.086221856587427e-05 0.7739681795111567 -0.5730072000723386 0.017714996310087855 0.019999368117271082
 -0.0006943629101475761 -0.0005230689982828565 0.0007465299276979908 -0.0010432123518586407 0.020842640256421956 0.013255019826167017 0.8021675228165864 -0.5580796695956246
8268820000.0 0.8930853681817033 -0.4107990576985928 0.011440925193077245 0.033638805309789244 0.0009502335902276119 0.00023187374477289479 0.0002582816819063884 0.000552863700055948
 0.011919036558565674 0.0331719060631195 0.8940981927179785 -0.3911161313647858 0.0013292023404469135 0.0010030425077919847 0.0005741801461923626 -0.00038927394286940623
 0.0013968582939513391 0.0006215691114941743 0.0005831877668823807 0.00018477839398162296 0.7818533400311933 -0.5759358965000733 0.014344736529174468 0.02464460774229179
 -0.00039902353595266536 -0.0007621176381555604 0.0027664071246967033 -0.0005394323988754498 0.0004545867359500477 0.013093731260772382 0.7788157337230379 -0.5703455981447352
8338810000.0 0.8974210622833078 -0.4058837446865579 0.012189308395999578 0.03330463598042724 -5.76737123297785e-05 -0.00020325524823035308 -0.00045865185558200495 0.00015295645535521772
 0.01216569453433338 0.03371295868793408 0.8880917336156811 -0.39832525862790685 0.00014067160955970605 0.0002963713243172816 -0.0007086233233886216 -0.00039194470651794216
 0.0001639185054217373 4.3616383526782534e-05 0.0006203851674228607 -0.0004312251727497525 0.7705686521168625 -0.582262286713066 0.017090865173139732 0.03426767850025611
 0.0007337623632937666 -0.00012911535647588344 0.00023354885150876617 -0.0006328213806993115 0.010475345476090291 0.023208785389924977 0.7824991966766726 -0.5654423271230247
8408800000.0 0.8977705335219651 -0.3982168060394876 0.012464588465613071 0.03346961176684794 0.0003593544257186445 0.000565065375682891 0.0004531745823052092 -0.0002553549221847149
 0.011861336405651854 0.0336093343006479 0.8842442768473152 -0.4071855030260934 0.001048758388536736 5.9446126870587196e-05 0.0003410131594345774 0.0005781047058013266
 0.00022829601807088857 -0.0002822993861201941 -0.00014894424101156168 0.000414575590170903 0.7765585741288754 -0.5770436284098124 0.019389239154671757 0.0190990988841518
 1.030114535598572e-05 0.0004301862484241704 0.00013179215856902584 -0.0011476222679067346 0.015932476496553823 0.015778849446234543 0.786432931744432 -0.5728718917245139
8478790000.0 0.8912621850190264 -0.4018752972456104 0.012447140606031476 0.03348856501688002 -0.000493031946839571 -0.00031437309326973526 -0.0005542000557314814 0.0001861568750621236
 0.01177385454134441 0.03416723393506266 0.887013442338262 -0.40007949070219395 -0.0008469781886419966 -0.00033559207083116906 0.0001581653318077723 -0.00026531365237958415
 0.0006074411196837427 -0.00045552489022658316 -5.705905792742105e-05 -0.00015181040397683134 0.7568134269278167 -0.5866888994510713 0.022389227783197827 0.022271262126404987
 0.0008896233204169799 0.0008405408412957833 -0.0004197342645999584 0.00011278158443691617 0.01076862214345402 0.02331906034901005 0.7760611692978391 -0.5747108813328659
8548780000.0 0.8804434115346769 -0.4155001354557681 0.012686852283794157 0.03421620502165848 0.00046564663435224327 1.0718787580367105e-05 -0.0003023297561250145 -0.0012083996406547068
 0.012531710807020275 0.03377925165484267 0.8826722559817738 -0.4061427243603432 0.0001519071578537117 -0.000841690077614645 -0.00011384837199670769 0.0010382092326684097
 0.00013348413300623196 -0.0015067559828598784 -0.0010500635819862495 -0.0013614254517089483 0.7394885129714228 -0.6035953990489811 0.013935080319415635 0.02524767650335422
 0.000561616383727065 -0.0011822202721029108 -0.0010777344738412587 0.0006168996610434745 0.01277374863155781 0.016908004653578456 0.7853539570395041 -0.5938436944514331
8618770000.0 0.8848419160864861 -0.4116297961507454 0.013086409265579697 0.034250652349891435 -0.0003866608230652113 0.00018716814306997482 0.0003447151053227111 0.000864567437061074
 0.012544413352004402 0.034199299659075186 0.8854390738272163 -0.4159017838866785 0.0002476492273859696 0.000669668554058874 0.0001491766383289557 -0.0019429615502642183
 -0.0002376579880494265 -8.280917526631146e-05 0.00010876900692639801 0.0008480649244817178 0.755268124736642 -0.5921805257007138 0.02019851266539781 0.014904838536152955
 0.0010378576039673378 0.0007139162902476008 0.000755337112941128 -0.0001359824061889047 0.0109677366715411 0.01818369941276069 0.7814798557683483 -0.5779628920307737
8688760000.0 0.8857977252678672 -0.4152709583445549 0.013122145442374803 0.03441357744294987 0.00043225411529402473 0.0005561388235008015 -0.00010838584103583752 0.000741552580191665
 0.012876597608019348 0.03446531024784133 0.8799438222310576 -0.4188088372672076 -9.290393901713052e-05 0.0003271883957536246 -0.0004282803619998856 -0.0009934295780148882
 0.0006365114556688702 -0.0012968675434838106 0.00010257361262193247 0.00013293226064718336 0.7422770904981408 -0.6032974105332929 0.013288808539048071 0.015879061761410244
 -0.000800639882199708 2.294567250589691e-05 -0.0018858003420111678 0.00043879091242142964 0.0014923753084645605 0.020504787157748134 0.7751918594509184 -0.5878692802953946
8758750000.0 0.8744328491637279 -0.41564785119102543 0.013095463605939292 0.033877060723833445 0.00012552101989895392 3.830616739054814e-05 -0.0003032866369734309 0.00019984704946582552
 0.012503064574722077 0.033864408251675686 0.8753432963636838 -0.41422978821872936 -0.00022750435527232817 0.0004609214399258048 0.0003643594763809215 8.462810033657994e-05
 -0.00039755895718843637 0.00019773758494359624 0.0001278900101240655 -0.00020545909760755017 0.746485793843745 -0.6025960678188833 0.012906739579822272 0.027769329973553365
 -0.0003600954689521188 0.0008559975198337755 -0.0015913507555121375 0.0004122714234488819 0.013387149963312965 0.015903795644623134 0.7660412357667221 -0.5929858073844999
8828740000.0 0.8794299813478309 -0.426344668960091 0.013462744225206312 0.03490364592105846 0.00014131052113717485 0.0006256566320364168 -0.000733043412829474 -0.0001318781572597218
 0.012957794870118177 0.03445482827794681 0.8827548192230186 -0.42508924145680743 -0.0005175732817508774 -5.20749145816957e-05 0.00024370692278577789 0.0001087969710127115
 -0.00018901791667267606 -0.0001159097553029246 0.0016484758833423606 -0.0011304126791555835 0.7322151965337896 -0.6140411709295819 0.011548636999433344 0.01888312694139202
 0.0017893829964416225 0.0009641188648313781 0.0002718883401417487 -0.0003236646578772757 0.020483589827332144 0.02431706731111337 0.7659595351751445 -0.6015137020223361
8898730000.0 0.8828057576247489 -0.42680869833196633 0.013510692340962078 0.03454456184827965 0.00015276086123444893 -0.0008425429029912636 0.0005620089009311278 0.0007948203167620076
 0.013182280199629085 0.03450202389799497 0.8881119377340052 -0.4241477763425982 -0.00016205359154936402 0.00035267831749090335 0.0002299880554722943 0.001034239389701378
 -6.905353095167171e-05 -0.0006514449372229991 0.002445823234056787 -0.00020215685764150886 0.7434088794917753 -0.614839165868909 0.025872506040815823 0.018963827658663498
 0.0005802453653969197 -0.00015601043125933835 -0.0014924416885023584 0.00018525068601657992 0.008542715304032656 0.02509332917737385 0.7823666896287925 -0.5969600092716513
8968720000.0 0.8686851291975266 -0.42730728974069365 0.01293526466538046 0.03476130152815302 0.0005183597124134197 0.00017772753177453253 -0.0002587414198698012 -0.0002489993902789719
 0.013193716989405515 0.03426908366603362 0.877197730927917 -0.41729905083671825 0.0006199737712325415 -0.0005358647694871461 -0.0007576625395271795 -0.0004447864228964852
 0.0011622449094507701 0.0013589378749740873 0.0003756348699093351 -0.0012409112972519296 0.737703612120446 -0.6182991354270372 0.020480280925353613 0.020620443109520454
 0.0006398322417074931 -1.131335273098263e-05 0.0006681489806210358 0.0010380505684325265 0.017721730197105677 0.019659965760948507 0.7615811634903039 -0.5999262546046619
9038710000.0 0.8728326172303386 -0.42563744353443284 0.01380121360382641 0.034514160489302996 0.00044492909155127686 0.0008148813541947385 0.00017852490160332667 0.0006503294410996443
 0.013214037556969737 0.03471363236616238 0.8703981248854631 -0.42859979837277534 -0.0010268321451397566 0.00042443362670886026 0.00014567642853813116 0.0007749720290718926
 0.0006836379778398515 -0.0008589318070879914 0.00195671042057678 -0.001316897686299338 0.7101944731905478 -0.6169775562510175 0.009597726915043183 0.016893791522182428
 0.00018492528162537619 0.0002012549843508641 -0.0018846972379533145 0.0011128671032450892 0.011339918708634869 0.020922596963577778 0.758605010213386 -0.6188061160831548
9108700000.0 0.8773966410195725 -0.42593702949173684 0.014258222392056546 0.03478545615985358 0.0010814197898141482 -0.001130152234003438 -0.001173050236058847 -0.00040568694895966523
 0.013211453720063281 0.03512067555986898 0.8747619208387925 -0.42813467721976195 -0.00017592294410899252 0.00031750929665091455 0.0009527713186515152 0.0003506624192709686
 -7.179894811552564e-05 -7.42013395889776e-05 0.0002562559550904955 -0.0005959508116351134 0.7171544275446854 -0.6256652615254604 0.011821678477507926 0.020919375993756477
 0.00019108088372765054 -2.3825970350571944e-06 -0.0011107104479343966 0.0028588752263007254 0.0022587787318108254 0.015961242088538483 0.7537796363597656 -0.6048412658165275
9178690000.0 0.8656491568717852 -0.4260905100208779 0.01382938410953152 0.03455874794614634 -8.226257025825879e-05 0.00042249948219093156 -0.00041004649385353414 0.0002589752881720185
 0.013080157785586096 0.03448720106787211 0.8699984540933989 -0.42100387427670644 -0.00014533978346976375 0.000309743537568516 -0.0014057229194402736 -0.0005371110754139635
 0.00017454218267488346 -0.0006411758655588184 0.0020496694544492357 0.0005980029058690812 0.7225396751610002 -0.6185185334951249 0.012463052673379413 0.03117033042071372
 -0.000593115527879226 0.0007046368273108196 0.0001459490226190304 -0.0008973501077235384 0.0016900295366106932 0.020936843497937112 0.7567660379416086 -0.6163530726379499
9248680000.0 0.8760254349008428 -0.43204975431615994 0.013664418865053677 0.034601736706590155 -0.0002934315042601674 -0.0003893444436700045 0.000238315140613153 0.00037661480313148124
 0.013672918895916784 0.034996381102383296 0.8706097431918639 -0.4419224714072294 -2.9977719467658093e-05 0.0005927311762480541 0.00016986458909431856 0.00041885695025643767
 0.00027600848862002146 0.00024389289850544233 -0.0006483270375116138 0.0007909369715878823 0.7173132175046714 -0.6254817384126454 0.02392205543930416 0.019466549813154977
 0.0005468891901227178 8.911587539145338e-05 0.0010350071287210847 0.0015321989073570456 0.014102813264209863 0.011589446361620353 0.7591456202841004 -0.6056206706102983
9318670000.0 0.859871661072884 -0.4383658437415198 0.014113228630433862 0.034963385612590235 -0.0001990326480697404 0.0008182706491522456 0.0007958836482569667 0.000780629762988844
 0.013993995910578252 0.03464314430891864 0.8684104718671373 -0.44723029176796264 0.0013949435355552916 -0.0016877456718226754 -0.0009225282833192423 -0.0013451770198299239
 0.0016317531364784608 0.0002255998347677809 -0.0008283181586250742 0.000447167710485317 0.7110910001312778 -0.6352995969564444 0.0160212556303037 0.014869485719936635
 0.0010789700693471017 0.0006627704333748549 0.000804214601182351 -0.0006471904905619612 0.025123700479686473 0.01404318151128053 0.761137285319532 -0.6255096199205875
9388660000.0 0.8702122652426733 -0.4439399056659401 0.014170444849067876 0.0350723239254097 4.924171532552861e-05 -0.000309690836868762 5.666820630746364e-06 -0.0018101346083085681
 0.01431687304094896 0.0354887069550763 0.8639332366339223 -0.4400694841952017 -0.0009508443781708432 0.0001851423361141064 -0.0018774917245628962 0.0001329697697424161
 -0.00022781473306465332 0.0007441078216528074 0.000750598444164128 0.0015994374523386153 0.7136089959916527 -0.6297538958246561 0.0212754481153233 0.01513715079164295
 -0.0006736049234418762 0.00031332885057210714 0.000132456092774885 -9.783548185668723e-05 0.009088874345642865 0.021888372906694573 0.7328552428365614 -0.6317045361760965
9458650000.0 0.856139460940047 -0.4400675093060835 0.014351945244357107 0.03537986118549807 0.0003512028145543843 -0.0005228122524650685 0.0005723197240561005 0.00010095197231642794
 0.01386769962793152 0.03518559323953284 0.8642888061451035 -0.4506239477828839 -0.001438020091359854 0.0002876449342356706 0.0007999245094636348 0.0003482464584934911
 -0.00038614674848844627 1.8523640185950433e-05 -0.0011215884126325748 0.0010790044432097657 0.7073289775183621 -0.6398292884682046 0.012947118225075136 0.015879793557644746
 0.00030709729966174555 -0.0007789898610674819 0.0008688840838689685 -0.0009012029471269646 0.0068301859366262496 0.011203834273820643 0.7471573371763981 -0.6370119357821723
9528640000.0 0.8556050475821112 -0.4432593530145484 0.014500155017227715 0.035095037172863365 0.0008619326085365581 9.497636453010674e-05 -0.00019800242198205696 -0.0002976275132779464
 0.014101406361505186 0.03508132248081704 0.8528343865785929 -0.4494676751045118 -0.0020931234943361507 -0.0005819264805170046 -2.291383186197301e-05 0.00019561093082506677
 -5.345200021207197e-05 1.4941465638876908e-05 0.0013494853486627593 -0.0009675391577979761 0.702681801448093 -0.6529991936533364 0.0112443862343123 0.024478563639925843
 -0.00015892537563222723 0.0009540011769895617 0.0016196249940868 0.000774077973014247 0.015915679962800036 0.03586470823890454 0.7277128052792515 -0.636275345937843
9598630000.0 0.8634663502853227 -0.44583083321320677 0.014366206700838156 0.03532224460886198 0.0006528621001674599 -0.0004192233523305163 0.00015386087211358092 -0.001602452930942397
 0.014107070353932242 0.035590260541931935 0.8589159492378401 -0.44514518907249356 1.7409659265674416e-05 -0.0006315489954463433 -6.15618054598059e-05 0.00024737436859339167
 0.001364545491780553 0.0018775389077754156 -5.6288343776618785e-05 -0.002033631238724466 0.7051749230380314 -0.6473410101752496 0.0062241640474442654 0.017394645766597317
 0.002545898838117006 -0.0009942725784315308 -0.0007202114571776216 0.0009129479038807569 0.010879682825339701 0.022117216709708218 0.733293606770523 -0.6414661706234858
9668620000.0 0.8539081018777174 -0.45615114109726346 0.014236323466136692 0.0352619157179888 -0.00015093922931241986 -0.00043356511942269267 -0.0003226185427717188 -0.0006086010088809419
 0.014917498487773162 0.035252461177216095 0.8697820168667635 -0.4480080874041907 0.0004962935607634841 0.0006732368966251756 0.0013365343465458863 0.0006075698011591815
 0.00020464242316615576 0.00041353103737457476 6.0597225515344574e-05 5.945796592566212e-05 0.6993767613555192 -0.6582773419824747 0.01450336165405032 0.033428608577603845
 -0.000753454280193032 -0.0006576228718693244 -0.0008431676071224928 0.0009519055427643988 0.01058777858552698 0.024004845196943563 0.7359956999961232 -0.6295865237049254
9738610000.0 0.8582248316025384 -0.45424979305840935 0.014293395204880604 0.03553613231531373 0.0004526295214486441 0.0008268759509121946 -0.0008444747374002677 -0.0007174320186072147
 0.014932551917401577 0.03575515765575988 0.8547383379453863 -0.4556683353063188 4.9296746825146054e-05 -0.0004577011529522504 0.00012530620161955473 -0.00026824096582623333
 7.105764926477834e-05 -0.0017259979326053562 -0.0003219699097408671 0.0016484793660056576 0.6912179800728337 -0.6627632049544094 0.021840623517057327 0.020667020635063996
 0.000836077965104491 -1.6021358351046277e-05 -0.0004996698027144597 9.062702799347383e-05 0.010924227341218517 0.025390652906670762 0.7275866418794131 -0.6406777250906256
9808600000.0 0.8571824326608459 -0.45946714828452045 0.015673297651866584 0.03519701634574955 -0.0003403870091178759 -0.00023526032879348638 0.00032096934423513 -0.00027905590119970254
 0.014888980159648691 0.035583588067431504 0.8495083580124542 -0.4686607747388678 -0.00016156520104083623 0.00012726032007968392 -0.0002599541384338753 0.00031714425391414015
 -0.00019418294289727324 0.00033852937337496616 0.00040236042881587315 0.0008291135688242672 0.7034842581151511 -0.6516983992551242 0.01910205798015402 0.016674275864813973
 0.0016072674835678126 0.00022971216461066963 0.001724207670891779 -0.0006290196174656446 0.014395555680088611 0.028285397699447136 0.7219633305049735 -0.6556211366044815
9878590000.0 0.8532344753162567 -0.46636372608453375 0.014838063417877514 0.03578317382906826 -0.0001880342871223128 0.00018978042004203055 0.0014974585543392578 -0.0011390148880292923
 0.01515952434749215 0.035646674001357175 0.8572149852986711 -0.45319179221120315 0.0005389753971273585 -0.0005210081299290868 0.0005151726453278946 -0.0008628810568281193
 0.0003522982457431081 -0.00019592105812975158 -0.0015693774398022368 -0.00035100736876594055 0.6960909607381865 -0.6586937478867186 0.012165578893792902 0.01411463429891119
 0.00039813246596155644 0.000665426950467291 0.0016642614605721707 0.0006055360493268604 0.007612511078275149 0.020755042749926355 0.6999645630544258 -0.6507484704216144
9948580000.0 0.8439636256961063 -0.46418337576220586 0.015256992911089125 0.03618755137732957 0.0010662787715327022 0.0001884539359127565 -4.3951933865229755e-05 -0.0012709119133315794
 0.015290678576667107 0.03589999699626347 0.8572325034794696 -0.46735931269320075 0.0001659833490889785 -0.0001889106090783378 0.0010278273679270942 -0.0006661427512112729
 0.00044542547328025976 0.00020370840817292193 0.0011167228824134827 0.0005090220978589429 0.6728521957105527 -0.6733270349327578 0.012141831006921793 0.023668524180363006
 -0.0002679994553158255 0.0010777474338509985 0.001405987708735171 0.0022667778990699515 0.013989525225953287 0.026026740042698185 0.7113623437977621 -0.6601845232196939
10018570000.0 0.8717849135016404 -0.4731587627155166 0.015139203087307698 0.03608945989410826 -0.00046757366952757264 0.0006757660124233706 -0.000524197116199906 0.00030606574442561344
 0.01597355073603117 0.03696835820810037 0.8570384588497446 -0.4565267565551199 -0.000988927783005953 -0.00013060747615579557 0.001966724780833445 0.0013111742717497772
 0.0004910199344718475 0.0018058359365301893 0.0011978238723132175 0.0007438804607102324 0.6716675005206804 -0.6634450142900317 0.009069283632518103 0.00878732012257064
 0.0009883445958226308 0.0009518381240713552 0.0008769430127968823 -0.00010452258517093895 0.0065302723225763755 0.019789586013072753 0.7114891906061096 -0.6517082503590564
10088560000.0 0.8454841174552199 -0.47723846445055806 0.01585611414620105 0.03672753231310648 0.0006556766132556482 2.745228408650067e-06 -0.0013704860477441233 0.0009377520862383508
 0.015969958363828675 0.035325504708706726 0.8742594497096768 -0.48100600392971815 0.0012380851539002527 0.00044619923283661976 0.0019606165016205455 0.00016833438681810922
 -0.0005191256142089833 -0.00185864774254871 0.0024222050444625783 0.0013349681821470242 0.6873785039505249 -0.6665310215493306 0.021019273331562664 0.01908366734329162
 0.00020546043231977089 0.0013650449236386386 -0.0019632692560403475 -0.0020524779282287274 0.02325982393582117 0.029377790914635146 0.7384271933378401 -0.6524294083373058
10158550000.0 0.8460025327750064 -0.47284797034447407 0.015138373754007938 0.03593130382962916 0.0012347522224745713 -0.000195530768456923 0.0002445345529159221 -0.00032714634055640984
 0.01530416446246554 0.035869251416632476 0.8496043515296068 -0.4731103980673888 0.00017472914044511017 -0.0008121604786749024 0.0002257083305815033 -6.330728509238383e-05
 -0.00048620134233173887 0.0008308849434578328 -0.0019819321252073515 0.001169190508804629 0.6767158517590325 -0.6867131047665371 0.02653489891573173 0.018314853577311323
 -0.0011289367601976825 0.0002863442888654018 0.00018636488187835407 -0.0014447628070724278 0.009517058186363142 0.02556799059974629 0.7202150818216317 -0.668424230196158
10228540000.0 0.8526544928397266 -0.49191685947379693 0.01658734142478679 0.03614545797740372 -0.000423373935086383 -0.0004745171014948466 0.0008053065071710601 -0.0013957024946466205
 0.01635930552352968 0.035878715194483636 0.8415242483241411 -0.4743103953528921 6.223856697827418e-05 -8.462537350878852e-05 0.0003193502374454829 0.00024403136094534094
 -0.00029474803677371505 -9.922803645663466e-05 -0.0005855140886288157 -0.004885838927651838 0.6743963148681426 -0.6595855542859821 0.01635325005173117 0.00495782748507554
 0.0003856600843089059 0.00014297281995336752 0.0002573021490510932 0.0008946531255054766 0.017183434515985647 0.014441591011833125 0.7021347384824768 -0.6702155382187739
10298530000.0 0.8454915833432258 -0.48745285496706786 0.01668519885975959 0.036152923490815385 0.0007458739709324012 -0.0007947789312667211 0.0011066381807882022 0.0009057605993497863
 0.016394346674789294 0.036209686646662305 0.8429203016444834 -0.4995950394818826 -0.00027437868160647215 -0.0005019342250831925 -0.0005024397141134181 0.0009294211548253891
 0.00012052069556113793 -0.002245102345114181 0.0011297985983144106 0.001984166964496891 0.6720578351002764 -0.6894642621292288 0.015636138471622724 0.021525627494241684
 -0.00023113575270605763 0.0003557846062336544 -0.001010135865412154 0.0005052144662791827 0.009539246273545021 0.006096479304960311 0.7283362965707029 -0.680981118929127
10368520000.0 0.8572930364195503 -0.4866789765234786 0.01585738473891964 0.035754634310459665 -5.942284307514628e-06 -0.00027297327049006506 0.0007408030208875666 -0.0011555134463714367
 0.016304967180668806 0.03641777206402575 0.8438145179237755 -0.4718167972259967 -0.0008224933107567563 0.00021801869324641554 -0.0008207256029796804 -8.412467843792003e-05
 0.0001768960604140784 0.0009863617968166633 -0.0005671022488722346 0.0012020807740549372 0.6522064455479332 -0.6751099721864994 0.01732076222875416 0.014484542066460656
 -0.0002970419672675545 0.00039598248607310274 8.879732203148667e-05 8.741739710847514e-05 0.023478672087884407 0.019011887091948572 0.701368448513162 -0.6763539881569407
10438510000.0 0.8378263709328326 -0.49689506155979074 0.016220541315789656 0.03594853657653207 0.0013298487260635233 0.0006301794091993571 5.749897288037479e-05 -0.0005528640570447483
 0.016741701334651117 0.03577493812439211 0.8455913556228507 -0.4893481204315265 -5.278460172338497e-05 -0.001873666228625156 -0.0013919842293623067 9.417596498752462e-05
 0.0004583015885716065 0.0008385237087060227 -0.0006652288519012363 -0.00272295004529207 0.6529531247485277 -0.6821878862906116 0.0031787091011775464 0.01740234227629676
 -0.0011398854523643413 0.0012789928226854955 -0.00014295694062318158 -0.0013926527771077194 0.014121742569971823 0.012659885908966623 0.6906111251362794 -0.6891768100833852
10508500000.0 0.8417347943410287 -0.4862747698440482 0.016902612819203574 0.036728550040725734 0.0002608970064765278 1.6041714988729753e-05 -0.0009355330038751617 -0.0005367870493925927
 0.016122245501743755 0.03618426486686746 0.8521540532460287 -0.5014181485048179 -0.00011495932999476819 1.071342971858036e-05 0.0002853798008450113 -0.0026213833669826918
 0.0006818766031151755 -0.0008250948193984423 0.0008105737631900088 0.001710990972875297 0.6568273250123481 -0.684243192707081 0.008357893401800489 0.012382819298412931
 0.0006841090754580932 -0.0007055832334120328 0.002750703683677594 0.0001278628334856906 0.01037447821101797 0.015226751426973717 0.6976859485816429 -0.6754205391507347
10578490000.0 0.8305064922819203 -0.49032414589476714 0.016099937464422693 0.036612250084613045 -0.000540133787623112 -0.0005631656309156443 -0.000878148994224562 -0.00035489506718200614
 0.01595306346304325 0.03562649638680914 0.8461001710327536 -0.49640263241799276 0.0002731157601836034 0.0004634042148227438 -0.0005153085100714296 0.00023669188421903797
 -0.0016357865322318005 0.0005299877601846446 -0.000604815985680313 -0.00021497998104736999 0.6472107928378299 -0.7007130350721398 0.010021596323107819 0.026712110735836347
 -0.002149442485960187 -5.0571841200640484e-05 5.853995710246408e-05 -0.0007082343470694398 0.011315739794327952 0.014383087223396984 0.6911583870707291 -0.6806571540757904
10648480000.0 0.8409078764330352 -0.5003659107565394 0.015955027018781858 0.03549268107638012 0.00023713146283991095 0.0007453794627148211 5.690606845701633e-05 0.00038307629746131474
 0.01625576414433327 0.036973649365473094 0.83103611601877 -0.4849134328638923 -0.0007468569803044875 3.7801831936724647e-07 2.8272535542524365e-05 -0.0006504548198324374
 -0.0005695844334868762 -0.0019874635482607177 0.0013584526775604069 0.0008832806903345345 0.6442710234677145 -0.6950550984408396 0.008615292265539068 0.017219997393028746
 0.001018113486930494 -1.1522028416134094e-05 0.0008569569516535812 0.00010418357607939209 -0.0014320083629510622 0.025090499762947513 0.6640949438675073 -0.6942476007139357
10718470000.0 0.8291362274408142 -0.4940121924844868 0.016846637973949065 0.035519535142930846 -0.0005533635625398323 -0.0002989105576363873 -0.00024236340772197123 0.0015938187807736676
 0.01641281630938475 0.035999202508776286 0.8217382043724546 -0.5021362047047598 0.00034410230000376873 0.0013617727916250002 0.0001486741266226742 -0.0004148223359917536
 0.0006375816092913821 -0.0016558807735080397 -0.00031395485578326584 -0.00020925996502192456 0.6233451163028703 -0.7109257814949089 0.0038241113494944254 0.026587851104656446
 -0.0004561050323032256 -0.0021335163454213727 0.00024542222714530595 -0.004369896571278004 0.015416754847419473 0.016712817289075938 0.6744816237699977 -0.6826495059737893
10788460000.0 0.8272887482160572 -0.5079017101414567 0.016513814492163766 0.036030381092002836 -0.00039923628481461343 -0.00038951947873228337 -0.00017263102390706046 7.877171132326466e-06
 0.016965301296551622 0.03594288320509075 0.8275282639480191 -0.49961132325790436 0.0008343647279772229 -0.0008459021252677586 0.0005277765744095663 -0.0005747917656599719
 2.2727966613833097e-06 0.0005770927680962694 0.0004924069665242827 0.0007135617619827253 0.6412893862626169 -0.7094038924703632 0.011219506152136174 0.02160245024070567
 0.0009442766715919012 -0.0004514004985361016 0.0010149382734933766 -0.002171969959077378 0.02387487826629811 0.022798202988762683 0.6724453134246262 -0.6941087241004775
10858450000.0 0.8310668336975752 -0.5049902569771134 0.01652913252059633 0.036660554020889385 -0.00030834806861488993 -0.0002985232211654576 4.830462728673193e-07 -5.4949370320588476e-05
 0.016873839252730883 0.03631334777791772 0.83192437521271 -0.49128383644893636 0.0010340373845691168 -0.0004928244574952757 0.0019972557132267007 -0.0003129913971619081
 0.0002973747963292539 0.000162722283338333 1.3447796926796913e-05 -0.0015884294724851018 0.6320576221689738 -0.7020295009309532 0.007948306174161033 0.013983336676593131
 0.0005239663831065277 -0.00044862115530251815 -0.0013785694605998996 -0.0009064052931244161 0.013024079929322516 0.023424382181023922 0.6498257765763145 -0.6971740482225488
10928440000.0 0.8103131588475023 -0.5050596065081993 0.016661743218958285 0.03652645670714006 0.0014154539059577714 3.674240374159506e-05 0.0003485305300465199 0.0004991176570204492
 0.016925887127102173 0.03572436330589981 0.8297782554383013 -0.5044448534287307 -0.0010777127243808643 0.00016852635793923783 -0.0003824896306008821 0.0005834891366991092
 -0.0010382778244393646 -0.0020178786250709484 0.00042571801520123253 0.002816924291601888 0.6232364862038194 -0.7204036015571952 0.0073929218267979645 0.022296522789174128
 -0.0002880125697774254 0.0009742307336520812 8.748078323244587e-05 -0.0010143653567889594 -0.004195745777934778 0.0036328670891356465 0.6706920188988649 -0.7060811617243344
10998430000.0 0.8246659182860409 -0.504148828891526 0.017166313942817913 0.0357009795773123 0.0004612727305020302 0.0002050526305752263 0.0010353009469578603 -0.00013107186489174242
 0.0173326805291526 0.03543815336759196 0.8183773983608347 -0.5075082314869134 0.0006643376158966538 -0.0002636359004516692 -0.0003982132092204472 -0.0011151336449370562
 0.0012566784389544197 0.0008299087867348976 0.0015314390193500989 -0.0016828023325016676 0.6230707570606049 -0.7083646242528359 0.007511100232117843 0.023408317746887734
 0.0016279314217394897 -0.000511988126068973 -0.001911131138078005 0.001978495140311536 0.005330106352541976 0.021219792057537188 0.6715650089864341 -0.7082223250292641
11068420000.0 0.8181327845785422 -0.5042923123106003 0.01762508228911504 0.0364329090408607 -0.001363787711723467 0.0001075479734885131 0.0007453329649609419 -0.000980356845092239
 0.016845106084278902 0.03610986701744694 0.8306613851487991 -0.5214461240729311 0.000694101081836755 -0.0004943309466473155 0.0005706812889549442 -0.000345437337016925
 0.00035158608439219357 -0.0005131145828910147 -0.003924649463531939 -0.0005045903613831082 0.6283226423571031 -0.714462678334811 0.014444134598808906 0.019748429121057606
 -0.0008674780157073462 -0.0018821372614511722 -0.0007173526071245362 -0.0012536943944731797 0.005771068260437922 0.01034598790822431 0.6591521148660934 -0.6993659089885181
11138410000.0 0.8193395009944823 -0.5168679640768262 0.016743438242831574 0.035931499521909854 -0.00037854552403601693 -0.001375013227693928 0.0006568277729423466 0.00019558619432376425
 0.01792573772886922 0.03613130304054112 0.8164880782604935 -0.5145665107759831 0.0009930017134490976 -0.0003783798850680694 0.0014638914936411305 0.0007810136496888376
 0.0007418546540925909 0.0019924939766968698 0.0007422010675708084 -0.0015112023246786946 0.6083826978874532 -0.692839097376084 0.013257109627873614 0.014536923767638541
 -0.00021196142230752368 0.0002556744641503422 0.002123610749638185 0.00026126333987782166 0.014087313361227571 0.01298639410969481 0.647603985808488 -0.7114315546527696
11208400000.0 0.8128119934925911 -0.5163303756531251 0.016541418352882486 0.03612769206222626 0.0018291571303979742 -0.000579105980034302 0.0003612017543993034 0.0012592089768863933
 0.01676460613080543 0.03610323315641872 0.8186559019852451 -0.5051693670630817 0.0005529827435847135 0.0001105253603074768 -0.0002054227042227226 -0.0003290337747397128
 0.0005206482749106897 0.0011157228176128429 -0.00048475210202996756 -0.00023380414295842605 0.6116199822741029 -0.7260854182409169 0.014855597863748198 0.03330528302470988
 0.0009297426700963406 0.0007159925574328482 -0.0005477713263324421 0.0022455323290712864 0.010602376585889974 0.028779488784213363 0.6422900247512642 -0.7259747668612881
11278390000.0 0.8170173709799468 -0.528397109250416 0.01744808090845752 0.03655607903754576 -2.059908988127657e-05 0.00023419494619872442 0.0010284737735235948 -0.0008757725320748079
 0.017499591241633555 0.036035448275802656 0.8213648292680368 -0.5215373514681663 -0.00037399080293342335 -0.00010475933372367488 -0.0001773179342276918 0.0004732182150589177
 0.00025145710914605495 -0.0005770108533104437 -9.613425298235221e-05 0.0007717866321887424 0.6178588111952588 -0.7300835415993671 -0.0008327195266809059 0.022915373634158402
 -0.0004730540730073397 8.017247486343257e-05 0.0023210395911912873 0.0014234412116005976 0.0054255597048811265 0.011142411003387736 0.6458226017897323 -0.7273422995740447
11348380000.0 0.801890457840915 -0.517821704864676 0.017262562505097778 0.03617934754484206 0.00029841315894600493 0.0005783630294069213 -0.0009422942569298631 -0.000476819271501073
 0.01740813453695861 0.03558257492389158 0.8172213120899173 -0.5138494271616924 -0.0004755403273443132 -0.00014535187450206194 0.0005099260874566872 -0.0017574907562698029
 0.0010253362774630308 -0.0010989185135377214 0.0010525492438845584 0.0008618050152553094 0.5978975607365192 -0.7121224089352316 0.0087077932099896 0.019634272556532016
 -0.0007575577539860944 0.0006271763312757677 -0.001850306551947101 -0.00029980357725854106 0.014455941519332358 0.017452141769797522 0.6236491353971043 -0.7228637852428431
11418370000.0 0.8059579486435292 -0.5296018996239927 0.01617601054240539 0.03680675579083047 0.0011312819283140374 0.0008822474516694956 -6.707769330356095e-05 -0.00024735438337855956
 0.01769675374732307 0.03712857843671886 0.8239264230925658 -0.5153699927856623 0.001625214152149393 -0.0004749269002789362 -0.0007906217001540381 2.5556274696691887e-05
 0.00012586559650009665 -0.001039996797938878 0.0016410033894616804 0.00045531845953569527 0.59178775143551 -0.7541123486565867 0.008633998777795806 0.022997543046874507
 -0.0012960704566168863 0.0017905037460125273 -0.0001125216169341031 0.0012860400704111437 0.0032432007917332206 0.015502873821382584 0.6240821283813272 -0.7216007202382618
11488360000.0 0.8163421331366953 -0.527760174255005 0.01749533251384598 0.03615164848978369 -0.0002802395657107816 -0.0008724202851946747 0.0019247783923654 -0.0006155268636004586
 0.017798412774538194 0.03700987292905018 0.8063831740200924 -0.524182546623049 0.0007907489960934957 0.00036937637151339333 0.00019871006342979286 0.0006065733040786775
 0.0025326671597372496 0.002024758291304012 0.0021978816852712443 0.0021012912477051675 0.5991357535383907 -0.7261797461439922 -0.004075692352014882 0.01265270522419249
 0.0010715372062891206 -0.000755665384964927 0.001604961723623831 -0.0004944232152996152 0.012696193429674301 0.028768729250720798 0.6239241502886368 -0.7353313767227463
11558350000.0 0.811685374985673 -0.5156504934494319 0.01743681425648417 0.036242872674763796 0.00021320800584559064 -0.0016944765159247089 0.0002885997401646619 -0.0012647120681423681
 0.016940514518126455 0.03596701722860337 0.809181453231206 -0.521499051394367 0.001301537430050478 -0.0014627831438160706 0.00035622422260483906 -0.0005436738310552532
 -0.0006406947763995367 0.000981460288778238 -0.0009927900583173652 0.0013707400943792746 0.5720321321169805 -0.7157543376703462 0.00012179867564925837 0.017422135506835745
 -0.001320875066496147 -0.0013431987311122518 0.0015117283890172337 0.00031411846536289677 0.013878486893652148 0.018059937994083397 0.6220736797332487 -0.7142703423185807
11628340000.0 0.7982648894305429 -0.5441252559628252 0.017657925248427422 0.03619753761448848 -0.0011206200597681465 6.847519470433681e-06 0.00041950270313480394 0.000320361551245679
 0.017735957388038875 0.03552143808020673 0.8147484641480519 -0.5374406573418536 -0.0001954012166452358 -0.0005993926646258152 0.00013093521406809785 0.0002120405026528278
 -0.00021312738426043865 -0.001237275944565643 0.0026677292824757405 -0.000434749779554002 0.5888223724133447 -0.7369310791162171 -0.0014904436309799473 0.017535693272524234
 0.0014777105881998885 -0.0008234945165380017 0.0006302125127156544 0.0023702474018070167 0.006659307694766568 0.00564603112418598 0.6190006883931043 -0.7381184598383628
11698330000.0 0.8055458524868205 -0.5299311919534978 0.017517986042196915 0.036338121067032624 0.0015156908191048613 -0.00032321143550135357 0.0002939045154889247 -0.0010698969629368454
 0.017648601528083046 0.03593840882896078 0.8142744294958818 -0.5343605190638339 0.00040938767232872014 -0.00032286453421571655 0.0007458435119740645 -0.0006318162181588287
 0.0004106372365239281 0.0006875395766697839 0.0003533673289055325 0.0014079447599223195 0.5780869807680806 -0.7354055614758482 0.013258122124399759 0.021871571778760094
 0.0010273794069804352 -0.0013438381440064773 -0.0026220231331993316 0.00104331841339795 -0.00396570937917044 0.011370965614905245 0.6302904535419508 -0.7341759010080816
11768320000.0 0.8074031472732792 -0.5481414083557884 0.018327967065374363 0.0363362186159783 0.0008579834581404572 0.0008600206283008201 0.0008805890451623585 -1.08101040446321e-05
 0.0177426387442194 0.035927155071563875 0.8020157217033643 -0.5412145318626349 0.0008475431141122972 -0.00041027345394321 0.0011299554239142366 3.93504315239919e-05
 0.0008319777324540417 -0.0004302144942264317 0.0010316662603091745 -3.89481939903155e-05 0.5885012798746104 -0.7390216500779995 0.006414398145754107 0.024417049433812944
 -0.00017043767753985748 -1.189096160505754e-05 -0.001777374811124484 0.0009319874558445332 0.008104431902714832 0.014627633204403865 0.6035171613975676 -0.7382590864802993
11838310000.0 0.8025216612601054 -0.5502066846977761 0.018372405917859914 0.03556526596532706 -8.997114338471206e-05 0.0009467509494349561 0.00016522597053106035 -0.001058354381451588
 0.0176171167241735 0.035839034093869515 0.8006719720553062 -0.5405546841757989 0.001346783742147321 0.0007942486547301469 0.0003487471292517021 0.0007071086384657943
 0.0006520973487729821 0.000836954742902807 -0.003755456692403362 -0.0005013384139129198 0.5925232698149157 -0.7498278008222657 0.010028834966533418 0.024410172569974416
 0.002488017918928591 -0.0017594689335278012 0.00230031868438457 -0.0018443916511895015 0.010630706890906528 0.015421986983765443 0.6144992600256933 -0.7478066258493145
11908300000.0 0.7984006070512766 -0.5382107720808571 0.01692057060277606 0.03535960933533631 0.0001766228687748063 -0.00011489957229700248 0.0004077474048701022 -0.0003817499264276976
 0.017731702475442104 0.035981599228154484 0.7831019401484193 -0.5363418308798786 0.0003419089382469588 -0.0008684366437927382 0.0004775249800712677 0.0004942543404883885
 0.0005668668877182005 0.0008479337464437044 -0.002883449284921709 -0.0005659820299432779 0.5692932532497865 -0.756686261297658 0.019685268560930586 0.03122706811560597
 4.0584627469911204e-05 0.0005331344848101486 0.0003808167308202153 -0.0017355689967385192 0.008446933733601397 0.016905462445064662 0.5902464714656752 -0.7352749024785756
11978290000.0 0.795462694468572 -0.5381741983956971 0.018278452841523244 0.036516889771929927 0.0006476136008325101 0.0005507991845067955 0.00012604566150522278 -2.0096665129768447e-05
 0.01723680874145432 0.03595314160463738 0.804723815793343 -0.5461340868071921 -9.372296101007011e-05 -0.0003020103479724722 0.00031367063399481715 -0.0010980036248722806
 -0.002720230587152541 0.0012563584244276416 -0.0007365548959591997 -0.0004578035976399983 0.5512517664532388 -0.755349615974793 0.006840971299406665 0.009792240701870836
 -0.00040914613194245944 -0.0020674373436852054 -0.0014867327405296235 -0.0017562617982103468 0.005980906224141334 0.025010435303182848 0.592638807180619 -0.7358797241750701
12048280000.0 0.7898263087609697 -0.5369633186456944 0.01800346150952038 0.03570238275493545 0.0009957904819183248 -0.0010099886908085964 0.0010701169575424942 -0.0011993308617699212
 0.017469112057831977 0.0354403356220842 0.7900384349378187 -0.5483367694919473 0.00017545850461252136 0.0001525820409261359 0.001139875053172731 -2.7359844860939444e-06
 0.0008622715164318897 0.0012636225117995546 0.001132742351033847 -0.002376315438995218 0.5500227441005021 -0.743593691733534 -0.0009700799593996177 0.006524894380826871
 0.001351716842833974 0.00011337483480706723 0.00013335851609289306 0.0009223523507495673 0.010916959367724502 0.020918075029479587 0.5974244367795041 -0.7537725869540683
12118270000.0 0.7902825347351479 -0.5611814751048173 0.018889273645993472 0.035497288791126354 0.0008364552470316076 -0.0007850596880650453 0.0006494001955447517 -0.00029354092216187167
 0.018083101322091278 0.03575648442898557 0.7900426153471658 -0.5572503641138568 0.00013899381198195595 -0.00017920240049053022 -0.00011180587913946949 -0.0006711012368119759
 -0.0004928276494583156 0.00012993742220704244 -0.00018436945163876004 4.000660883270334e-05 0.574217865958803 -0.7596519075224907 0.012229673671369942 0.013485118942267026
 -0.0007312338571043548 0.0013800526383138626 0.0026152153535670703 0.000916307355074921 0.019146153288349725 0.013314546646412993 0.6154575569098578 -0.7602147749309927
12188260000.0 0.7855938661766397 -0.5547192282130923 0.017538829985252618 0.03565460442132927 -0.0001356442716102153 -0.0009414480335944589 -0.0016033361824206887 -0.00044257484207970257
 0.018167740386141787 0.03545882372457852 0.7978072550802067 -0.5415767716499357 0.0003968353360108965 -0.0003321336030294757 0.00048726626841994267 -0.0009983097094385495
 -0.0007384642980710378 -0.0011680492492983298 0.0014821526905630655 -0.00039431161499620175 0.5574867688856615 -0.7622122274676232 0.01524946751713181 0.011097728781845036
 -0.0013810183281086246 -0.0006933481227459423 -0.001604831338527397 0.0007607568846625162 -0.0092759781352906 0.020494496173921056 0.5874964517410799 -0.762318617486881
12258250000.0 0.7848036946267383 -0.5589634195584062 0.017809263261831076 0.03593389371373461 0.0003675739115575283 0.0002349972203852025 5.139330820825782e-06 0.000348619610732464
 0.018380056343157702 0.03534416980107594 0.7977561174533095 -0.5533465983654121 -9.975997852544499e-05 -0.0008997572572655645 0.00013942499669775802 6.876139778411512e-05
 0.001812988747336338 0.0006357530216237651 0.00026380425699660403 -0.00384447414967133 0.5482156804571987 -0.7627348991088274 0.004684356666923326 0.018473684209893808
 0.0014368058787774783 0.0008981095788588956 -0.0010883084196803366 0.0017204033205594602 0.000557573868681886 0.01778886623805917 0.5923561623531557 -0.7629812862041563
12328240000.0 0.7841703453880131 -0.5621365206064242 0.017930415968700954 0.03591924271057866 -0.0009027185837913392 -0.0010207720475573494 -0.00013385732417482197 -0.0006824782418993989
 0.018330973965178958 0.036193643427227376 0.7884332548313727 -0.5586047176229525 0.000764764805671468 0.00038228378241685914 0.0009925401814466618 -0.0009578811552899617
 0.0008167343191087648 -0.0014210503696684405 -0.00018663416141595949 0.0006016089090517639 0.5392373739403432 -0.7620673663511753 0.007584556547637297 0.021769345869671622
 -0.0008890628336730691 0.0010507946113270145 0.00017823892598378005 -0.002035647513066773 -0.006875615881228099 0.01950296362853807 0.5900862791621176 -0.7722267055251422
12398230000.0 0.788448291977839 -0.5594162524034565 0.017453991887445 0.036106972837125495 -0.0004467320459776248 -0.0008572252611996621 0.0020637070395398208 -0.00026912925185558414
 0.018388692395552693 0.03593839874895144 0.7922685451208996 -0.5469338349151488 -0.0008251257426089362 -0.00019551377768609689 0.0013383405770763454 -0.001529865847079887
 0.0006908101695176238 0.0009907686120208081 0.00042754743030434285 -0.0008717933574371978 0.5464079301853139 -0.7727924298988994 0.007860220362446815 0.02355664638877712
 -8.237085911974407e-05 -0.001475815607600783 -0.0004137225022025166 -6.237816794873009e-06 0.009745341255246029 0.022633735471341017 0.5765969906981586 -0.7566969269798407
12468220000.0 0.7768922415205637 -0.5658201414349425 0.018142006264870465 0.0358192638008302 -0.00021747797780351545 0.00041111739729051197 0.0011129722199605839 -0.00039569947857183397
 0.01793022054533836 0.03502554725011249 0.7833040410442987 -0.5593134201924146 0.0003569593061697277 -0.001359419275298191 -3.059893302222523e-05 0.0006744044704766039
 -0.0008599725692875594 -0.0019655654265800173 0.002111626253242014 0.00030756121591168673 0.5287939874199877 -0.7907610847166401 0.006230759650682663 0.014232405542439291
 0.0004352741173321277 -7.609218305520758e-05 -3.403730508191045e-05 -0.0018227570800328303 0.004116230696036775 0.014260913019542173 0.5731321608767016 -0.7758685388038903
12538210000.0 0.7848264116781025 -0.5606451607206898 0.018894341185957477 0.03573697807836073 0.00012083066351520894 0.00020829642166516504 0.0007953384055961827 0.00151294352170536
 0.017449036130380464 0.035721756323815336 0.7829419120363298 -0.5726720816159213 -0.00020498139646026308 -0.0014594240329295902 -0.0008931898447661517 -4.5315813942832556e-05
 -0.0002594723210122116 -0.00037531174534239184 0.0023159317345700483 -0.0019932388251416543 0.5355074232768438 -0.7562884301898545 -0.0004319782745260211 0.01115392038031497
 0.0005779264907321694 -0.0008527475537215279 -0.0018719901173056767 -0.0026224868478789912 0.006965800406295667 0.013480862291107055 0.578594649940065 -0.7733246593921879
12608200000.0 0.781414846147839 -0.5651993163299853 0.017579362896055304 0.03546456130095325 0.0006911191702596187 0.0008034476865524194 0.00019073112976991598 -0.0008551480907215404
 0.01825710002631515 0.036083383200131484 0.7638150557358677 -0.5567809787088354 0.00023473400750256002 -0.000321429656812113 0.0009633910511582122 -0.0013893845949807314
 -0.00021050858110106956 -0.000497239225987769 -0.0016965959867954194 0.00017688251163614277 0.5133221269886216 -0.7628508266027988 0.006477189707590859 0.022447087519621604
 0.00024901364422398576 0.00022000419668569848 0.00018282568646373087 -0.000756158894863763 -0.007664684309489633 0.026687383503656 0.5574476202954931 -0.7866324310441597
12678190000.0 0.7845450025342092 -0.5672514908442217 0.018003483377608993 0.036572938998058795 0.00040178761178439975 -0.0009565743083012586 3.2263010215096908e-06 -0.0007717616697828957
 0.01806190042599994 0.036660874938131874 0.7842186073690532 -0.5663009068677519 0.000535720472348324 -2.8338176576797267e-05 -0.0001881724699552048 -0.001319265107368745
 0.0004662117216047517 -0.0013873350654967378 -0.0018030393159347135 -0.0001794682776791827 0.5158924116702115 -0.7689992713394187 0.008741315276709705 0.009933703375144584
 0.0003090940668444548 -0.0008580822055735908 -0.0012179847100285501 -0.0006679327593832039 0.008266048481512791 0.016378666930689612 0.54538975422121 -0.7770557020733074
12748180000.0 0.7852396397836139 -0.5739190502821424 0.018339977108701968 0.03622119022256998 -0.0006294691046903211 -0.0006393749912927923 0.0012897118681661403 -0.0002563182809771068
 0.018125985499513008 0.03616942745524097 0.78233787614031 -0.5794958907538988 0.0002826470119821231 -0.00010148259581997998 0.0007118544589598922 -0.001339747113008274
 0.0002173083581478177 -0.0003569160161658618 0.0016797030345536495 -0.00125474633148339 0.5179684777397217 -0.7753501541905538 0.004543536897073558 0.023674441622369258
 -0.00010248742331739246 0.0007587413791154299 0.0028900825227464277 -0.0020631125336541887 -7.90903418463912e-05 0.021915766870200113 0.5593143634142541 -0.7701820581915048
12818170000.0 0.760646290298093 -0.5696716273076236 0.01810799249927444 0.03601079680609701 0.0004498657920094379 0.0013509757269599845 0.000985890929925491 -7.730857380668744e-05
 0.018648140296119317 0.035179901847875505 0.7693125070072734 -0.5756941653698109 -0.0009564591435022811 -0.0009927006302043633 -0.0008287836413571168 -0.0011012720279792675
 -0.0025539267318748287 0.00026469304053269806 -0.0006988802921970782 -0.0017550850470902783 0.5158583001772077 -0.8071815499960686 -0.002776372712733891 0.017334500786914953
 0.000714313427571188 -0.0011396983184296563 0.0010944885838971637 -0.0036224886309139683 0.003219182340535124 0.00654708764628901 0.5475260266481546 -0.776603782585306
12888160000.0 0.7700246600724362 -0.5791977147716514 0.017968359219937155 0.03523792948886225 0.000412472576286254 -0.0006095544278331263 -0.0003013912321170733 -0.00020931013823051394
 0.01796205228276886 0.035386737967106806 0.7716284780751025 -0.5754122847711888 0.0007051642061282298 0.0002650573112568373 0.0011978564552569929 -0.0003201971096788919
 0.0015724606449721984 -0.0013458615206112618 -0.0009411706896318853 -0.0002613724107945774 0.5009055209671169 -0.7817763332951162 0.002932566509763953 0.020840535396093807
 0.0022913042684978265 0.0009549126393746807 -0.00018287499554546797 -0.0011813142418018677 -0.005734854761202127 0.026014977935743696 0.5418501725172796 -0.7895078086458502
12958150000.0 0.7772715014411002 -0.5880066291425298 0.01828194592775464 0.03579951692708487 0.0017432918854762688 0.00010177773774154304 0.0001849227732643513 0.0002108205096492431
 0.018371639625225287 0.03588295224049143 0.7757228434505961 -0.58355501001446 0.0002615357984635714 -0.0007724917601700177 0.00014077422587073277 -0.0003513867613326196
 -0.0003304524670837434 6.918079459213663e-05 -0.0001250287508122823 -0.0009104264180230569 0.5116871461057126 -0.7786922807932006 -0.002519277625658004 0.011051316884990264
 -0.0003494200636145282 0.0004354975989963737 0.000464400254438205 -0.0012911946429320432 0.011624464534156354 0.02023046411279277 0.549488631666753 -0.7843305963296772
13028140000.0 0.7724919585594471 -0.5729439526931138 0.017909685736153508 0.03584138997716658 -0.000970004366175654 -0.0008978911802698743 0.0010915374120313108 -0.0003447023441552002
 0.017365527540612297 0.035810122347659394 0.7657285542770907 -0.5815368996741322 -0.0010960827829381615 -0.002532000604699608 -0.0002743032949354641 -0.0006191639403336425
 0.001405252439568837 0.0007115845838423925 -1.6528288443462517e-06 0.0023932297695813468 0.49691687114832045 -0.7647803801422202 -0.0005090609104300884 0.01441843047156952
 0.0020214995493881456 -0.0002624571159690987 0.00018674318488492512 -0.0011780240771899694 0.019354139770202533 0.005029210819663345 0.5474297075648046 -0.7929954331888218
13098130000.0 0.7612717146569318 -0.5790407019215682 0.018704970827810596 0.035611121073014666 -5.829132451203914e-05 -0.00037434812952356276 6.218736623764192e-06 -0.001883124925825771
 0.018059679859743064 0.035239399242319315 0.7644554676723484 -0.5857762651392563 -0.00027418245315574387 -0.0008368388954268507 -0.0009481413599373692 -4.5152723369715673e-05
 0.0017327935118793493 -0.00010392492510628817 -0.0022763132114164953 0.0015787286398544148 0.48816194378840083 -0.7757358733825117 0.0014161564191152796 -0.001403473462010715
 0.002192587356197892 0.0005724381645327067 -0.0005901059183969901 -0.002594845247191543 -0.006086008952885485 0.010432169710696092 0.5388631016195518 -0.7976016326605003
13168120000.0 0.7494426837794682 -0.5975401615495869 0.01813759521751062 0.03608882626163228 0.0016080349109431427 9.845631041402419e-05 0.000503416062392968 -0.0009395571288517335
 0.018782625786805274 0.03521140957103318 0.7677561249752751 -0.5840253524326734 0.0014244637083048889 -0.0023015261612755475 0.0005519193861700757 -0.0009020886773261557
 0.0007823936392687289 -0.0005476393275297414 0.0022564384219017084 -0.0014556885408434687 0.4915665422625745 -0.7975926114363777 0.00980486820176065 0.022466928887757278
 -0.0008779003579993486 -0.0012936310022935752 0.0011538070508102718 -0.0021054237797634443 0.006797913486282691 0.0035766719488559686 0.5323272049106842 -0.7879470503587211
13238110000.0 0.7582231532183138 -0.5807240839946956 0.017980497059958484 0.03572250978147753 -0.0003203429582399401 -0.0015115050176320011 0.0010227915590933854 0.00036650988649113034
 0.017993605675393383 0.035760985651708446 0.7613694736067402 -0.578192637819095 0.0017165644578508187 -0.0018805969760947942 -0.00033587713754102403 0.0006386922740781499
 0.0016619372865850676 0.0011041951829149394 0.002021702425695254 -0.00317812084067599 0.46997659656637436 -0.8076822121786549 -0.002156912154916029 0.02024734755419487
 0.0037884373265187846 0.0003523589088047975 0.0032394472954188846 -0.004434122704285586 0.003726260175511581 0.019249791733816572 0.5086768778999806 -0.7948605749220815
13308100000.0 0.7553746093202469 -0.5945168472364893 0.018478609488739944 0.03529398683609119 0.00027061877799243613 -0.0006653913386946308 0.0013862566273503561 2.4327528035987306e-05
 0.017982717109614407 0.03567275051032569 0.7570054196579526 -0.5953308631418375 0.0008972717913442855 -0.00015913426524209477 0.002054150043786001 0.000685616325241708
 0.0008819769947612064 -0.00012006408322635878 0.0020698536251621026 0.0017612322141444749 0.47921846933900936 -0.7850153276575961 -0.007105396240937631 0.00819448276376579
 -0.0022658730817038263 -0.0021243905299027865 -0.0005791677292309768 0.00022078861938138863 -0.0029167780517406717 0.019145564037527533 0.5097835554237439 -0.7785951701905562
13378090000.0 0.750956632959429 -0.5936880721240279 0.01823266569048416 0.03668243421734711 -0.00014919169104110492 -0.0006728157410605287 -0.0005535973549504302 -0.0014865371792474465
 0.018182814594267366 0.035000764931042885 0.7722253442757394 -0.6040314587854844 0.0003263047109185153 -0.0013818968265363243 0.0006560745031927516 -0.0012967129764718528
 0.0011621393949779628 0.00015441574337543484 0.0013969366041440175 -0.0011186429626802827 0.48012352836923666 -0.8053738035077213 -0.007242036993377215 0.01218583467832367
 0.0002499255636699894 -3.709035594709357e-06 0.0007913018117471631 0.0003146612907852966 0.0001632233093590647 0.019872492936605136 0.5316849112936783 -0.7948352819427539
13448080000.0 0.7552036469709952 -0.5912187060929813 0.018227702288243577 0.035052214876884084 -0.001621278802755659 -0.0002574061114780102 -0.0004715989007151176 -0.0010972378913039385
 0.0183348225092768 0.03538315642476783 0.7405932042869888 -0.5980987432848931 0.001099480361741965 -0.0011718416547578578 -0.0010716230403671836 -0.0021499822678622744
 0.0007040594080574195 0.0007645568511095102 0.0035392711336998434 -0.003226682206352255 0.46914018314783434 -0.7954822589727814 -0.000310531060563263 0.008202060460820025
 0.0009825747326107108 1.3153102134394923e-05 0.0008104500791504529 -0.0016909444672354834 0.01311886215608642 0.01842548123018467 0.5074004092296821 -0.8084213522549955
13518070000.0 0.7385375919666272 -0.6074891644354848 0.018557968715792458 0.03551161463691517 0.00016979518614880734 -0.0003717818150941281 0.0006333734648516666 -0.0013069141658495502
 0.018095344075724985 0.03473156732174853 0.7425622202397852 -0.6009215775498665 -0.0008140491942329929 -0.0013840961573444142 0.0007109387076854268 -0.0012207170405507662
 0.0009527316815929028 -0.0009788619420087125 0.001109164233098004 -0.002276520246788037 0.4671897883958955 -0.8112525607033118 0.0003922483901657207 0.005056555076255495
 -4.539583119855226e-05 -0.0013608993717072206 0.001420871643700475 -0.0024900846523099444 0.005695352116614068 0.012026361759485477 0.5178998254469466 -0.800591991893174
13588060000.0 0.7399375380599008 -0.6010219869206118 0.017855551192911857 0.03553126824318653 0.0011362509041906441 -0.0006787603719617098 -2.604788331086299e-05 -0.0003337106109386816
 0.0186558149517014 0.03506525114963848 0.7520848864306524 -0.5954488932024423 -0.0007568008008204879 0.0005337495130871183 -0.00044579334207587684 -0.0007053552142897569
 0.0006742475063597716 0.0010490812689169938 -0.00024165933593148185 -0.0008936879094782783 0.46586157683281376 -0.8154517316921651 -0.005755763615327559 0.016125844306401405
 0.0005715403882509857 0.0012837357029984848 0.001023760403964986 -1.8273425002017225e-05 -0.00295723306491346 0.010487799587354933 0.4949702442777528 -0.8096830868096345
13658050000.0 0.7466660077374002 -0.6045644201479615 0.018011099448923214 0.03548493013864228 0.0007755522229023685 -0.0012501784009753478 0.000279192063450779 -0.0003479835368956348
 0.01815081808348847 0.0357280566515622 0.7505359114227687 -0.5910094229303976 0.0005765574030279989 0.0004031755959803995 -0.0007880150121903459 -0.00028207729682563264
 0.001361903428017004 -0.0004137161052501628 -4.715603912196544e-05 -0.0010693987680992472 0.46913399971851366 -0.8061564766482392 0.00170683491952493 0.01227743676170565
 -0.0011488318314413959 0.0004548129506836181 0.0012716162787873063 -0.00013043932626181326 0.00613067231953478 0.010545391756444627 0.47563445718427333 -0.8144232515706644
13728040000.0 0.731644453351349 -0.6169657166290266 0.018439654148613826 0.03466934706200486 -8.931897360979157e-05 0.0014616710876382076 6.433459096663885e-05 -0.0007141034751608683
 0.01877319770582576 0.03502616178687501 0.7409804925750166 -0.6048509141476831 0.0006246414725592039 -0.0012525708907395795 4.334655710939248e-05 -0.0014139580360719114
 -0.0012629641877794616 -6.168970988647047e-05 -0.0019647520493540796 -0.002187907528385496 0.4522495015756419 -0.8178694730099345 0.0071129822970025965 0.011577199233646317
 0.001549455769567887 -0.0010066713208801957 -0.002502601771954144 0.0017902272298867925 -0.003924340281055823 0.02683957242150676 0.4942365922529684 -0.8101542998472757
13798030000.0 0.7341054939428343 -0.6159514061041613 0.018496587555143856 0.03490577311471372 -0.0009464462739397956 -0.0018069344853634086 -0.0002781531273554737 -0.0006307440245105423
 0.018535729398896632 0.03449599129239422 0.7502519289452103 -0.6169334576830925 0.0010277673069674729 8.841820454455047e-05 0.0005689741914827838 -0.0005460839392422882
 0.0012776200659357438 -0.0018328396096748913 0.0015175167725321856 -0.0011070394015670986 0.4568076763091713 -0.8198245016907486 -0.005544320910748703 0.009878772835960723
 -0.0014128120936299237 -0.000760676405035286 0.0014600087249811381 6.26560559339572e-05 -0.00784783689219069 0.0031824168033900238 0.49807170488352803 -0.8111909078887442
13868020000.0 0.7406363894165573 -0.6004441601902198 0.018241091324202836 0.03505232593264444 0.0001854575316794377 -0.0011500827565937956 0.001103153668363834 -0.00041214329668918766
 0.01791257831620177 0.03383931340591304 0.7375785223950324 -0.6240550190382042 -0.0010279080394850362 -0.001116026291853255 0.0002955711499895166 6.172531089950956e-05
 0.0015462203814851807 -0.001358037830438023 0.0020198527658248262 -0.0030297399109796364 0.4272624504693659 -0.8273830906410397 -0.0038957113234119943 0.025868530770578487
 0.0003518429774877967 0.0002800672155172398 0.0024454688601875324 -0.0007181723729146694 -0.017112236649482738 0.029841594640899746 0.4968422788412704 -0.8113417641826696
13938010000.0 0.7204479265245539 -0.6136229311540929 0.018029428006925214 0.034760446994666586 0.000448966113714618 -0.002045018559734692 -0.0007212296792428216 -0.0009542976389968738
 0.01799080762343742 0.034696254424512976 0.7403812971382984 -0.606991163384728 -0.001819692677246547 -0.00116263701842747 0.0006906627675002055 -0.0011988884148778302
 -0.0008380733996776325 -0.00034940558552473444 -0.0011252810264164182 -0.0010513334268287308 0.4360652133466912 -0.8194788806080341 0.007010361466437182 0.018096448299769252
 0.00016056579565676537 -0.002017513466941295 -0.0013251619256679377 0.0008092728197742734 -0.007832686406389983 0.015054019458069879 0.4715320856725173 -0.8265634064753495
14008000000.0 0.7310370347458359 -0.6063713882129579 0.018911891766653494 0.034499865294846804 -0.00018059464808248014 -0.0005971562458499767 -0.00011707780978288901 -0.0005253003238754695
 0.018297394560353047 0.03422961763902392 0.7302209558590755 -0.6320802892099588 -0.00039861686225172864 -0.000915274720412992 -1.0235787431206109e-05 -0.0008841000093829153
 0.0004529473353992575 0.001366884026883071 1.5664971680138893e-06 -0.0024094943275394273 0.40985525714563564 -0.8216269333615198 -0.011402001783695093 0.01491066415702331
 -0.0007436851635193979 -0.0019576106240289425 -0.0004715700940841353 -0.0012332921130990778 -0.0030960720238381984 0.010518736933267886 0.4889994766041101 -0.8336197631787079
14077990000.0 0.7310836913770499 -0.6220406143494556 0.017908914605708707 0.034376566975910405 -0.00031284263836385003 -0.0008341383313446907 0.0004958571341306712 -0.0010350226825051856
 0.018633987629592737 0.03475060893572777 0.7300943348042571 -0.6185829611071599 -0.0006760274268499667 -0.001478985527968457 0.0008518062420902833 -0.0018677444917986764
 -0.0009995120752574436 -0.0004330516003272912 -0.0019057822806938327 -0.003629811008589481 0.42787068003393414 -0.8252967333982437 0.00047852087367981244 0.013781178229670845
 -0.0003597165860221297 0.0002652078779735626 0.0007642906828582396 -0.0004433826702003504 -0.006311779031737363 0.004201861583885369 0.46915634881345 -0.8188302560249128
14147980000.0 0.7187183822864547 -0.622902373600654 0.018043779138190892 0.0343680724106224 -5.7966702370173145e-05 -0.0007092919152813592 -0.000125240337070477 -0.0007378477337102361
 0.0183141128065792 0.03446066602258591 0.7413487541671273 -0.6194209094342725 0.0009003141100120373 1.0834212943852775e-05 -0.0018942316284450496 -0.00211039229617508
 0.0016110066763357167 -9.438988642089622e-05 0.001625338256498348 -0.00029143718520169043 0.4278158468570695 -0.8142088183904322 -0.006166939384328857 0.008487347377647609
 0.0004372110459437271 -0.0010127653080968428 -0.00175901070576137 -0.004650226078785597 -0.007296700134334898 0.005725992829364194 0.4636678471647927 -0.8189514182987734
14217970000.0 0.7222765031157256 -0.6311320745194099 0.01839352937580456 0.03397292637393274 -0.00026931808613014484 0.0003745046643945217 -0.0003976331064229631 -0.0018250720966914535
 0.018483477433465123 0.034014803524967545 0.7260418073369793 -0.6246730754806643 -0.001983625841480768 -0.0009687006733003975 -0.0006576667860246141 -0.0014473600900002674
 -0.0012631641408685096 -0.0008298920881093881 -0.0005172562274988531 -0.004325979390753389 0.43022249626962844 -0.8255190467101353 -0.010715852966111442 0.003272197974265794
 -0.002032973740516819 -0.001137923461224226 0.00012580792982869556 -0.0024870674721855363 -0.001632485615015291 0.01853316882506578 0.47295231952136446 -0.8399350172252092
14287960000.0 0.7257783862318042 -0.6321798245524953 0.018693955229779992 0.03425742905756773 0.0001515170662256223 -0.0008018599352862334 -0.0005761799340260239 -0.001242584967115649
 0.01868128812926745 0.03506759674023288 0.7185416850057972 -0.6230114937017712 -0.0007746602775743211 -0.0008020021009447795 0.0008269350098949103 -0.0008931539681682774
 0.0016532350404374126 -0.0002219782675139555 0.0022982905660781073 -0.00045239234291166773 0.4207256599762878 -0.8158008506978306 -0.006830901670916705 0.012787930950219328
 -0.0013059534894065733 -0.0021416632410379546 0.0016641616763115813 0.0006843126245346274 0.003113095680283677 0.00954472530242632 0.46574382998812375 -0.8304384536183737
14357950000.0 0.7179295082310729 -0.6296646958265641 0.018222455758436482 0.03408098508759622 -0.0009006059796236904 -0.0006572606068453177 0.0003123695459880062 -0.002028482638061887
 0.01835761064309496 0.03438316155365199 0.730157356977385 -0.6182772007770165 0.000564298139992187 -0.0015810308425521873 -0.0006979636099780232 -0.0020188115876807545
 -0.0005093971376906578 -0.0003507237134823178 -3.872775447185061e-05 -0.0032142042981658527 0.40482887861374617 -0.8145930546462128 -0.004517307918412992 0.008095506416139892
 0.0006861146967174241 -0.0029385660069039866 0.00048532764857171144 -0.0031686639377359596 -0.00510046755038821 0.015811823999684747 0.4617681554073325 -0.8291959501748214
14427940000.0 0.7136680782111815 -0.6399376491320671 0.018638072573473087 0.03409694374461081 -0.0008664178975520346 -0.0015967067538460997 0.00044897225441718725 1.1787169157736764e-06
 0.018258618575300662 0.034109551991199374 0.7226501101345175 -0.6266996527172464 -0.0003177321403081905 -0.0014886658908107408 -0.0004191305594966725 -0.0006520791012313293
 -0.0005029749231961303 -0.0031409636818482776 -0.003158845294371673 -0.0007639658360796842 0.40185749901451473 -0.8196123957147292 -0.01786805307769945 0.00554886180955985
 -0.00048141331911243876 -0.001474794573223753 0.0009265687864298452 -0.00029507872181549637 -0.01232345706346577 0.004030640735244757 0.4531590380620426 -0.8405551208318389
14497930000.0 0.7262725813295605 -0.6432828773112734 0.017885681258460948 0.03441411853067362 -0.0008860477715736555 -0.0006589349553784711 0.000832877906219277 -0.0004225379605164295
 0.018394162176739233 0.03423345850867674 0.7283707866209275 -0.6330746880223236 0.00021396005382488077 -0.000504639053421009 -0.00027113733365814464 -0.000667894587119468
 0.0010719864100895763 -0.0025890751182121737 -0.0001395823198704859 0.0011492934176764984 0.38412320343985046 -0.824769373349107 -0.0015675287831634595 0.016485305557018805
 -0.0009306907567538365 -0.00023663337503760084 0.0015779860234366784 -0.0015080210101492773 -0.002664382994676964 0.0012885007407733243 0.4603470860581611 -0.8355227223041968
14567920000.0 0.7053283528244104 -0.6361345152556407 0.018159676834340947 0.033800155311744996 -0.0001096602678229842 -0.00018908336620799762 0.00011984787205881879 -0.000672540639248507
 0.01871399871822434 0.03359157745987334 0.7161486750110742 -0.6417093271933425 2.3730273725665623e-05 -0.0006500598194046341 -0.0005803924603457437 -0.00117452585148472
 -0.0009132823956156484 -0.000802109456433747 -0.00225088167482915 -0.00028938283263841853 0.4118886904684591 -0.8417590973542356 -0.0170604197173374 0.010640050248698062
 -0.0022675336121797366 -0.0018573827173768746 -0.0014786589993428336 0.0014272911287738434 -0.00496914758217374 0.00043813508507657993 0.4471937775612326 -0.8267554371647012
14637910000.0 0.721405239152774 -0.6406439640277145 0.018045795702411955 0.033916981543470844 -0.0013565228537154213 -0.0017298884896674597 -0.00014809564007919171 -0.0012354378456031893
 0.018019511790480624 0.034044745469943925 0.7184625691173904 -0.6315039038432796 0.0001490402020200462 -0.0009987727879988949 0.0006725166813431259 -0.001449614044890593
 0.0007298180145707587 -0.003576962444550495 -0.0018593877172458932 -0.0005922694200850634 0.3824734154676919 -0.8299628933108527 -0.007823096976561996 0.011523100873830601
 0.0002600741349635864 0.00027868426411128586 -0.003547947182677702 -0.003095791380504377 -0.005875352024950246 0.004355249055753952 0.42341353354082756 -0.8288268278907074
14707900000.0 0.6972044545550061 -0.6417571968211094 0.018133387129312648 0.033743029610765654 0.00044343928764352527 -0.0011460761023403764 0.00037111032292010143 -0.0011987037728158213
 0.018552555169829676 0.03339659576652698 0.7146828346304998 -0.642846807000901 -0.0002798162683629148 -0.0005542785475896945 0.00023402416700283105 -0.0017113680165915526
 -0.0020867046641205376 -0.002318374582981635 -0.001261484133500053 0.0023716377634489887 0.3802130833179505 -0.8513579236532854 -0.005084324736657856 0.01002452660218376
 0.00040657127528327214 -0.0005207055056783938 7.720998226136247e-05 -0.0009889032540923335 -0.009697278320971666 0.009850846208951557 0.43592178027038153 -0.8455904792807746
14777890000.0 0.7097684853109734 -0.6478819206207903 0.017629890276817398 0.03392411752641375 -4.769430061510838e-05 -0.00033537106190812397 -0.0008988692052831308 -0.0023448631370702406
 0.018180303822149756 0.03414328467019512 0.7250313558488557 -0.6264424398704732 -0.0004657830058197965 -0.0014781564944287165 -0.000610570699565553 -0.001225129383127409
 -0.0005450686288419191 -0.0008963852430487005 0.0008696863288369488 -0.0005079308443078148 0.3803651015966104 -0.8329301197318171 -0.011752147518965306 0.015111418852390335
 0.0008998410011666024 0.00011256478624930563 0.00012389698216329895 -9.810985874566134e-05 -0.005736561471995538 -0.0004639713392432771 0.4156707736220852 -0.8339117873023801
14847880000.0 0.7049064013647599 -0.6475222079174408 0.017834637307138624 0.033560950820731565 -0.00037982999230424456 -0.0004486717197496946 8.739588762479846e-05 -0.0011009865698123767
 0.017518398619973268 0.03345271713195398 0.7144129948025945 -0.6414874799352274 0.0006435160894550431 -0.0006968946862376074 -0.0003949209052642093 -0.0009956434075007847
 8.988408311985504e-05 7.124397953659299e-05 0.0016370937099394222 -0.0008398080096920839 0.3840975073906589 -0.8469402072339826 0.003951110595894199 0.010424220002729388
 -0.0008418595406486476 -0.0007183403022393726 -0.00037987472384925407 -0.004219819323625723 -0.007057923236237445 0.008381761127644775 0.4358415879902971 -0.8455193455682078
14917870000.0 0.7032558832113046 -0.6476373840636903 0.0179604043589605 0.03335867101027607 -0.0005038668654471263 -0.0010954800983910109 -0.00038990151679249823 -0.0007805777651110557
 0.01834119873428536 0.032959005857530956 0.7093270103506485 -0.6431340178149679 -0.0006033272620751539 -0.0005075971750094849 -0.0011455069940790497 0.00017220496063838806
 0.00036455635759117714 -0.00012781169924745332 -0.001773028237954746 0.00046034264084696765 0.38053029241351105 -0.8410275929665963 -0.00750070693620994 0.01046896093216659
 -0.0005104425926349062 0.0009068997578003664 0.0007815787215075016 -0.001950998483488266 -0.010916026861488924 0.00047767297940539896 0.40790979368948077 -0.8407201856283393
14987860000.0 0.694401833944628 -0.6576802504283477 0.018378893495832396 0.03348520519598413 -0.00020223751323605513 -0.0017117341969987516 -0.0009388699447402594 -0.0010768726930669864
 0.017889902263627116 0.03326717710341902 0.7051179945014103 -0.6596697215683757 -0.0009270784579377492 -0.0010860872470989846 0.0009145540065291016 -0.00043089311239149765
 -0.001315954252642257 -0.001436343560985089 0.0016530279653919257 -0.0014683065196457806 0.3734520693690303 -0.8434593702381996 -0.008562387493755323 0.010331887829935155
 -0.0005042931223413431 -0.0015880983137196896 0.0006646504172884992 -0.0021828150189329375 -0.019837460087614795 0.007227028992343123 0.4295572991300821 -0.8583358746268701
15057850000.0 0.7011003807433672 -0.6490142662620713 0.01739462565497161 0.032925622477731877 -0.000583573368460364 -5.593782588106628e-05 -0.00042662636358118143 -0.0015920912302700174
 0.017321272434749867 0.03331811119142369 0.7024093640828514 -0.6344348837644075 -0.0005684078441014394 -0.000987302892254303 0.0005552305768938892 -0.0014914862614717282
 -0.0015440675307808766 -0.0013252547941756364 0.00028053252019794554 -0.0009360012844456556 0.3606105873667379 -0.8344492604016884 -0.010253067527211588 0.011909060676229932
 0.0006699490905283264 -0.0008346300413823385 0.0003141332574498016 2.5742776189453006e-06 -0.008360249347496657 0.009439180636911928 0.4009542969381669 -0.8606432820597543
15127840000.0 0.6874017462161709 -0.6491809155385498 0.017570867175314996 0.033242856202063555 -0.0006660069294749688 -0.0009229184246231858 -0.0013706068298275562 -0.0017744458791986802
 0.01778170046457858 0.032842218643831744 0.7081283060430034 -0.6492744058967881 -0.0010290751266212174 -0.0006588323382736172 -0.00151163212367409 -0.001264113409758433
 0.0007091868143014149 0.0007615432972090438 0.002252114540007461 -0.003415394240170679 0.36007926860530126 -0.856789371423287 -0.01695919538837209 0.004119846873641696
 0.00011155107048212451 -0.000936507456156111 -0.0012729920531974702 -0.0019400548786692848 -0.016280220485190632 0.012983494175201123 0.3983838192835895 -0.8493860730365309
15197830000.0 0.6929874737607593 -0.6680182364170962 0.017770077208476145 0.033073217148124 -0.0007003261929285601 -0.00143348679138045 -0.00024140687244432292 -0.0004153753045303259
 0.0180290548248108 0.03326604911546797 0.7017432036384653 -0.6581215567454318 -0.0003277699767120986 -0.001013664114367232 -0.000570529444298703 -0.0011963977859588155
 0.0002540206202102203 0.00036864987146319715 -0.0001590290942009939 -0.0008738581076577303 0.3617232732316577 -0.85908582204697 -0.013819718999046613 -0.0020483347478126007
 -0.002299750934271009 -0.0010026292285213033 -0.0027377456382150405 -0.0005768935719129635 -0.011339232995857484 0.02044793206153444 0.4070826433508868 -0.8570542286530745
15267820000.0 0.6871139667208847 -0.6606447954780325 0.017465491376230446 0.03312964372600999 -0.001062716040797521 -0.000620346908464659 -0.00031903739799401756 -0.00041427102634597707
 0.01755398750734674 0.032472586376124685 0.6938751405670909 -0.6565024056242693 -0.0008833493179822855 -0.00047217392297439813 -0.0006928132127163977 -0.0020940766992317925
 -0.000257424671159187 -0.0002784336404499275 0.0013600021560014903 -0.0007655795872217012 0.349700399880204 -0.845986155781512 -0.012302060494597965 0.016629589928911705
 -0.000880278281774956 -0.0011021767797074812 0.0010125889741262695 0.0007868962353971379 -0.00748219185901167 0.01691663911154379 0.4014613783221054 -0.8585252685003005
15337810000.0 0.6990407968051511 -0.6668398701695367 0.01790679144916358 0.03277780802495405 -0.0010492442728222884 -0.000467004444448037 -0.0011695891680128935 -0.0014276517282081178
 0.01747122455396004 0.03303655667218391 0.6957277838817012 -0.6670798995727302 -0.0003936793550092094 -0.0007927596454574446 -0.0009174056659821024 -0.0017500934380914573
 -6.029777919636256e-05 -0.0013476347826685618 -0.00027481458658279174 -0.00018563078346624956 0.34805514525485354 -0.854246163365471 -0.011730716051392188 0.010947378906622658
 -0.0005971661190114075 -0.0007048970153274124 -0.0018489454599956072 -0.003526371577941687 -0.015495967325326569 0.006472889858820874 0.4032485677196843 -0.8665238251826783
15407800000.0 0.688296233698486 -0.6606574970556849 0.017696389485987014 0.03229649506252799 -0.0013152402788854296 -0.0007616607899125265 -0.0009532840697543116 -0.0005235719684403696
 0.017785821751104568 0.03325401614141617 0.6894353647787757 -0.6563660652133764 -0.001673558227287311 -9.210148204742664e-05 -0.0013542371245510373 -0.0006610908474861328
 -0.001960644881799845 -0.0012133737841919813 0.0006839991693853335 -0.001990355632958552 0.33703796457208335 -0.8472799023127909 -0.022325957840009434 0.007914193823879168
 -0.001611945646175574 -0.0016646832192018714 0.0006066941365550509 -0.00255253152854728 -0.025745842929874897 0.013523462305551851 0.384354097257956 -0.8600662361122505
15477790000.0 0.681103037556526 -0.6703053678243084 0.01734455640601433 0.03322547823717911 -0.0005291707494239388 -0.00020297810111970474 -0.00035235575190266334 -0.0007923900954959197
 0.01765020873420941 0.03214819458790933 0.6931351967210182 -0.6598819744503425 -0.0005190095156019634 -0.0007519343123952502 -0.00024740114485375075 -0.0006576563347544566
 -0.001042629760515281 -0.0021338215850456635 -0.0026385601233135875 -0.001919116637381319 0.3355948894740945 -0.855933081009732 -0.017913328077060326 0.011092022889671545
 -0.0008386139345983956 -0.0006593057388962403 -0.0002891961592432052 0.0013350355307986405 -0.012461398453091218 0.007481733307430323 0.3818925534574287 -0.8631797679290489
15547780000.0 0.6942716617541963 -0.6666062671235085 0.017589770138843393 0.03171822680547806 -0.0004783921995708912 -0.0007894404665355429 -0.0005507647540252522 -0.0003728789495780271
 0.017079846618272557 0.03219569876445928 0.6737891571358281 -0.6667645885169553 -0.0004086435138305347 -0.0005764991049342934 -0.001027182199498722 -0.001056698904140028
 -0.003689762781686137 0.0003308150471715377 -0.00036788045880773313 -0.0001288154883673876 0.3262814383436335 -0.8562097229456659 -0.019368048796814374 0.00957569307969157
 -0.002135730151338955 0.0007279354625965712 9.378567888289426e-05 -0.002088071560012176 -0.014286722630750719 0.008303091528015522 0.38170024341471975 -0.8842959217029457
15617770000.0 0.6776666050577436 -0.6676917221887225 0.016818711599349195 0.032061106391999064 -0.001548945371731916 0.0005008719777826945 -0.0009114685330126017 -0.0007661394830444949
 0.017134549127450632 0.03187833715541978 0.685238629648152 -0.659951723234754 -0.0017839903235593783 -0.0012511040863423307 2.3427886391286865e-05 -0.0010799852884584222
 -0.0010119599028848487 -0.0010986032442670333 0.0013320377025063412 -0.0007897167123467454 0.3157561192403316 -0.8476639213241114 -0.019159544680595855 0.010602830058994615
 0.0014275174403660725 -0.002861976086022481 -0.0013532313983500397 -0.0019920720063431874 -0.013894972232077913 0.008520888950560117 0.36244785535048324 -0.8620398466880611
15687760000.0 0.6812045620202882 -0.6793862692445184 0.01659863936233173 0.03183127693121298 -0.0003421258552914893 -0.0009589575257862656 -0.001372624798538141 0.000558303027928197
 0.01727904622603393 0.03196136723878033 0.6831728392814685 -0.666780088876548 -0.0009074207519498298 -0.0010466504799690056 -0.0015699920463265722 -0.0013927383683112699
 -9.564061607346188e-05 -0.0009043053246136257 -0.00013430240101429728 -0.0027476240561823658 0.3240965205947187 -0.8546924494829852 -0.01908274577446916 0.015229139363815342
 -0.0009028204095840644 -0.0011440430728280394 -0.0001142970439538573 -0.0003380684929952867 -0.007916998496509686 0.0040671951519331735 0.372314190221312 -0.8590301282300982
15757750000.0 0.6652079135555484 -0.6722064611145995 0.016388344068888727 0.03205640612717883 -0.0009504618696342268 -0.0009881350032466105 0.0002981255339935716 -0.0006719936719611945
 0.01747051409569716 0.031597580546302975 0.6797541847454185 -0.6648180971688801 -0.0015533410655073857 -0.0006790093422067157 -0.001197348531750049 -0.0011096616817125914
 -0.0012594071300353852 0.0016173603538016776 0.00051213767550373 -0.0024540858301054656 0.30275703114259106 -0.865709406907559 -0.021695315424381027 0.012369520586147043
 0.0003978843984346541 -0.00038853883292226454 0.0022516483131477783 -0.00016482211280540967 -0.01637201371429659 0.020360859004884296 0.3496972124688392 -0.8609723314752091
15827740000.0 0.6798979916640591 -0.6726718821510568 0.01692840992048555 0.03200049158320688 -0.001506803105785153 -0.0017058828542388757 -0.0015322027382198844 -0.001529675032816424
 0.01687319171835607 0.03224004413896772 0.6791809411349131 -0.6742905827770561 -0.0014419479276368133 -0.0014479703037919493 -0.00017472035044424625 -0.0010188740691288018
 -0.0009040972088746 -0.002095855805234394 -0.0011946408648232378 -0.000952021531716313 0.30806932417004984 -0.8467859688306062 -0.0285530948603463 0.00844507488552321
 -0.002256974941060769 -0.001770814216361624 -0.0027366232292886706 -0.0043830354995980925 -0.02388782465765624 0.009769993001678285 0.3576611083513737 -0.8573085891248672
15897730000.0 0.6670690600982072 -0.681933563556109 0.016920911693638296 0.031244789285090207 -0.0008265682720438014 -0.0004887454405911881 -0.0016558002439753337 -0.000812096498547268
 0.017102753090159316 0.031876498488072974 0.6703619780135887 -0.6749436505984532 -0.0016007181278733407 -0.0009053624703217106 -0.00016226572104908446 -0.0008603967216979251
 -0.0021709079296684092 -0.0013566181267560906 0.0019256356092892666 -0.002194609622951201 0.2997211897534506 -0.8667455315508287 -0.02571578557659184 0.003922253676963522
 -0.001758529564087553 -0.0022623093115292266 0.0006441852821060551 -0.0012882582066801734 -0.028124859872906166 0.008580654535209604 0.34435868832353067 -0.8753979588697933
15967720000.0 0.673676661555673 -0.6787191561306783 0.01644532844755958 0.03212113153302418 -0.0019693683850913 -0.0017871740734214448 -0.0017535251421066033 -0.00042906216638024294
 0.016774614266086934 0.03190739013450046 0.6830165720863723 -0.6848001178149913 0.0008912613868904248 -0.00017449929022357203 -0.0022474402712863452 -0.00027333140321215873
 -0.0004911966071900049 -0.001052022366206403 0.00154180539110915 -0.0026793508628266435 0.295440947559213 -0.8536137657606278 -0.014183065107412027 0.015257881958756993
 -0.0012928797981929397 -0.002298908701472304 -0.0010565428823116336 -0.0016369729364337589 -0.02255017362431389 0.020625374311077423 0.3517021469983496 -0.8668453180237496
16037710000.0 0.6654379330849521 -0.6840731637519147 0.01635047875056164 0.031525990725365986 -0.0013102847701876726 -0.0009609198889769985 -0.0006037879887169282 -0.0007096692934112657
 0.016631377468113245 0.031188430034493467 0.6727672267232518 -0.6824883429765881 -0.0017002621513116472 1.3707259213355246e-05 0.0003023331622899284 -0.00016873721595546024
 -0.0005474200811682048 0.00022463165693735864 -0.0012057083354866016 -0.003700961694161805 0.29816318181546425 -0.8519933429692668 -0.024192729201718582 0.008801177761575622
 0.0002675359453386709 -0.0028820521753868 0.0008010998650250045 0.0006578545476494366 -0.025015645466895463 0.004559239297553361 0.3351952605217265 -0.8771097187882209
16107700000.0 0.6772816356315686 -0.689239524001188 0.017070866627906585 0.03082235707894312 -0.0008936364938027909 -0.0008342455954291945 -0.0013233105311487628 -0.001407778650640533
 0.016641639980994164 0.031585322412981724 0.6679837716933796 -0.6867044450505178 0.0007441448959501042 -0.0004709551221626409 -0.0006658002699449472 -0.0014245727636438238
 -2.9230750361407743e-05 0.0006917283666355173 -0.0004963170380652797 0.0007441763076376334 0.28479742631629357 -0.8476563963168843 -0.0154811779176481 0.020959686742599442
 -0.0005841874056679259 -0.00018297694333332842 -0.002685567789108468 -0.00269737733762594 -0.017716940469742856 0.017673394158449682 0.36598831665757897 -0.8757079071217433
16177690000.0 0.6553052221236332 -0.6770205385489115 0.01618801598660096 0.031167964660103062 -0.0010337860527635104 9.078819239552075e-05 -0.001720675084647896 -0.0007680306841092479
 0.016079856350338335 0.030558094280214367 0.66711818097422 -0.6823329470277759 -9.488406159219381e-05 -0.00031186378173644587 -0.0011425321442643161 -0.001317088157147857
 -0.0006258482224490596 -0.00048510433440177443 0.00013012274180314792 -2.0267796697142138e-05 0.276070370447176 -0.8631029645407933 -0.02751173465713129 0.006306486484443332
 -0.0012895516131788203 -0.0020525606927688277 -0.0018618461744417808 -0.0036180222126936373 -0.022212752718038895 0.0071295537371479645 0.3264018492116391 -0.8711547581995145
16247680000.0 0.6446314501126101 -0.6899156582251977 0.016840587660393255 0.031004914687336422 -0.0009813224714078906 -0.0001460713462979362 -0.001366676232488417 -0.000812696185936525
 0.01667901489976555 0.03045545474802608 0.6648908316249538 -0.694387326317548 -0.0010067788613617931 0.00014186626902038966 -0.0008972476731478869 -0.0008928766898361411
 -0.0009473914604823965 -0.0001728125375252418 -0.0017598337328369063 0.00011752973128163592 0.27184299246178667 -0.8670606512962563 -0.021858372890975752 0.006479019491845294
 0.0011473518832154407 -0.002448700921931456 -0.0010335677771086721 -0.0021272919527663458 -0.036954657083201906 0.022956903207166382 0.3267863796254517 -0.8883305547179763
16317670000.0 0.6496864842802508 -0.6974881996432588 0.015809386881231794 0.030448627988459064 -0.0019455467503545912 -0.0013429297712504115 -0.0013285523662994853 -0.0004147011725163421
 0.016174560414056238 0.030687363919155632 0.6595912240515528 -0.687498724439593 -0.001019375419833378 -0.0010596134743361817 -7.273087904007783e-05 -0.0011054754494003304
 -0.0008918874785847218 -0.00387342770355261 -0.0031426411737535504 -0.003663397959871822 0.284759379502572 -0.871706683860789 -0.010954044957719275 0.010699575019520262
 -0.0030919492814399066 0.0001107937309110818 -0.0018032979601656405 -0.003162723421355743 -0.025049883465757664 0.008229491308217773 0.31580365565812946 -0.8838778308112526
16387660000.0 0.6551345417491538 -0.6875124749331966 0.016316521749187796 0.03028228847716577 -0.0014487518878457202 -0.0009045565506552278 -0.0005800007376862626 -0.0009824644971754193
 0.015755961037300953 0.03018475668437716 0.6554168658511242 -0.696760324059588 -0.00040845441535669006 -0.00067511099753083 -0.0009082145444279144 0.0003562746927097741
 -0.0018511864159629495 -0.0006577838142943605 0.00025107815556961926 -0.000926388671072919 0.26134497221493336 -0.8643360169853764 -0.02764194096464106 0.0026722313416233595
 -0.002191830629809563 0.00040820263632872797 -0.002426014813913732 -0.0016972818467411385 -0.023403069701809432 0.004803406923624673 0.325372712535449 -0.8919778469643889
16457650000.0 0.6478074507635938 -0.7000799988613636 0.015801036447206387 0.030461373242112427 -0.00032032538993237935 -0.001405941591374784 -0.0003249874386505186 -0.0001854808375054916
 0.01599404388332607 0.030988768181687696 0.6538900409031083 -0.6942298274010067 -0.0009878555245339737 -0.0012992042023541564 -0.0008963909107016131 -0.001484909262004807
 -0.001199807492752839 -0.0013998493102870529 0.0016492173661871285 -0.00029101372973979275 0.260912338840008 -0.8710379374450927 -0.01938632250016151 0.022666245215441007
 -0.0007563006785017424 -0.0018445284121275623 -0.005536126672534291 -0.003345762492087093 -0.030166998468331315 0.01688167606929877 0.3164319266801659 -0.9040702794414188
16527640000.0 0.6469749491644226 -0.6951123646334242 0.015537492866700055 0.03023914300274749 -0.0016596704693320281 -0.00016337845570614195 -0.0006712596273505416 -0.0012158292334643848
 0.015766078168923208 0.030059839982140842 0.6580358868110546 -0.7076644141475879 -0.00010656221675758103 -0.0016195708724831195 -0.0004495974459232642 -0.000746398510849528
 -0.0003865942684051191 -0.00027730535517130647 -0.0008163922804037746 -0.0019688553354396364 0.2546601536047225 -0.8584109152279038 -0.027438620433485165 0.020688424272905532
 -0.0012239835503227705 -0.000855884178852298 -0.003665767508311502 -0.004930744297296521 -0.01800726683427396 0.016578901421424562 0.3049482276316477 -0.8828045041931506
16597630000.0 0.644506960138495 -0.706680260123609 0.015249566861604388 0.030167996526645417 -0.0009725357176063131 -0.0011998678892821588 -0.0012218566919640465 -0.00019172438669107578
 0.01577764715079188 0.029918970794580012 0.6539247752650444 -0.6960642776539262 -0.0003908893038037844 -0.0008945017378090608 -0.0010800876543802104 -0.0007596786110872723
 -0.0006886324201016499 9.432111217234211e-05 -0.00029246020989671777 -0.0011250578982153914 0.25644086983538705 -0.8701763057224374 -0.0374046406532735 0.012507142735404122
 -0.001014485332458267 0.0005672904234097156 0.0002469619785283572 0.001340320564899603 -0.016903194996937026 0.011301310834865222 0.3046974986678348 -0.8801264990499716
16667620000.0 0.6409329942830173 -0.7019212790975464 0.015428530212750589 0.029553954499097895 -0.0009735795030359389 -0.0014482985163712617 -0.0017552050996787539 -0.0002098548121316533
 0.015274763484333159 0.029791706987083083 0.637937277243708 -0.6978197028165631 0.0001269338380010995 -0.00046373723829134497 -0.0006609253377135488 0.001107859522988272
 -0.0006865897824334684 -0.00027563712606609367 -0.0006011535053508673 -0.0005116325904296357 0.24655910651003074 -0.8624904625109324 -0.028525273944112056 0.005723473030475642
 0.0009792911060765015 -0.0021654713339973037 -0.0004759321732139819 0.0004706487175203234 -0.028416878622123706 0.0007232776075940494 0.2993161602036955 -0.8947412669140704
16737610000.0 0.6376868476740432 -0.7014734638472047 0.01498282383054783 0.029747127378275083 -0.00040301716317860337 -0.0005622211799914585 -0.0018637019739342476 -0.0016783910938186681
 0.015235449836942317 0.029335021247868947 0.64304967923622 -0.6965193335840023 -0.0011261784524929626 -0.000537953571844653 0.0006345808635761153 -0.0013259277446899106
 -0.00199577094052268 -0.0011422071728023366 -0.0019392784085577488 0.00021854288312435404 0.2213967660815216 -0.870169156943834 -0.03556409937983323 0.01615961719478441
 -0.0005934618723641973 -0.002058159502436856 -0.0030781161677685483 -0.0017055464842704827 -0.025229527240948603 0.006976190992639529 0.2935706911841552 -0.8974162894674304
16807600000.0 0.6411880136212991 -0.7079642509368853 0.014630921771499427 0.029929460715721414 -0.0010222829920830728 -0.0017643396907357485 -0.000975441698979333 -0.0013160419956560541
 0.014848388247025847 0.0297663743160577 0.6502235039306319 -0.7099458622366982 -0.00025840156818824283 -0.0016587062933802932 -0.0019914141954470725 -0.00116523230933327
 0.0005425858927164957 -0.002176902082408477 0.0006740066456553287 -0.00016182040227776196 0.23749950309527615 -0.8823776965388449 -0.03639368434967981 0.019213709672205866
 -0.0022848641785076975 -0.0008116538911194941 -0.0007595643090543456 0.0012053603682157803 -0.03367068412352928 0.008399726050671906 0.29727938481443195 -0.8864604904959856
16877590000.0 0.6253122716119208 -0.7175124064458626 0.014863912147926353 0.029543296939141744 -0.00020803993914909517 -0.00139831767145604 -0.0009601854470155995 -0.001344764619324969
 0.015153149178459379 0.028742255745371457 0.6341970488066144 -0.7060686533886834 -0.0005942465789134711 -0.00045629295505780234 -0.0010842358898543955 -0.000551140184143314
 0.0004874499091764441 0.0008046764068717807 0.0014805969606623032 0.004052979899490575 0.23622278684811468 -0.8915221832426531 -0.022060508346800577 0.013412155547482395
 -0.001518767348390397 -0.0012069702174911125 -0.0012863641115065988 0.0025428065501762057 -0.03412504400123699 0.011514987343352759 0.2775421280957697 -0.8918510164279194
16947580000.0 0.632224666003022 -0.7039088263232743 0.014539054875236233 0.029374858331885044 -0.0006099167137774462 -0.0003653848272077036 -0.00022632541448465326 -0.00044643807819702347
 0.014519353534480379 0.02905569501260635 0.6439574735676924 -0.7164669507947073 -0.0011572117787442687 -0.0006255037145631485 -0.002366844771321613 0.001290735055969359
 0.00032150828965930416 0.0007286303389167953 0.000960211580436566 -0.001965472590083473 0.22659900697503435 -0.8622839888224337 -0.037529574122358446 0.006223815968027493
 -0.0016179968146386055 0.0001464947356126042 -0.0025263084022039755 0.0006337164523751999 -0.02843074063318851 0.0032200738970075775 0.2710081864493011 -0.8853146969043679
17017570000.0 0.6234946381316092 -0.7154635764042144 0.014662786168048003 0.029177285229738892 -0.0011070338641644025 -0.0006395302086594375 -0.0005835682436309054 0.00019141951625732418
 0.014612051617992288 0.028685216438243757 0.6352510923909848 -0.7024742910567254 -0.0013024751590233656 -0.00033430005155590136 -0.0011948295014460966 -0.0007151700121742302
 -0.0025010402949542715 -0.0014905879461423268 0.0016828950450566496 0.0003149650076956419 0.230959741986433 -0.8733944837382113 -0.04106511722228205 0.013093153118456454
 0.0011030666370678108 -0.00239602771599575 -0.0010226939184538493 0.00023205004521085983 -0.03974536649565177 0.02128324259766782 0.2795055384911059 -0.9090199993797419
17087560000.0 0.6260734561929622 -0.7253942142242651 0.014489244734540135 0.02886042557552828 -0.0005886893651952805 -0.0007532359852803037 -0.001785686910679776 -0.0010489763714408686
 0.014823737821678914 0.028782164245717744 0.630376097684683 -0.7111998764039739 -0.0009896969569765006 -0.001098703122503797 -0.0008864131750188766 -0.0025185376282256667
 -0.0008797387020284368 0.00012702776682234164 -0.000641142304648107 0.0007612110698642108 0.21967085602882225 -0.8782282803328711 -0.03731832727714327 0.012087594103849355
 -0.0041880837351704475 -0.001029126073034174 -0.001311259850242425 0.001053022054501083 -0.02866403956371789 0.014716899149625106 0.25972030029147314 -0.8994232024577142
17157550000.0 0.6289520154301015 -0.7232113764296784 0.01426686966120114 0.028733257439998564 -0.0015739200972977956 -0.0009102128423554836 -9.625988987015293e-05 -0.001652337585151428
 0.01434009467326495 0.028934492428273593 0.6364371380305992 -0.7202461353796391 -0.0037751597046542028 -0.0005772827706771773 -0.000807660717292756 0.0001523331612325031
 -0.0016305601873625828 -0.002130024837198262 -0.0014389763164821602 -0.0019663062229022827 0.20402933135630294 -0.8683910302395704 -0.032137117223921215 0.009084861610892838
 -0.0007972366022162463 0.0049264605242736945 -0.005371015525669602 0.003017624310676161 -0.01882325300407792 0.014315556421474095 0.2600089243380982 -0.8777501026381126
17227540000.0 0.6239302264056187 -0.7177906087646999 0.014220437519822871 0.028797032912547635 0.0004015389047192793 0.00011964175642481229 -0.001351732515100224 -0.0016370040571108493
 0.013926477668601627 0.028412451823685868 0.6248926521084758 -0.7121101146737865 -0.0019753769207296744 -3.24318210099152e-05 -0.001976599615660179 -0.0012760689144990652
 -0.001043492342952344 -0.00042163005131863905 -0.004327931193671573 -0.0011404104371622165 0.20549444363454944 -0.875773880039395 -0.033001330900323214 0.00981040947591323
 -0.00044945482489709145 -0.0022349455882634288 -0.000998437700935587 -0.0002340178308821467 -0.027062507129660737 0.01589367310968917 0.27568052498331 -0.9077695932357334
17297530000.0 0.6156200501102587 -0.7241555707304317 0.013135025166909467 0.02840761649292028 -0.0009049792384704689 -0.0006284008830435448 -0.000726683493022944 -0.001257714712047922
 0.013622620779401634 0.027863114746456898 0.6379478812467513 -0.7067085325421637 -0.0004838217481147109 -0.000979334780263235 -0.0018541280229178267 0.000298387332684802
 -0.0003192325453965677 -0.0023892474849031113 0.001913518905199099 -0.001834876851017141 0.22181900129835372 -0.8807124417602721 -0.03788601957699985 0.021154520301583685
 -0.0032864731866369943 0.0007997461160242492 0.0005486580324581775 -0.0019865036460592353 -0.0402748226295767 0.003381475828873567 0.25218809756018146 -0.8874980012737148
17367520000.0 0.6025159070324841 -0.7184313675803352 0.013280511780782272 0.027878563453448402 -0.0008108878107590702 0.00022932055463080025 -0.0007497302313682684 -0.0008992412575376908
 0.013206579517408867 0.027271077215538297 0.6105734659324936 -0.7128102983740126 -0.0008008300681860739 -0.001366533277470389 -0.00224233533178206 -0.0018727564514865224
 -0.0012908087263719555 -0.003653823508228049 0.0005058297238946864 0.002600530842004746 0.20213437526926584 -0.8987260873852368 -0.038436403758533536 0.0046771152355474886
 -0.0014171461003283665 0.0009723069079455227 0.002166040636297222 -0.00267786351530977 -0.029601327018996617 0.012408067722911005 0.2478513627213345 -0.9093146486276233
17437510000.0 0.6198689998212065 -0.7247671350882287 0.012881694760226882 0.02747813457424003 -0.0007836276334150663 0.0009720626422330163 0.0004737674689461882 -0.0015468461026588312
 0.013528829357366639 0.02779261869273737 0.6226709429394739 -0.7138125392401269 -0.0011796403754360334 -0.0011555885633444604 -0.003294942330404307 -0.00048210149161579134
 -0.0006329784074252743 0.0010912996498394904 0.002198666896158204 -0.003490530668059053 0.1874794026882934 -0.8789221031183275 -0.04898887353410517 0.010960545262618459
 2.629696681018571e-06 -0.0007868293917854106 -0.0030618680523026034 -0.0014746768832515638 -0.042421856461794714 0.004770969263512252 0.23758074334856524 -0.8999905520926031
17507500000.0 0.6176469752309618 -0.7454967827540127 0.012833618066618075 0.027309884656905047 -0.0009757618527485846 -0.0015517890110681133 0.00019712879093173731 0.00031776911139437894
 0.012754143601185151 0.028135525901517192 0.6154898184075313 -0.7213829817107934 -0.0013648016212752833 -0.00011815663292478962 -0.0017644195740693879 -0.0012468530333255728
 -0.0007066168749091844 -0.0006248540620847232 -0.004297564408661978 -0.0003593658994839384 0.2056105784329078 -0.877713127732848 -0.03974362839111437 0.011868032957856165
 -0.0025731236221487935 -0.0006109024972606321 -0.0028657942263877693 -0.0032896622967445474 -0.04181967126094948 0.01580792571392737 0.23680647331614685 -0.922761645519174
17577490000.0 0.6110381762305892 -0.7365588909115066 0.012786969771208613 0.027431056800324028 -2.0678934586049846e-07 -0.00025474423056677655 -0.00031253838165266944 -0.0019640791081338856
 0.012766025320310388 0.027806575989893244 0.6137993494366716 -0.720423484673433 -0.0014378657214799185 0.0006014162363289419 -0.001530607498725998 0.0003047900283761649
 -0.00043514027526700313 -0.004055778340412706 0.0028378224280268967 0.000560511291557431 0.19072130680407673 -0.8910420522115035 -0.03801415893179066 0.011754189606482016
 0.0006370298325870285 0.0009560311995114393 -0.003239273284871535 0.003062371833042032 -0.0285348159737104 0.002698540215737662 0.2366391133932078 -0.9001792746534437
17647480000.0 0.600393384944825 -0.7327746062464761 0.012510464237831127 0.026827786929508577 -0.0007822540692880791 -4.597164382647046e-05 -0.0019232984928947287 -0.0003974103616851571
 0.013049421473074066 0.026763684042865124 0.6097053318232444 -0.7276880197320696 -0.0002289793623220482 -0.00022858884331910064 -0.0008197656944691146 -0.0010877196675168292
 -0.00023567436386621128 0.0001693541998472914 0.0012140811179969834 0.002255968494851017 0.17830468654852272 -0.8987187304987231 -0.044261065769001816 0.010909082953906088
 -0.0033339479630267147 -0.0027007317809344404 -0.00208653072313787 0.0015540344449000822 -0.021946812870676107 0.0044622176531927855 0.23310625722571052 -0.8932608282049037
17717470000.0 0.606883655164808 -0.7519094133256551 0.012570778131152394 0.027133288543480797 -0.0006264875797368414 -3.2540083046122025e-05 -0.0042619684543983875 -0.0004832768336202891
 0.012121955717314701 0.027444718464507366 0.6078911688672488 -0.7252856835061973 -0.001222567851995607 -0.0012653120318224101 0.0009147105059812541 -0.0004726264941285529
 -0.004023522406189407 -0.0007846445282556811 -0.001747562872797481 0.0012088970284754705 0.1763697295657327 -0.871313909124785 -0.04329653782057229 0.014631658992423973
 -0.0018380474823160554 -0.003086843364598499 -0.0025551383098433413 0.0005130254086630047 -0.03417601589873082 0.02387904856289397 0.238915698545139 -0.9192422541054998
17787460000.0 0.6012764993063402 -0.7290688456281037 0.012062587693666551 0.027075514039350566 -0.0004002315943888615 -0.0011761233848866983 -0.001027828472268549 0.0003506141435063738
 0.012369039884148482 0.026632390905063693 0.6068325562699561 -0.733908986167805 -0.002071397730661917 -0.0007486867006223653 -0.002174477461605774 -0.0017690349019689189
 -0.00017227186524373407 -0.00014157923736723974 0.0018081979663529353 0.002538510913957344 0.16126447411632985 -0.8834949014291748 -0.041752087934875524 0.0057882333122630325
 -0.002484648432887389 -0.0033344195698461715 -0.0007678717400582127 -0.001161765808921019 -0.030908704014496077 0.01312022111966609 0.21994659068884856 -0.8984189575690795
17857450000.0 0.593395394902389 -0.7312442418774556 0.011875412787007107 0.026896261619270872 -0.0003599264413903026 -0.00023713312500758387 0.0007853509733322747 0.0003689818485526722
 0.012183406841195189 0.02586563676280179 0.6142855573079655 -0.7424442113686066 -0.0014947627608956544 -0.0006995364412496348 -0.0014105320184869638 -0.0012320644365562902
 -0.0006582478675462576 -0.0004024619716382147 -0.0018179212969466525 -0.0003165816950820206 0.1521621364032286 -0.8730570459563037 -0.030891171837234065 0.01897384329028334
 -0.0027058125891538266 0.0027808454198346736 -0.0008933814592666375 -0.003095334605682365 -0.039361407570515476 0.011501505675583397 0.22865016429352036 -0.8953756581017721
17927440000.0 0.5971702312355273 -0.7344610143070727 0.011139150625474733 0.02658550683263099 -0.0016423968319560658 1.3375493099419259e-05 -0.001402267797149097 9.622158036001428e-05
 0.011159681820339733 0.026343303445130632 0.6101854170483402 -0.7423775776485287 -9.096704552518693e-05 -0.0009858045332778855 -0.0014208757481380557 -0.000831041428436679
 -0.0034680790346173916 -0.0002583314356581307 0.0013626012145302104 -0.0004023425115666346 0.15175545979635424 -0.8735111785169619 -0.038713010106599464 0.01617693675463428
 -0.004667720217002876 -0.001235714226440536 -0.0036188024087767216 -0.0025264275109690795 -0.03574303806369215 0.00783932607006454 0.2076892019132786 -0.9080355273095374
17997430000.0 0.5892305095670032 -0.7392574844998573 0.011370120116336079 0.0270493719736775 -0.0017175944557175353 -0.0003694622051075572 -0.0018397720546281858 -0.001163545547203604
 0.011458099766670483 0.02643077083991906 0.6059975567323604 -0.7431074405871463 -0.0010657936738303327 -0.00021519402079217583 -0.0032374263331345675 0.0006355978956411168
 -0.002324941499848191 0.0014321824748327902 -0.0009020176593773527 -0.002625915903892233 0.15542891914310186 -0.8880753844863486 -0.03691806298635253 0.016009007921530784
 -0.0012120797918491989 -0.0009174438596341876 -0.004540401483304804 -0.0034005243553032615 -0.030261544170110687 0.010140760488841568 0.20849769019530248 -0.9075307320118605
18067420000.0 0.5977483927816322 -0.7409948343906578 0.011131444627619402 0.02601227106215756 -0.002761011403331321 -5.8900391363614925e-05 -0.0018885538983303323 -7.752606307925544e-05
 0.011225814223459559 0.026318413116053697 0.5931440161155042 -0.7375739477440896 -0.0017047303286608863 -0.0005793449996845753 0.0003439991965071383 4.594563765017088e-05
 0.0016835176382242057 4.906024242403579e-05 -0.0005641085458497737 -0.0015639848520959036 0.14692905918210242 -0.8785117027708598 -0.04530443531221913 0.005786835730181998
 -0.00029992338782417973 -0.00041188776101892306 -0.0014989069469998498 -0.0009512389434861503 -0.03543908012907788 0.012977138353719483 0.18621233630489356 -0.9109294183476273
18137410000.0 0.5928470528287512 -0.7523626115760486 0.010494345535497213 0.026214856749913865 -0.0007416025147771833 -0.0008341456447314723 -0.0017106899025288748 -0.0012547200029946882
 0.010993849779624119 0.02604926973297148 0.5859394147913334 -0.7382582988420126 -0.0014491988389738828 -0.000630707118636736 -0.0015014855176556797 0.000284829730273388
 -0.0006638852633408939 -0.001301566389075245 0.0003298239902688028 -0.000286288428028397 0.14530441808884392 -0.8721383514272374 -0.04214519333069089 0.01773966905598977
 -0.0015200626565509833 0.0024341021283993927 -0.0015424165308307969 -0.002708843819620931 -0.059562293161108504 -0.0005127227314034272 0.17663526285536202 -0.91118356418989
18207400000.0 0.5900311048472268 -0.7435109166960727 0.01068102801456737 0.025635443850882712 0.00014669356860566544 -0.0007620654453354662 -0.00108399960231591 -0.00010582867904543524
 0.01086066019645381 0.02574133483754764 0.5819333327571005 -0.747643915781467 -0.002111746701427637 0.0009271326645010638 -6.308120383012217e-05 -0.0015029214828181697
 -0.0022875702012574517 -0.0016552250270173436 0.0008834229595865773 -0.0002669872964566944 0.13458442646347904 -0.8647349031015168 -0.04272616917447818 0.018339211329837343
 7.035684439968333e-05 -0.0002465786101520851 0.0018956683747089862 -0.0010787708095189356 -0.04169210391032375 0.009386469938772651 0.1928434376034415 -0.910227402984674
18277390000.0 0.5867855816499867 -0.7547629399147989 0.009896065829208244 0.025066031442821213 -0.0021218492105723056 0.00013810637248383887 -0.0027584439443546598 0.00021733645891771185
 0.010753768027930837 0.0255710461557483 0.5855270382820044 -0.7392056913269449 -0.0026324028806086128 -0.0014624277610696716 -0.0016792872971282621 0.0003402907323709035
 -0.00024231196244339377 -0.0004947710620789583 -0.0002711543102135752 -0.0008422835117799175 0.139192167652748 -0.8626214689114438 -0.03524461547490547 0.01949140190623291
 -0.0017960368139541825 -0.0012532635382914586 0.0004700910956277955 -0.0004229572221602868 -0.039956069863466843 0.020479564237780815 0.1796461810825731 -0.9007224907328613
18347380000.0 0.5794792182802895 -0.7440600577110021 0.009030714744747361 0.025815532472196007 -0.0008468858462553273 0.00047726575840304516 -0.00024329504193828206 -0.0008126809632345399
 0.009257640262960904 0.02553894492256218 0.6008807965441139 -0.736393863144121 -0.0008152216464267367 -0.00030631774976266364 -0.003287226086135183 0.0009772977072185318
 -0.0011098033869968637 -0.002021749560261822 -0.0003969610593485345 -0.0024441673284160462 0.1260774224182123 -0.8911068081923204 -0.03392535383822966 0.0060724755416472894
 -0.000576437275678129 -0.002285100281153952 -0.003965671530884634 0.0017428474946367457 -0.03525110127176637 0.012020504471159828 0.17243156252389358 -0.8948869047184139
18417370000.0 0.578005736918521 -0.7375906217441544 0.010023818983816263 0.025149307206019954 0.0008189929492327985 -0.00027870554268368783 -0.001107165192146305 -0.001295087581052169
 0.009259306566247226 0.024422486265884016 0.5854543824531381 -0.7683420637981351 -0.0011458308988696853 -0.0019559299417358216 -0.0004152374882167525 0.0002616934968868012
 -0.002137948152280835 0.00024451075444726554 0.0003855055636692447 -0.0008514352360696858 0.10647430700077773 -0.8963238125707131 -0.04752126844363698 0.0067362017166516085
 -0.0032279098138873253 0.0023167559200836384 -0.004987009093710572 -0.005060981716595611 -0.052662018403550705 0.013629620770131414 0.20530274277345364 -0.9138748539771963
18487360000.0 0.5715709720615872 -0.7664186548550038 0.009303687339772035 0.02462158509072112 -0.002646984889070348 -0.0006022450548722704 -0.001605394308290199 0.0014254409905533074
 0.00971873320674576 0.0252826669863319 0.5775250967759705 -0.74216530891735 -0.0009857084058874685 -0.0005724391689088341 -0.0020260403777075334 0.002161555014312696
 -0.0028484516538915456 -0.0025310014297101986 -0.005565045448684345 -0.00425952532932075 0.13845331572762729 -0.872763778665495 -0.05096179265373032 0.024483654853334192
 0.00022990453094537842 0.00495868724194555 -0.0005417542486021291 -0.003032072033567232 -0.042405070883040505 0.02451703090667118 0.1662194119418662 -0.9392316108247644
18557350000.0 0.5691917988448133 -0.7534463383809448 0.008754999630236807 0.025503194067487734 -0.0014107651062452002 -0.0010032457669087638 -0.0005276423620987211 -0.00014287676748390513
 0.009293489138276947 0.02459484289422135 0.5919186475535252 -0.7472038492489179 -0.001140185577047912 -0.0016834773837069601 -0.000560923543499898 -0.00013788815245615872
 -0.0007407509520121236 0.0002574697949861207 0.0003127315052392798 -0.0009860355354386582 0.12014375081358665 -0.8708056417796165 -0.051348313177527735 0.013272214711551378
 -0.0016216369347791227 -0.002467317171670135 0.0004114187319832648 -0.0008510275453629197 -0.04697755263203357 0.014984499750059789 0.17041999604862693 -0.912341322911087
18627340000.0 0.5666192283095062 -0.7616742924381983 0.00874574853815363 0.02498232390253445 -0.000839599475760203 -0.0010445535042706167 -0.00042833192179504844 -0.001323195327821696
 0.008591475882486927 0.024920538583794175 0.577167193687804 -0.7521465852321316 -0.0013154990358662422 -0.0004364636096263629 -0.0006987549440880689 -0.0006434299827626494
 -0.0021003260404657653 -4.411658210529045e-05 -0.00017207677916468848 -0.0016721452469973602 0.1243817516934925 -0.8816044100070721 -0.057005925098870834 0.011808679953115027
 0.0005684237587012226 0.0025748294449947228 -3.251683629819954e-05 -0.006113203545822863 -0.06946674654330491 0.009616570521658551 0.15751095607643054 -0.9211982366631868
18697330000.0 0.5738668050431919 -0.7474390282062189 0.008045337909950299 0.02394744620248425 -0.00042919127857321435 0.0003708119038364755 -0.0014323153972250653 -0.0010824305389254402
 0.008384495611146696 0.02513538032133958 0.5687779819130783 -0.7430460610173737 -0.0007063345693831132 -0.0007103649297920285 -0.0021775387138575513 -0.00037867862037814
 -0.0025304242321878365 0.0015385522941023717 0.0017477359479214833 -0.0018449363713795442 0.10946586103500407 -0.8819264470493302 -0.0546075286199549 0.02221935057169699
 0.0017230738030450483 -0.0005901916867053447 -0.005676633095399592 0.001005377752033126 -0.05500108006203896 0.013602528509469452 0.14177402404292755 -0.9419140888305952
18767320000.0 0.5689444606827432 -0.7577411161378446 0.007711963650105026 0.024213791778673898 -0.0016962552034169133 -0.00024054000616675902 -0.00314272315584473 -8.132907260126232e-05
 0.00807794196697638 0.02492017758315246 0.5655858515152015 -0.7532756638993191 -0.00034838172328354963 -0.0017296347816200513 -0.0007163489870587474 -0.000694280170303076
 -0.0027294687585141153 -0.0033042661727682426 -0.0010670928838985086 -0.0007834362241445413 0.10538432771126033 -0.8821530233645806 -0.05324174967720947 0.005103620790351621
 0.00010583447428711264 -0.00018456070665584146 -0.0011990673121786454 0.003629532851642954 -0.03007404050367278 0.01738257674525144 0.1600331057041183 -0.9255595703061856
18837310000.0 0.5691919673411292 -0.7654729800085808 0.007379749950537837 0.024401454975588932 -0.0005359755061786441 0.0015216712923945934 -0.0017388624409147384 0.00035798419759813007
 0.007975364602346503 0.023923642538496746 0.5773861002223418 -0.7597775670308555 -0.0014202156353642988 0.000452647833630934 -0.001538396235072552 0.00011034378242244175
 -0.003060264038781899 -5.767007873376983e-05 -0.002666388630674271 0.0014684422652202708 0.10184143789762039 -0.8832857499222552 -0.04927867746347422 0.018114912375793695
 0.0003305412770057829 -0.0007297786506752734 -0.004823110351009423 -0.002223984487188456 -0.040147621021500136 0.006576943342665362 0.16851026948513112 -0.9092301644234525
18907300000.0 0.5662353183295599 -0.7648587163450149 0.0075277912547259615 0.023358066383327023 -0.00035895038886720886 -0.0010194766090521746 -0.0013216885850668915 0.0002438368551062782
 0.00731410577005153 0.024031147917225375 0.5679323464433119 -0.7514104648158595 -0.0002712920089017343 0.00037088536284926203 -0.0027617064652768774 0.00047037066910409565
 -0.0014812150141682132 -0.0006050396868578294 0.0004992776729367077 0.0003498508966335887 0.08981337022344361 -0.8693419624852746 -0.057046550004795714 0.01461979260894139
 -0.0004491852397856613 0.0021872907793478538 -0.0027036474694745152 0.0045190944087973575 -0.05782781418453497 0.020863883250271654 0.12299359591645022 -0.901648115956617
18977290000.0 0.5578334885175364 -0.7606427134164416 0.007510989117902235 0.023692457606636814 -0.0011035708772432686 -0.0003057983974198422 -0.0020563783552675226 0.0003458946491062507
 0.006847921030432855 0.023826267843146814 0.5529841781626642 -0.7642652916717673 -0.00025409714625009033 -0.00040545373805350986 -0.00170937752246316 -0.000298309541433615
 0.0007201721118356052 -6.842933152375996e-05 0.0014632460831861195 -0.0031068604204409485 0.09777510465525417 -0.8638252764076646 -0.04047806589802406 0.02932126382361476
 -0.0020092620614483793 0.0008636583971713608 0.004663022969044738 -0.0009755662926882206 -0.05402762109941731 0.01885353759499292 0.1360343310660999 -0.9299916669733611
19047280000.0 0.5419910273540248 -0.7794486536779139 0.007054215531035655 0.023898145820840974 0.00016090914363001542 0.00012343918851489083 -0.002215409414116143 0.00042367799024100206
 0.007382920899036149 0.02388248351522056 0.5585424723624083 -0.7636953366864818 -0.0010661878395021003 -0.0010063947324221618 -0.0013765557324674136 3.814772843720444e-05
 -0.0027148246833904204 0.001150814863430644 -0.0032291102667488304 0.0009035403099166704 0.08886132502557437 -0.9007559105652051 -0.05997645513379278 0.025925053127346415
 -0.0008541859597270599 -5.2236769332861515e-05 -0.0013251550055127163 0.0008704475854160765 -0.05489207815854281 0.011608005158454518 0.11116928651087014 -0.9287501456559365
19117270000.0 0.5500855102310167 -0.7616793491586652 0.007095009874220122 0.023602794363139515 -0.0016047175434995243 0.0004964269554691344 -0.0002626994723620748 -0.0009682236589027415
 0.006784342339285986 0.02347156815502148 0.5516471395912282 -0.7860506925885531 -0.00025514488749815045 0.00012043486402838362 -0.00010303567217008843 0.0010133997040476406
 -0.004179817408047142 0.001408093481134221 0.0007536254142736501 0.003890561951071062 0.07135295920594696 -0.8723835736596303 -0.04160557737923135 0.017413205510827135
 -0.0027264968337222984 -0.0006614428071713781 -0.0006858065438135898 0.002979925778558239 -0.06532252254804714 0.01862548408773473 0.14434985645956833 -0.9357399950504746
19187260000.0 0.5453143486317454 -0.7773957142294362 0.006057713151859643 0.023076451261594712 -0.001712243160684466 -0.0004580735757373103 -0.001706336605650843 -0.0010011177534308558
 0.0063404762086081146 0.023375943877607733 0.5504125110944926 -0.7595389214520782 -0.0010062781630852144 -3.324981883570496e-05 -0.0008369803292762712 -0.00015502692284427
 -0.0017120445851773031 0.001665489539932954 -0.0032859060575606397 0.0018920829459224756 0.07942882769364407 -0.8832581813284686 -0.06868006906720286 0.010489164055902975
 -0.000642274901204074 0.0011846977217721782 -0.0017447527153504354 0.003357087323024158 -0.06769142462046158 0.024179073560080935 0.11377361115624286 -0.9246024893981546
19257250000.0 0.5493819085942782 -0.7746775704074313 0.0056592054241071 0.023193635111782036 -0.002152498685429657 -0.00010163727747148709 -0.0031743144151839433 -0.0012388454373747032
 0.005865277868867123 0.023022740831358062 0.5562179651439867 -0.7613697971143525 -0.001685900645626427 -0.0004292982716424642 -0.0005931405805325963 -0.0001354551539101669
 -0.005329451621189727 -0.00215598700255407 -0.0009137769801457151 0.0024177939273362656 0.06335056366907596 -0.8763008404704319 -0.06210103463427846 0.01763148589827583
 -6.784484968140909e-05 0.0002914007234055732 -0.0011026269506257027 2.3770602794520717e-05 -0.061614923063082645 0.014552320335140584 0.10454362763063485 -0.9007296932954715
19327240000.0 0.5478191511656549 -0.7596060327455475 0.005378902107269055 0.022863913493044997 -0.001357958377483415 0.0015290698792452323 -0.0027957300838303417 0.0005867579534205754
 0.005099921475095171 0.02302409307959305 0.5440423668364514 -0.7741387911155894 -0.0005802601906559669 0.0012637483983542826 -0.0007379831329627155 0.0008971863735755547
 -4.279716199122063e-05 0.0012192720776239001 -3.019594431739634e-05 0.0023073145894234263 0.05460455294168673 -0.882246132380016 -0.054195250594648914 -0.00017527320568816896
 -0.00032368313954743 0.0002845167689151688 -0.004717551197780398 -0.0014329778747996617 -0.056247004483682354 0.026911640286175584 0.09810033443798304 -0.925511533500228
19397230000.0 0.5487148731137419 -0.7741572709022406 0.0043662711043874 0.022802403826692106 -0.0013924708750792595 0.0005101287182405632 -0.0011939181170333019 0.0009336840134531646
 0.005709704785930883 0.022590528371288155 0.551765447342589 -0.7642729981793833 -0.0013195752318720633 -0.0017781772519096075 -0.0007739848744452389 -0.0005314400286863305
 -0.002407371330900797 -0.0014494126724838225 -0.00021805551556988842 0.0015263452916177073 0.05229502828941366 -0.8782034164971824 -0.053055032421770884 0.027134793906132368
 0.0003629469486605615 0.0016220955277502303 -0.00010883416914203967 0.00026162073449910727 -0.05865164544560538 -0.0018601095096843119 0.10960729136884707 -0.9082777953094694
19467220000.0 0.5391084752729149 -0.7938672922549537 0.004675295861860714 0.022715934646659487 -0.001962104675695373 -8.895109451010067e-05 -0.0027878297017999145 -0.0010133096836776303
 0.004909743302256682 0.02269785578017259 0.5350044767605867 -0.7847752532195973 -0.0007325468105237954 0.000128317640871547 -0.0012923343294699349 0.00016263652955146607
 -0.0016503624788351127 0.00027848613953918586 -0.0006234722386757116 -0.0009359042651210375 0.06739721556605792 -0.8666441855726491 -0.05482930039321743 0.01742880113426254
 -0.0007603648663975519 0.0009380749003156068 -0.004218491485556871 0.00044628468626329 -0.05374737967101598 0.005877371956799922 0.12581596301121561 -0.921705414346293
19537210000.0 0.5327892094281373 -0.7998571649567715 0.004797682189653388 0.022724839650121478 -0.00200811425063179 0.000553507681211551 -0.0004218048034528132 -0.00036266721748147223
 0.004862079267645932 0.02306192597760579 0.5346983219196899 -0.7677803948393258 -0.0015610733072824441 -0.001608187745646708 -0.0012232172185729646 -0.001076409286322648
 0.0009675854835596011 0.00024944076706206705 -0.0001470642894252354 0.001230373802970356 0.0487250973226812 -0.8881401521755771 -0.06509942222088826 0.013948025814750277
 -0.0033860073375880733 -0.0005794559988053779 -0.002902959211794664 0.0016511348709069827 -0.057741421160582534 0.028163121320681255 0.09333875701064313 -0.9292175289910104
19607200000.0 0.5351918184519521 -0.7831584587168919 0.0036682228213389383 0.02204809151625083 -8.416527829760684e-06 -0.000276239648767861 -0.001066732703989641 -0.00029117277587458124
 0.004202379183107545 0.021942721493055293 0.5405821552523216 -0.7770208640727865 -0.003501984979704566 0.0019057222064994548 -0.0007517629232567539 0.000412231567891578
 -0.0012463809341043955 0.0033432885018645974 0.0005365510378685665 -0.0018531050731112164 0.05460924527923246 -0.9008128150599574 -0.06004345836703881 0.017983406159018406
 0.00024624715160430366 -0.0016005771655792761 -0.0024562668239549727 0.0008179769341228995 -0.06450177293509941 0.008601217906126085 0.09300345552893802 -0.9190944246907594
19677190000.0 0.5296355285279881 -0.7781036826818422 0.003799465407569204 0.022281476097879612 -0.0021224848785529487 -0.00020724006512779045 -0.0004962807715649213 -0.0015218350549143398
 0.003066381160642239 0.022217206690669764 0.5278898702987248 -0.7862337754782645 -0.0014074481819386635 -0.0017788041933688612 -0.001721139914828901 -0.0018409110792118558
 -0.0031618064992118486 -5.4162809619542416e-05 -0.0022958323646967587 -0.00025836689146301983 0.028861696424009434 -0.8964071365554547 -0.06142203461736197 0.01431674959751076
 -0.0017849284907472712 0.00277822088396685 0.0011964315086247105 -0.003650296643484788 -0.05929180980862165 0.032324796238751605 0.07677979339027005 -0.9069987502540571
19747180000.0 0.5301421173954806 -0.7848476449407319 0.003310798316206065 0.021460601113027535 -0.00033354395085898877 -0.0007970303321342091 -0.0009633602734703899 0.00041348598450636164
 0.0034085911035591386 0.021833018397347064 0.5279925277875404 -0.7735268853847521 -0.001576950872454313 0.001190632282261897 -0.001311471007239074 0.0004609595589767476
 -0.002406978824620658 0.0005948378693015681 0.000750853304348295 -0.0026198516194573035 0.03301232483245713 -0.8700830886608155 -0.06091484968027469 0.020599699807678406
 0.0012507636673786857 0.0008396648225333041 0.002599704224126114 -0.0014916244070127087 -0.050970064820349666 0.019400199922167707 0.07009994776118886 -0.9165929947208916
19817170000.0 0.5217122688210709 -0.7971833875587679 0.0031112431127623933 0.02164882241434522 0.00017360450592174008 0.0003673632336254893 -0.0018361037711971762 -2.7661043452932406e-05
 0.003215189095906746 0.022137062543541454 0.5320513138152722 -0.7691016353245823 0.00026948945138414933 -0.0005449490896083191 2.460668703110097e-05 0.0004789255768803002
 -0.0018318421652739252 -0.0008817557347268433 -0.002329385183783672 -0.0007819518944330975 0.035289833064477964 -0.8886303843353486 -0.06445211776747774 0.02707001421251564
 -0.0008256646510226206 0.0009823859797298828 -0.0027218333109652834 0.0028278006681693667 -0.057490169806919914 0.03447083045524218 0.06713625085366426 -0.9276018045320272
19887160000.0 0.5237266275103326 -0.7765469902599549 0.002658360502135419 0.022105462551242128 0.0006963551240016769 -4.915292054729399e-05 -0.003745912353290253 0.0015322795103711046
 0.002358176351493004 0.021418974893533425 0.520687853909383 -0.7923423686530996 0.0002952880904991681 0.00047802146459859947 -4.901944637783969e-05 0.0004883464227070028
 -0.0016737598531102425 0.00024635048342625394 0.0015857115225267203 0.000321268898833165 0.003424057410803945 -0.8915386224265492 -0.06932318584586741 0.015733301438079633
 -0.0028054332914334815 0.00037764429881882624 -0.004140312195183472 0.0003233485418427248 -0.0770001817010917 0.030943415801130074 0.07174616525588996 -0.9196798708166435
19957150000.0 0.5153454778173331 -0.7975633310016373 0.0021856701529833935 0.021091822578077936 -5.612721883978448e-05 0.0005166816669435525 -0.0009215548106029056 0.0011321913257125614
 0.0019996313547307348 0.022001391596288333 0.5218794304781177 -0.7918830458773861 -0.00011286958935551885 4.5852012196571655e-05 -0.0004839443587503581 -0.0004417269304490303
 0.0007925759858866468 0.00010111125272933534 -0.0017234894316895603 0.0003779625744048078 0.019424531752193743 -0.8628153649230657 -0.07365037353089335 0.01815774933896714
 -0.0030899588780824634 4.656125477787547e-05 -0.0031223795802267675 0.0026318500951883995 -0.06503688059180432 0.018745987644158017 0.05458432302187292 -0.9298300208038082
20027140000.0 0.518188493530239 -0.8033377928279064 0.0017112032744554786 0.020980204421611883 -0.0010529777752250153 -0.0001674366070343808 -0.00022078935648684752 -0.0009369258739698723
 0.0019377908548266422 0.021306951039126908 0.5124769246336006 -0.7824527694453685 -0.0013818800286279874 -0.0014878088907799222 -0.0006982623985727977 -0.001796293389516888
 -0.0006057502105029684 0.0051919754303151626 -0.007063304419529561 -0.0006168907726883465 0.0005565491760944031 -0.8791815445887043 -0.07592052218321563 0.029582774118677893
 -0.003314114917459367 0.0017661175686249008 0.002372312256047398 -0.0028380940248979446 -0.07707232433323086 0.03135758109417027 0.07597560553218508 -0.9165300198733755
20097130000.0 0.5125480124424956 -0.7853236459605165 0.0015276153110645838 0.020951647807956605 -0.0017786845594581467 -5.670225679594421e-05 -0.0014706063683840045 -0.000482470032596616
 0.0006969681742001475 0.021257500395768576 0.5188516220256459 -0.7889299498609068 -0.002205386254493106 0.0020974762472908445 -0.0013757765404238261 -0.00019796321333148881
 -0.002719385818316672 0.0028219142835073747 -0.0005469125365197512 0.0019375874229594385 -0.0006024642688142699 -0.8794561658811473 -0.07467745007947112 0.005355697323413978
 -0.005036154637661488 -0.0013125709422595578 -0.010763276404842538 0.0038584741657103953 -0.06412730102571945 0.026177178610923887 0.05029702035855641 -0.922227604783299
20167120000.0 0.48847923719358477 -0.8077008997065461 0.001286326374201403 0.021051510053211094 -0.00026621207319711465 0.0012521284466396516 -0.0015319248112970359 0.0003083031785701585
 0.0017676843406618664 0.02132166330517714 0.5254532155326268 -0.7986453948903595 -0.0009470181877792319 0.0010473359146877974 -0.0032441634549319827 0.0020138738874905635
 -0.0015215020961337827 -0.000705902743314682 0.001875580245714552 0.0026519004995391284 0.023917364979784767 -0.8909058389320912 -0.05637147364730818 0.02675846316022822
 -0.001781362198447367 -0.0008254905573038033 -0.004012759373279711 0.006804408602226458 -0.0651641261082302 0.033012469934032326 0.05666765502564398 -0.9045989918958072
20237110000.0 0.515095755457229 -0.8075414960745341 0.000939478393706079 0.0212058025235483 -0.001268813990435958 0.0008151020873215914 -0.0003085820634922876 0.0001043772372349318
 0.001105219491852775 0.021093281886973667 0.5091405721429557 -0.775914083569957 -0.002722417798000656 -0.0002035241792388719 0.000778662829732491 -0.0003316561828692108
 0.0014938624496206017 0.0010114125501678995 -0.0016940480960740579 -0.0013052522056403273 -0.022190836102793862 -0.8837601890354234 -0.055307955949859544 0.028005215238557125
 -0.0024659771682002687 0.001577731405740008 0.005539326159897365 -0.004676008183355001 -0.07185321914918062 0.02053003932626969 0.01960347049682694 -0.9242265899603342
20307100000.0 0.5150855142217066 -0.8149849923510554 0.00012926141978341618 0.020374795586016188 -0.0018707353738559598 9.103028934500211e-06 -0.0004965119826028659 -0.0006810027207321445
 0.00024707464646130095 0.021744251642936894 0.5073016225518987 -0.8040782063903209 -0.0006758897989107403 -0.0007770838942608007 -0.0016066439541472318 0.0013771528357852596
 -0.001525795723726042 0.002067755279962971 -0.0015681669124119075 -0.0033149965961319573 0.0036492049753956606 -0.8575995971123875 -0.06592539214285713 0.029172137284684097
 -0.002622785346472717 -0.0032539615368118216 0.0015416038136110467 0.005569018194495097 -0.06408332844014261 0.01989312941298075 0.030460682429743067 -0.9180129137767727
20377090000.0 0.514702135777096 -0.812586033215564 0.00024029148526721143 0.020001780759292577 -0.0018216225980959028 -0.0005637087111235638 -0.002348642459550688 0.0013850136379972278
 0.00010539208175457362 0.021269714897668417 0.5148314026366783 -0.8137298206572365 -0.000833359787521294 -0.002186406008973661 -0.0026680372275705573 0.001513433362238287
 -0.002817386259931634 0.0023188342292737203 0.0008454914200378598 -0.0003182499197987829 -0.020115639480192023 -0.8714967908861655 -0.07299395576617661 0.02895784110722591
 -0.00030626998997831256 -0.0034928531226392752 0.005035258451228639 -0.004679034521020411 -0.06909029684954719 0.025804181291522208 0.02938808051297337 -0.9417614505828225
20447080000.0 0.5005959938407377 -0.7877450575316034 -0.000142089769887776 0.020711892364290243 -0.001812586922697326 0.0008021570998421181 -0.0010210244670609677 0.0006445099994765914
 -0.0003365739648465156 0.019936141938490512 0.4845730714278273 -0.8179975674762966 0.0012563401930826138 -0.0006637269432668757 -0.0026957706518390256 -0.0012097350814662365
 -0.001844405910156506 0.0008449528944334744 -0.0055398182572768415 -7.08181986746792e-05 -0.031236435512541877 -0.8608991227659507 -0.0858922057762857 0.025669415697294758
 -0.003090438680342805 0.003015348429040882 -0.003535629643154988 -0.0021168688921383624 -0.05139821317185498 0.04507819727290288 0.05372202730769213 -0.912986508821184
20517070000.0 0.48334566755197705 -0.7929965290674948 -0.0007466738295412405 0.020269196121721445 0.00032568773263843106 0.00092746533475921 -0.0015313381373153107 -0.00014444127665815
 -0.0006590592880499277 0.01970548983895902 0.5120856481311421 -0.8073554016773973 0.0010862063246856542 -0.001025773550121317 6.730399027026431e-05 -0.00018541354105687614
 -0.0009155390892745311 0.0011354670359881825 -0.0015193310994291646 -0.0023278151843640184 -0.02116920022586874 -0.9255301454416173 -0.07463042790267614 0.04797886433017657
 -0.0041062134015193395 0.000485530028582475 -0.002697778332568838 -0.00018717085529442934 -0.0733151304098105 0.0159976158606773 0.013001445901461586 -0.8900512615924515
20587060000.0 0.49143758377240865 -0.7879209783476533 -0.001883327085352001 0.019922257650142234 -0.0012653550366121039 -0.00031198616424392157 -0.0012214175045183577 0.0002330111062808299
 -0.0018517805940178509 0.019621263055280717 0.5072942646448236 -0.7978056111968034 -0.0038796937282941655 0.0014228152875862404 0.000209407136215383 0.003464108073243203
 -0.00391484057805714 0.00043935496438417824 -0.003957957404217155 -0.0025128040292535284 -0.056037515928813945 -0.8707092957449505 -0.07361334565542269 0.018652879653644386
 -0.003398595437590208 -0.004520667850118325 0.003608307361064476 -0.00105419001494315 -0.0678312547313442 0.03650702917728448 0.004571501326487372 -0.8986669620104855
20657050000.0 0.5026933988743039 -0.8042580043170175 -0.0013755201241908003 0.019913628361936213 0.0008117029929748399 0.0025343334425336613 -0.0005599692563351592 0.0017531364723722773
 -0.0022210084195636625 0.02025492561788612 0.4787700101455283 -0.7890168136420717 -0.0024466622096891303 -2.0992971356643678e-05 -0.000913752150868763 0.0006998426773017726
 -0.0006163287998734042 0.0014214534347120643 0.0005952272878026174 -0.0025937538395608855 -0.015239105993580753 -0.8657652146526083 -0.06263084144600449 0.03870107877789345
 -0.0018548207682232757 -0.001205791570268812 5.030263266926057e-05 -0.00031731300105462725 -0.08772397939697077 0.009153913162533476 0.0008777626634854168 -0.9325436895896555
20727040000.0 0.4860618082407754 -0.8159275683214947 -0.0017508399908909664 0.0189966150322745 -0.0010814185264986034 -0.0005623464666475377 0.00048460947908071585 0.0014223615517001964
 -0.0022972434615850627 0.01978818639997526 0.4811414338753165 -0.7976765903350524 -0.0028958053719843903 0.0008968279803147737 -0.0019004366045116687 -0.0003007173866639888
 0.0017584109366990072 -0.001727865567766854 0.0008564847570532815 -0.0017064436082468361 -0.024786314858852104 -0.8664123929473972 -0.07248646288266776 0.018853887231257076
 -0.0041254332603310765 0.0025549074125660377 -0.005015786553848319 0.0012346968423635105 -0.07387599959302907 0.01689041795868182 0.010682214631879808 -0.94416886736083
20797030000.0 0.4884961720211141 -0.8025449692580703 -0.002530077196180238 0.019144999600533875 0.0007175092816705922 0.001740014067186313 -0.0004986332882046816 0.0009739914672992401
 -0.0028898433485220008 0.01890451899217282 0.45822701429167584 -0.7907104838825176 -0.0009009776119057308 4.025293853862605e-05 -9.174523697763348e-05 0.0012288958153991302
 -0.004235942261491724 0.001297054564470705 0.002145009880021496 -0.00012984198570885932 -0.05002208325849508 -0.8478587778425808 -0.082929590559296 0.03372312012842638
 -0.002154536656611817 0.001177082949804291 -0.0004948253300553984 0.0003424518985206587 -0.08002425733649786 0.024788788526686634 -0.004979352029114241 -0.9447733696632179
20867020000.0 0.49136374585509884 -0.8158662767369097 -0.002468494827601294 0.019067611362744163 -0.0007988039424569241 0.001292374630173176 4.331216303350244e-05 0.0012380120769458092
 -0.0031826990336984717 0.019671613020862132 0.4640241301449496 -0.8050844580651899 -0.00038096747153585416 0.0020795304081716814 -0.000520874295656995 -0.0017577436631297722
 0.001120509929855278 0.0014522529356895833 0.002047897382107112 -0.000987175217647378 -0.04386811410044116 -0.8705429292806796 -0.07610039058939726 0.011258700610405745
 8.94394481339429e-06 0.0050078153536349795 -0.0012814823840610974 0.0026330361442485775 -0.06601686258651356 0.024945430272081636 -0.005427061910622765 -0.9512492933079304
20937010000.0 0.47317642378177194 -0.8113429820438013 -0.003402873236298653 0.018137393838111502 9.026251234319148e-05 0.0013890488037169746 -0.0012599622455975214 -0.0005666645195109557
 -0.003497500182795321 0.01915919144643655 0.4653350773697901 -0.8102167099350757 0.0008868621895951438 -0.0006471561648192308 -0.0014099621488014179 0.002257305218026655
 -0.0018776326790568992 0.0023646389711981823 -0.0016019061326480028 0.004528641449225712 -0.05379086568986692 -0.8782452971197604 -0.08050793824538907 0.027020570557584354
 0.001937797365542331 0.0023427584218124044 0.0013809368347951862 -0.005835313782399713 -0.0792833898119881 0.04924921130252316 -0.0034735338153729636 -0.9515105352342718
21007000000.0 0.46681196146570125 -0.8074598430889708 -0.004194642331501172 0.019585436971147598 -0.0007617144371039895 -0.0024738404808531535 -0.0020108414841141513 0.00033303688129231174
 -0.003361305715656006 0.018999884002789194 0.4837613438539236 -0.8212818197257802 0.00035038155775552116 0.002245519920099583 -0.0021993935313103018 0.0012882411921496747
 -0.0017051272049741007 0.0001125011833332076 -0.0012489922819800357 -0.0005308836941657022 -0.0692662556074851 -0.8760178919613496 -0.08800062802559704 0.044401048268194604
 0.001393250158564001 0.0019591165120190004 -0.0020361785754410403 0.000426526047246795 -0.08928883344657004 0.024514118257378852 0.0059305464140604 -0.9161984902660328
21076990000.0 0.4674590895293015 -0.8154782627246447 -0.004122406301311111 0.018465291850540622 -0.001982998001732198 0.00036673228136820823 -0.0032134319232177996 -0.0016298298598866922
 -0.00430894540379148 0.018789429310610926 0.47601839446567734 -0.8189259668972134 -0.001608990135043173 0.0008795244800389421 -0.0017686850255462718 0.0008287347121985226
 0.00033235787600884123 0.0008420923140331057 -0.0035493769954902028 -0.0010228310543841013 -0.054710413148673996 -0.870817041606299 -0.09081486560112953 0.027719141445752486
 0.0011094181614721935 0.0005265643569426073 0.00024475429115866697 0.0019721408765582577 -0.08003769143839795 0.03968509930619924 -0.02678781230523684 -0.9151142831853076
21146980000.0 0.4672831994891038 -0.8199298027727759 -0.005407427960941774 0.017617702217061548 -0.0005661939495308547 -0.0005123660657937702 -0.000551359048567046 0.0007470887638320636
 -0.0053281573794772795 0.01886096806579644 0.46370310869253023 -0.7901596313273885 0.0012916722793106516 0.0010331075721369922 -0.0018900511063138785 0.0010202677564952985
 -0.0011037363342417793 0.004769753663626978 -0.004511686461450454 0.0006545895255310396 -0.0403190846422802 -0.8762983398142288 -0.09765453735110793 0.03692394959921617
 0.0003343850857807967 -0.0009152020878831348 0.0037084722147967685 0.0012955205229831985 -0.08885589296067298 0.03713879822858886 -0.04309477489818519 -0.9080427442480898
21216970000.0 0.46162132758604185 -0.8068243239639793 -0.005064786439006518 0.01787297409428369 -0.0014699770247191435 0.0017186847805599073 0.00040954696212215506 -0.000412487866662119
 -0.005330648213947833 0.01850360965358695 0.47433932087493075 -0.8088883106440657 -0.0010154765270286971 -0.0012366045472952585 -0.0005097222550252214 0.0016342891448045574
 -0.002861995517992691 0.0024911940513654956 -0.004246712408384863 -0.001165729400240098 -0.07293540821654723 -0.8558268332841632 -0.0923336050400449 0.04129488843729261
 -0.0015623438076126598 -0.0020190322401998167 0.0021864136517703307 0.0013427157356219468 -0.10412777010980298 0.030787126384029587 -0.039637789437935535 -0.9069356495273254
21286960000.0 0.4719019871182737 -0.8171398364740964 -0.005703371423531709 0.018814380152897422 -0.0009913266536750653 0.001235529606850655 -0.0006622070976511649 0.0002149175430534878
 -0.006271879920901437 0.018136469790735646 0.4707336904422984 -0.8077125379878874 0.00035064907864770686 0.0011625936830953138 -0.001934756521377204 -0.0006793053700798514
 -0.002313458924241722 0.002774188111467086 0.0011544127581097732 0.0026174053385122293 -0.08784094176412036 -0.8322726598095925 -0.08425956127187709 0.03199694004810352
 -0.0006843829810947467 0.0044426551727664776 -0.004899125185341101 -0.002128248443638983 -0.09433042627955208 0.01471980303589903 -0.03433958820526737 -0.922617668272244
21356950000.0 0.4468155038866881 -0.827132798571536 -0.005726270180345006 0.018302771147076104 -0.001856097098378648 -0.001022233861655237 -0.0008710562605435779 -0.00022129617187867755
 -0.006666681686315471 0.018402755122971414 0.44274011995014223 -0.826143372888384 -0.0025454621326451987 0.00018543526433112179 -0.000722516342917361 -0.0004244896190282787
 -0.0018116904035694855 0.00026324761437969787 -0.0008145386543162489 0.00040798304105941346 -0.07511933022052839 -0.8570139600702859 -0.0736367313272113 0.03662859020998377
 0.002111676340020739 0.0010858553088484617 0.00010309262166461873 -0.0027773493748460103 -0.07320000966000996 0.03271895837817865 -0.026402798851235 -0.9186317258832938
21426940000.0 0.4657819236170553 -0.8238336486200218 -0.006789931760444425 0.018014851504589688 -0.0017207727221473566 -0.00025964646747297975 0.0006725198637981299 0.0012914335826855977
 -0.007187645682895166 0.018481854290893655 0.4605991917682336 -0.8082261395425799 -0.00017211128650924652 -0.00019702329224632436 -0.00037859830407528466 0.00016347728295979582
 -0.003410523704706333 0.00013919873742409468 0.0007194728153538561 -0.0014611085337999194 -0.09889635012112372 -0.8598461408442571 -0.06742722560903168 0.04582383927610331
 -0.0008362233353185337 0.0010995939114015678 -0.0005464841329896968 0.00017861749173492212 -0.08869169827044888 0.023411996071668443 -0.05615343618630964 -0.9202408267323626
21496930000.0 0.452406442934667 -0.8268541872621338 -0.006601958246370135 0.01822886068847245 -0.0016305154946135011 0.000309905062366328 -0.001264978054936144 0.000505158826047218
 -0.007816921356886782 0.017837972356059478 0.445849382506446 -0.8397079666782192 5.0608039011489955e-05 0.001147491663505229 -0.0006510219065032368 0.0030379099646366432
 -0.0026390156549090794 0.0033156657066579073 0.001140116978317063 0.0008041144652794906 -0.08539577737300877 -0.8650859876736199 -0.08121073015541236 0.02706796167789343
 -0.0009350763807942055 0.0020105982357439163 -4.998940071954595e-05 -0.0050799738131603045 -0.09200235119570582 0.03463383273463838 -0.019697710908053886 -0.914426984433457
21566920000.0 0.4581267056744875 -0.8246156654832258 -0.008610453895135584 0.01757954012443646 -0.000834167112427957 0.00014210284789054458 -0.002065121551036594 0.0025198535642222755
 -0.007909577360264208 0.01805275298372109 0.4628643769169234 -0.8243095578074924 -0.001990906238968222 -0.00016919682911470854 -0.0009774784181336624 0.000906150487974283
 -0.0025841191105033896 0.001496515643327082 -0.00046040668614670495 -0.0018249462875823002 -0.11261969791274663 -0.8539216448880232 -0.09080891940288323 0.021988955038742392
 -0.0018962540408420825 0.0030442680645646697 -0.0037611633172185857 0.00524264595106796 -0.0834631183353664 0.015554573504930183 -0.05629135489146516 -0.8976830907622179
21636910000.0 0.4288118718847006 -0.8304602988545434 -0.008923991168272756 0.017427080709005047 -0.0009827351622563418 0.0010122287399535917 0.0003022688067348092 -3.414370172721678e-05
 -0.007875660755945467 0.017580816681668405 0.4498651569678608 -0.8336907074499642 0.00018307729729709427 0.0005080940654316896 -0.0013078943771852166 0.001623365335030538
 -0.0030983152261632946 0.0016414567412040312 -9.559649925087823e-05 -0.0013935998967710714 -0.09464832298913552 -0.8667633417631108 -0.0972690964469237 0.035321753230978206
 0.0015199702632848772 0.00172761872180155 -0.00060933570918936 -0.0028420309283972837 -0.0896263494659806 0.03749794727251155 -0.06986327563864088 -0.9029211029163273
21706900000.0 0.4419164754790802 -0.8417236366246443 -0.00848000721704986 0.016943045433187837 -0.0005883798378234282 -0.000522160395342309 0.0002622557355075026 0.0013779597007055882
 -0.008718150112252852 0.01729964786741192 0.4500746478242779 -0.8271034193024002 0.001303464112237688 0.00042246052687513455 -0.003333975501451037 -0.00023001200205000245
 -0.0009753794127696266 0.0022291820113573488 -0.0030723962671385476 0.0004361671338448334 -0.10211827971194487 -0.8611704575815764 -0.07882924717019472 0.013483167916381952
 -0.0010553139242373574 -0.0011861287066180727 -0.0066542999654670264 0.0036741740902618268 -0.08705270170648574 0.01878663387916575 -0.07923834700957208 -0.914054473183536
21776890000.0 0.4414786213618983 -0.8265694490259854 -0.00904108253980911 0.017294510468720287 -0.0028846108850966038 0.0017395455177025066 -0.0005883372029577099 -0.00015491163120219664
 -0.009623849962141948 0.01740434201419634 0.45923464473388786 -0.8354687131788116 0.0013815392580607143 0.0014476242675225115 3.989110241700821e-05 0.0007684580040737438
 -0.000471860879517079 -0.0017546984502945207 0.0019814151116940085 -0.004615126279750406 -0.1158663590275863 -0.8574123785881109 -0.059024777509245674 0.03763001892172549
 -0.0028158425310302543 -0.002006163906930925 0.002549910651271201 0.004997855098732882 -0.07435611970336767 0.03399376747987478 -0.07652407507503639 -0.9183899433881627
21846880000.0 0.43065104188834347 -0.8313139298440712 -0.01006757086499822 0.017038939620003246 0.00024137637491638688 0.000989562936324934 -0.001967705374731825 -0.002801112308585555
 -0.009409243133713186 0.0171812793852424 0.43299325775814235 -0.8259168858145309 -0.0027616877579381967 0.0009621213856911808 -0.003439592915634105 0.0021148684942098868
 -0.0011362071960955543 -0.0007372020228661523 0.003541244582844289 -4.532941864230011e-05 -0.1018064952490821 -0.8797520009843371 -0.0886640695425682 0.053315405061299885
 0.0016334292289991435 -0.00021871299649845003 -0.0018360529549040065 -0.0009140662591825445 -0.08066925079099141 0.03911556925890841 -0.05895749887303088 -0.9008522666076059
21916870000.0 0.42808196296629863 -0.8189023610694671 -0.010002749546671953 0.01741099246878782 -2.852203738782174e-05 0.0010947252806311541 -0.0009882073734862682 -8.495381398012585e-05
 -0.009933142205283862 0.016632757365150245 0.42092722349547873 -0.8314839887170506 -0.002163962053476532 -0.0010384552345979441 -0.0022889390968044185 0.001413346491955214
 0.0019174879299527078 -0.0008458900471427971 -0.005372506897856916 0.0007682566594134562 -0.12536591019416343 -0.8646995221095792 -0.09801295982451223 0.036848849613191535
 -0.0015722764460872187 0.00011733976686097284 -0.00449664494447143 0.002721827811191044 -0.09278484851222617 0.06084445362135958 -0.07586698715186804 -0.8919630135001916
21986860000.0 0.43892018136556576 -0.8218614955685498 -0.010656038995417273 0.017002669312438663 -0.0004526328892310852 -0.0010878301722381716 -0.0016479971175596044 -0.00023315683943008722
 -0.01092696448344892 0.016997256569861532 0.41821789923247954 -0.8380836925010364 -0.0015733571282850033 -0.0005213832333364741 -0.0012077691942344504 0.0006891005513907057
 -0.001275517618379555 -0.0002112497746301026 -0.0037847035104306057 0.0006487873754964051 -0.13468826279623403 -0.8646522541568501 -0.10199290225972074 0.031419208100289905
 -0.0033768669456780386 0.000786113566307238 -0.0015079804221494535 0.00788380261488603 -0.11062863617653537 0.034352798206316384 -0.05604715951786784 -0.903166427489373
22056850000.0 0.4067356254606569 -0.8379675994654273 -0.01177696439894832 0.016228355688706578 0.0027793136938863592 0.0016291312354911789 -0.001652516121266251 -0.0018881991467956424
 -0.011517879544674375 0.016480194223960357 0.4318314907255059 -0.8324664033135588 0.0013303667730926283 0.0022061289125773 -0.0012336658191576223 0.004663371107999626
 -0.002421199545985725 -0.0016980578941512506 -0.0016569900610898056 0.0016983306406129525 -0.1202409347695861 -0.8729143338476465 -0.11174630682605079 0.037871650263712496
 0.0006779278784785202 0.00039158076453068175 -0.0013970397303927555 0.0035283036765881392 -0.09867104214201622 0.04696393456300141 -0.1163186662079416 -0.8882535747142238
22126840000.0 0.41965503491136985 -0.8274844806990885 -0.011552990096415753 0.015576608395328567 -0.0016813948654156078 -0.0010545366428951599 -0.0016549199716597409 0.0008192569495638804
 -0.011783244564924298 0.016052743695577437 0.4167124366548045 -0.8158901709808752 0.001749942501257685 -0.0017262386564457389 0.0034366697435688326 0.002288013838680392
 0.0008760510308735997 -0.0011113946966460142 -0.006289522695664966 -0.00266442103804832 -0.14541360049003713 -0.8439352310936705 -0.0946014680611433 0.06089220057656934
 0.0011420957352188171 0.002233330776273329 0.001766668511287655 -0.003507890676325661 -0.09417146056313241 0.0393927752806814 -0.09306745630395916 -0.914328882201973
22196830000.0 0.41665727301060484 -0.8506863217037431 -0.01275556548596791 0.016245924925258625 -0.00017103797248323147 0.0011286056730607577 3.1521728265511846e-05 0.0005414405184438581
 -0.01282454745622965 0.016088459168197428 0.41192814657536947 -0.8350688128260595 0.0007480636912163441 0.00039740692098618147 -0.0027924811630425745 0.001322707932125301
 -0.0009035781959968446 0.001377871085204668 -0.0006089781480812502 0.0008604568313072588 -0.139057116356783 -0.8606011027356403 -0.08742171412894048 0.03950824170064425
 -0.0008115895833721115 0.0012994001533868276 -0.003654995891866735 0.0004969812990217689 -0.10421870276009679 0.04295201920812241 -0.09910608086595145 -0.9125569591970317
22266820000.0 0.4183148803790733 -0.8367334878165238 -0.013098576500910104 0.01730008477893205 -0.000567263618953203 -0.0007622079462415962 -0.0015557978788699044 -0.0007521489804636402
 -0.01315013691611324 0.016128602959419362 0.41971251559042216 -0.8662480386282569 0.0011642310306986669 -0.0006453475171311869 -5.031784691867989e-05 0.00022581991318131628
 -0.0024270998889533743 0.0013649674709498316 -0.0009240673650525681 0.0006578833210950724 -0.14509625924809813 -0.8478154162139975 -0.10088344366036743 0.046189750556472044
 -0.0012227416022143423 -0.0006311526489272828 -0.0057885543869858015 -0.001596977256836293 -0.07751259940409717 0.054689457517714014 -0.07846780514965015 -0.8919155531970556
22336810000.0 0.4018495464175042 -0.8347195700122736 -0.013704836595658224 0.015956086249741826 -0.0008581812786904611 0.0010605526138821027 -0.00029808140176596724 -0.0007970852792987549
 -0.01293837362322321 0.01622846517777111 0.43757856352119406 -0.8382559531627668 -0.00025983993811726366 0.0020393755326507815 -9.694265141887551e-05 -0.0009259526691918294
 -0.0018203905812142678 0.00044276381741797726 -0.000721257060746482 -0.007333753180978077 -0.15766942107730134 -0.865580566527303 -0.11949992359556848 0.047059984788063176
 -0.0010509549479220802 -0.004290098194898893 0.003129338404029364 0.0009916279268570164 -0.1260993024668833 0.051867047536430996 -0.11106880402125005 -0.9004315230076831
22406800000.0 0.40613408734699663 -0.8561206883289103 -0.014093929343054685 0.01652019542721488 -0.00019102898229376663 0.000816693531821031 -0.000954305526960178 -0.0003297921496450166
 -0.01472497163721243 0.0162830753950301 0.4138238477712249 -0.8363289934497067 -0.001368009778511564 -0.0009037535256916096 -0.003725720601421485 0.002238576835467139
 -0.00016329817076029458 0.00047730285009456514 -0.0012439487556344304 0.0010442039797074615 -0.14646758972694401 -0.8380839935596266 -0.08884958044975358 0.044427404810156994
 -0.0004020270672264379 -7.269181494597412e-05 -0.002438062446388187 -0.0021269023912765758 -0.09511266487958157 0.04370249812173924 -0.08962735904231868 -0.9117473561556483
22476790000.0 0.4017131576280619 -0.8494535254331462 -0.014751989536170358 0.016307344558573886 -0.00126299628449735 7.275755757457136e-05 -0.000769249273654642 -0.0007759727405919768
 -0.014483005875439332 0.01634572782876141 0.4157365782622506 -0.8609677934070152 -0.00019787342588596868 0.0008709501729528985 -0.002351230686128394 0.0005922289294758637
 -0.001609617154931035 0.0015465523355433892 0.0006666537589943685 -0.002796760567223805 -0.1572584418305477 -0.8347180802817707 -0.08400869451706514 0.037413973774596626
 -0.003928196136584516 0.0012505507517210233 -0.0022170878033280174 5.4381924066738045e-05 -0.09862879687555538 0.03656630952760154 -0.10117807418895432 -0.8880409622281149
22546780000.0 0.39773458707415615 -0.8342332127127104 -0.015678676212206647 0.015435711371470776 -0.0010494797871031351 0.0029403618142679945 -0.0014027284918544836 0.001377403917387074
 -0.01529442287958616 0.015202711550292238 0.42148847255050415 -0.8595583319728713 -0.0003757698990319254 0.00017637230035070348 -0.001229035989439814 -0.0007967309798965622
 -0.0009945849167629578 -0.0021412209063595214 0.0014329707849524247 0.0022317378027176234 -0.16378537107802166 -0.8555018786455021 -0.10460033190877416 0.04396176779344675
 -0.003992876579662212 0.0002236349284751434 -0.005115754125003903 -0.002616140065856468 -0.10225530314912369 0.04571766390921185 -0.11004882025596505 -0.9038782183829259
22616770000.0 0.3947055126352693 -0.8583948106889793 -0.016061902966164495 0.015676234440769696 -0.002260231591204102 0.002454559125357748 -0.0006811904588693618 -0.00040310529137625766
 -0.016235542024713712 0.015580262088918797 0.40406509508890565 -0.8388878479109182 -0.00043977620889199784 -0.0005354628153340294 -0.00048502731694186887 0.0007555686038410931
 -0.0003174460447399809 0.00018891156441874565 0.002061047598058708 -0.00475193302569508 -0.1662031518824378 -0.8413986859245279 -0.10685730037666316 0.051369762803082135
 -0.0008011559125323008 -0.0017959910904099855 -0.0001823982491498412 0.007230850341537475 -0.09596870739553197 0.05259185072469671 -0.12047617239905871 -0.9090184626634729
22686760000.0 0.39224629209675343 -0.8436939903552751 -0.01663117814927302 0.015659829403910742 -0.0009805849177131668 0.0014350559465903794 -0.0020693361207519494 -0.00017761934268041256
 -0.016389234938691415 0.015857553948333252 0.42432355545486944 -0.8451240815396909 -0.0025809605882215515 -7.728643368733191e-05 -0.0028544125504870047 -0.0005570599004241099
 -0.002024668241410464 0.0011491856146445623 -0.002172344415184371 -0.003031816041775325 -0.1619890993943605 -0.839004898638587 -0.1030785829409977 0.0658652438924582
 -0.0014302477556203212 -0.00022990794202813104 -8.258455436904232e-05 -0.00551187370417918 -0.115805047976847 0.05241237243080445 -0.14524169312214696 -0.881027611944455
22756750000.0 0.37913711562995206 -0.8509179221841764 -0.017409569354810493 0.015627021780484942 -0.0004219864858547956 0.0018132498629012971 -0.0011202495597921712 0.002891648094015702
 -0.01674976326649631 0.015933089319650654 0.41524508524652165 -0.8592837959321794 0.0011857988202169654 -0.0021336600974714284 5.6773206688036484e-05 -0.0002562577661415999
 -0.0025582322423925957 -0.0004306353431184372 -0.0045016485744156344 0.0020831912896992024 -0.1916107947554207 -0.875377905203479 -0.10612777040199146 0.0527014464350214
 -0.0008020929982328818 -0.0003247686757465866 0.004745837856140413 -0.0049462243738310025 -0.10440502298332847 0.04837972420053529 -0.11702828293362026 -0.8910041043582589
22826740000.0 0.3909130002468643 -0.8475251222665446 -0.01738421787691938 0.014923513022365038 -0.001732477581143375 -0.0013825583301897075 0.0001783764873143454 -0.0013749428408262967
 -0.017676748961205323 0.015110607218563775 0.396249472221395 -0.8380409232280046 -0.001191007182812728 0.001172018689468373 -0.0011170202264338949 -0.0005766235455557554
 -0.0011120982765048383 0.00226432042713191 -0.002778144944800437 1.9409972700400504e-05 -0.18071094774647872 -0.8261546599938757 -0.09957273510762406 0.059496083575251796
 0.003553678626308878 0.0012374154267778758 -0.0024971023807275647 -6.886077466884535e-06 -0.09944412968521144 0.0504129194495057 -0.16415258440739536 -0.9186403467694821
22896730000.0 0.3895716900350508 -0.8497703765462526 -0.01824219820842515 0.015048138091298237 -0.0003583750389124449 0.002115126984195096 -0.001864280743797533 -0.00042093051855445537
 -0.01841932211984731 0.015062034050341311 0.3963402789683612 -0.8583167675049499 0.0014879784418675595 0.0020788937214443293 -0.0008924842872406222 0.0023651739338159186
 -0.0010877277038174528 -0.0007775942611444963 -0.002537284865526097 -0.002813295950307944 -0.1953741313750133 -0.8526447776330259 -0.10362744044982262 0.050243927386224886
 0.001964625794762944 0.005008586797671601 0.0028097850338858112 -0.0012313405914980622 -0.10612687505301252 0.04424156484622325 -0.13235718390673148 -0.88337286307159
22966720000.0 0.38531638213388575 -0.8525062802470526 -0.01911367471641462 0.014487310666603094 -0.0019120228353888915 0.001775374979068128 -0.0012939494412130318 0.0013635525028819228
 -0.01934210377185861 0.015561402272823883 0.38387887664192183 -0.8532474308041041 0.00019860834290351054 0.0012856849678890155 -0.00027922528052857733 -0.0006265527232490018
 -0.002019424580752435 0.0014845818283246942 0.0008548740993007402 0.0009758537720463416 -0.19149276291563253 -0.8364165915621917 -0.08712670399843707 0.04119800016811529
 0.0015593964162189966 -0.0012371659481579002 0.0012436871494079173 0.0060227667316434235 -0.1101395591819353 0.0524100483366545 -0.15223577753997425 -0.903020954824767
23036710000.0 0.3819430456403298 -0.8401869114192098 -0.019283734166554184 0.01525628079441949 -2.0807987504512343e-06 0.0007067439797028629 -0.003049844273141263 -0.0005253689426390304
 -0.01931662140263174 0.014571981973907043 0.38454305544177364 -0.8647630674395171 -0.001005190176740785 -7.482025584889867e-05 0.000735234420854118 0.0014871018733377138
 -0.0006463338713081205 0.004172630180152087 -0.0014990330175428787 -0.0027093768354647966 -0.22458547133786708 -0.8171681866890207 -0.1001300032190375 0.03387480155234694
 0.0014239070829042588 -0.0019516234802444475 0.0025775671021085757 0.0033409471270517037 -0.1083656756844767 0.0685570382333247 -0.14502328804365408 -0.8812523489434569
23106700000.0 0.39728490646186876 -0.8724658223334297 -0.019964942954456572 0.014083717995281839 -0.0004844712130782184 -0.00302844208537286 -0.0013470556150301323 3.408347005146409e-05
 -0.021352248354504565 0.014423700879284088 0.3972194544119064 -0.8577670067155552 -0.0033100541508096857 -0.001334466601036762 -0.0029613229975381642 0.0017571796236475973
 2.915279308945981e-05 -5.16423616503712e-05 0.0029530524746510405 -0.0015535694602526818 -0.1926814943602881 -0.8115373677927625 -0.1000511525770303 0.05894874637766159
 0.0005019243168182248 0.0029912059529197442 -3.8274733986401944e-05 0.0020129222678268665 -0.10613288932308405 0.060692386699026074 -0.17378857558993022 -0.8726513729178995
23176690000.0 0.3684938612365838 -0.8513270806101458 -0.021445925893686907 0.014479242029131855 -0.002945991267313481 0.0005870738959323315 -8.035932036058209e-05 0.00020922093577236217
 -0.02083277470881903 0.014322038396134057 0.3836245897044985 -0.8558420366822119 -0.0012206406731560978 -0.00028740698580307674 -0.0024888019349429942 0.0010268622058184902
 -0.001118888558709131 -0.0001455168329943042 0.0014449445859824536 -0.0019696600122679456 -0.22442794602230712 -0.8414937249473449 -0.12507258235733879 0.07867737874881965
 -0.0024978604712733816 0.0010521642317905607 0.004395402504511897 -0.001882412834113276 -0.11382395958128463 0.05754824434602378 -0.18898364416483668 -0.9023711227872018
23246680000.0 0.3617646796574698 -0.8504885578753029 -0.020907572248230494 0.01372060056051353 0.0017006089699257677 -0.002067161555037096 -0.002036985811994547 0.00027309832609365354
 -0.02061058926373484 0.014343733038830788 0.37574682419295813 -0.8477706988256726 -0.0005593202034343548 0.0007801450127308449 -0.0001374474590242265 -0.0017072973549132262
 -0.0033984329509158437 -0.0018831463799441244 0.00433910298839243 0.0021743823727384316 -0.21342190562684438 -0.8120606252366394 -0.09203337980313422 0.04544856059820591
 0.0006435578850063793 -0.003375453738225962 0.0012946770341650097 -0.0037379327863673816 -0.1126177125851729 0.05359337887187419 -0.18377913341057334 -0.8952783281406663
23316670000.0 0.36772094603183886 -0.855392267661541 -0.022129739014745655 0.014743695069153814 -0.0010687844039829742 -6.128884225222968e-05 -0.0013030346388559126 -0.0005288267045461771
 -0.021727997133904733 0.014722466507411349 0.3636542155745623 -0.8721224377703124 0.0003307337745787786 -0.0014228320295786327 -0.001615626854441737 0.0014248879520776323
 -0.0011865343858171423 -0.0005030821627402517 0.0034388709116540323 0.00040530510782834094 -0.2209967914036399 -0.8225886199001852 -0.11960696920459382 0.04484345784865878
 0.0005749937175415436 0.0018820565923601932 0.00031634491592192596 -0.00265230637747789 -0.10067367360515328 0.05309560011543015 -0.183216971805265 -0.8732103218738141
23386660000.0 0.3658198331026688 -0.847017716386757 -0.0234047619160164 0.014037215322623711 0.0018695177182460223 -8.743164517431638e-05 -0.0013207542115049866 0.0031738605845009985
 -0.02279971872327672 0.013433169684366258 0.3884597110996946 -0.8575005321630539 -4.038987789778083e-05 0.0005212216764883567 -0.0008819385890991504 0.0014307156324449759
 -0.0008670521453010761 0.0016670050392852934 0.0018498748160691513 -0.003086084151508 -0.23089646656737364 -0.8115466588139385 -0.11932691220912704 0.052078339487095865
 -0.0020875252204365286 -0.0008106031800448193 -0.007107168533885462 0.0036527296126067053 -0.09687929617168897 0.06188187496226169 -0.18153582435206722 -0.8665524922621503
23456650000.0 0.35439250016252194 -0.8636460626919833 -0.023383253945814447 0.014107239196063878 0.00027594750177736165 0.0009114961477687979 0.0017699835934258576 0.0002434526463310255
 -0.02327574642767635 0.014131407574731011 0.35562126257190524 -0.8601052198409804 -0.0014393704447199487 -0.00016240270836396787 0.0006092757338894997 0.002026636743432685
 -0.002506395841304188 0.0022935279312738767 -0.003822624265540399 -0.0026082529853265913 -0.22656886408145355 -0.8135832666413793 -0.10008984241178778 0.05947011892315328
 -0.0021971993938214025 -0.002411450340622911 0.003520572309117548 -0.0012843709545643997 -0.11644617695362598 0.0801225407935961 -0.1861806883203817 -0.9127911890680247
23526640000.0 0.3552596563706968 -0.8489995809234279 -0.02423340373472677 0.01444961964778535 -0.0006103730564241456 -0.0011708238584707113 -0.001589830435985532 -0.0011540580207699384
 -0.02271874570265865 0.013388827325241291 0.3855655259291521 -0.8630665664422305 -0.0022422810283470544 0.0004040237724073371 -0.00018721724802490342 0.0005577793171729507
 -0.0017159700328557932 -0.0007227339289881728 -0.004831407456693721 0.001433650823030317 -0.21098441125310438 -0.8457657554948996 -0.11024008172606908 0.05761448379353528
 -0.001743337913694528 -0.00042723710608996756 -0.003114362523392612 0.002862729932732397 -0.11033957736109798 0.06878218010908162 -0.18246565115547764 -0.863158405439243
23596630000.0 0.3656478964732717 -0.8578854659610029 -0.02460658862910146 0.013826367442026215 0.0009944513554912817 0.0004159092963548545 -0.000313979434991181 -0.0002686816567704665
 -0.025233686690500547 0.013676833269080821 0.36995327433805114 -0.867034673340524 -0.0006613504861848443 -0.0008177527921071463 -0.0035973636173130034 0.001219768156088119
 -0.0008503607983397067 0.00046458332574461777 -0.00031160304170509053 0.0015165468654729417 -0.24398509985505268 -0.807577644099528 -0.12435871646345012 0.06523248391680696
 -0.0023791409487337162 9.627986072636586e-05 -0.006617671269404053 -0.0036593016747487033 -0.1128045744357963 0.08750051248324776 -0.15388578984960527 -0.8890053081440331
23666620000.0 0.3453860572008992 -0.8617396088892847 -0.025450566975517275 0.014281783236554784 -0.0009043893654237039 0.0006822910998998879 0.000720076456178279 -0.000745827441204295
 -0.024650065410330217 0.013942587834850381 0.3552745417955897 -0.8885775897235076 0.002844760975863606 -0.0007445172539211814 -0.001333259762285761 -0.0013180953201234451
 -0.0016851592415243568 0.0028771720119422756 0.0001338733263398103 -0.00030925578335456967 -0.2549589285798584 -0.8372244922227915 -0.12467114352206801 0.0732076099482038
 0.002206534968995766 0.003213665872508059 0.0063370464796464535 -0.0013684925859480128 -0.10110377350315776 0.06643449160539147 -0.19328734430753305 -0.8547407732379364
23736610000.0 0.35275440280697046 -0.8707542351395796 -0.026120224216593727 0.01366844477795 -0.0010163331536469703 0.0012839128921502182 -0.00013563524685807497 0.000894716942767513
 -0.026264115997693613 0.014289110364048367 0.3575184597836142 -0.8564828450438043 -0.002692085065057077 0.0002439425106466853 -0.0008950035063134715 0.0014444383976171973
 -0.0009143611614292874 -0.0030410896215468104 9.04139763262219e-05 -0.004767343115920959 -0.22502518404536936 -0.8099597005127993 -0.10912576913520447 0.04875535611094329
 -0.0020734561862263434 0.0028779129765243994 0.0006469447002010172 -0.001337702116137682 -0.12818633578711666 0.05059269133672205 -0.2056928249207484 -0.8792810862768938
23806600000.0 0.348974452109897 -0.8765809031830057 -0.02596547572191117 0.014623868446375955 0.0012084003769124569 -0.0014720754361609485 -0.0006052861749412066 0.0007835331046182328
 -0.027082148498234447 0.013834130520449614 0.3426985862687063 -0.8765165169085734 -0.0035480495557805502 0.0007080429804452596 0.0013011430811397675 -0.003412783812406829
 -0.0002452027959815963 0.0002811763313983195 -0.001571527002509277 0.003831683524076103 -0.25555023504055946 -0.8070917175103764 -0.100283412696635 0.06260563778640098
 -0.0006082560149082945 -0.00206069983327319 -0.0037942232033248047 0.0030536114556332554 -0.12076522273207971 0.04887790653786866 -0.193950062950869 -0.8892146805949016
23876590000.0 0.3333501629217419 -0.8543023471174551 -0.026724037822221332 0.01433386764339126 0.0011826507175346367 0.0008750825954232153 -0.0007246711724300144 0.0017788134853875678
 -0.02632276312898467 0.013320293161993523 0.34066007479806515 -0.8615881111069713 -0.0010932200661517533 -0.00016877639727433134 0.001658492082834072 0.0019225236471964965
 -0.0005758358392244491 -0.0009479853329524861 0.0002646142427444461 0.001809034809622117 -0.23472984532999194 -0.8063482753287119 -0.1112310673143451 0.0722779166888424
 -0.0004901480648713 -0.003707098916266438 -0.0038049199954344154 0.007145149546501153 -0.09886144705075675 0.054912630517989884 -0.2039630908685161 -0.8947034121989673
23946580000.0 0.33666128282579993 -0.8559465103575249 -0.02754017377565021 0.013075857900088613 -0.0013551020276964607 5.336527912663239e-05 0.0008390161423393789 -9.717781196666187e-05
 -0.027533267062942346 0.013362548167587925 0.3311829782932794 -0.8615797637200291 0.00018764966526216932 0.0028173044711206187 -0.0003731259530499987 0.0027115343906177775
 0.0008128049838609249 0.0018551745084546079 -0.003574979122993673 -0.0023688570426812746 -0.274622029322315 -0.8222177959461331 -0.11997782231250383 0.05017526255397907
 -0.0019975937317910407 0.0004629879755890943 3.3840199141044185e-05 0.004171201867997679 -0.11070451015482927 0.06768522726926547 -0.20741757949874995 -0.8862843009590848
24016570000.0 0.3383742621015821 -0.8576270185760717 -0.028269188797287372 0.012710192899873022 0.0015837318441482766 -0.0008076432769566083 -0.0006374975670200689 -0.0007175438130642422
 -0.029053925091727256 0.013230900535131948 0.34896879684082466 -0.8568745964565957 -0.0026065284553085334 0.0010536827111116114 0.001432702629446785 0.002098389024316061
 0.002649125453093374 0.0012888989359949316 -0.0015776132287618476 4.8892215079973605e-05 -0.24684462365987256 -0.791485519493446 -0.1155249136973026 0.06502376903966196
 -0.0002538188850757892 0.00460013857540572 -0.0029461910375817445 0.003670681086226009 -0.12710972685831035 0.06830080710556953 -0.24980676356100284 -0.879411257499192
24086560000.0 0.3225398795169552 -0.8592794554459 -0.029557476190097336 0.01303208694261488 -0.0021283766958094335 0.00259264085996253 0.0005953786041610496 0.000925154375980986
 -0.029371066227147788 0.013078561106540513 0.3355138739734979 -0.8746603652064491 -0.000999584383324497 -0.00031687371962030796 -0.0013042464418849915 0.0026844630997206504
 0.0002629291952748107 0.001355533121685185 -0.006399859876239051 8.012561090705014e-05 -0.2589803801624279 -0.8126531933365196 -0.11040793165224294 0.06315549419055393
 -0.0006108857485274996 0.0010805816358041458 -0.0012784879297361462 0.002831747731739149 -0.11260688392647462 0.06567671498255083 -0.2177790745691626 -0.8595063723397297
24156550000.0 0.331686455107481 -0.865799471393414 -0.030191738128763544 0.013885498855355113 -0.0006242978840037723 0.00028702746244679025 0.000211972569524439 -0.0002704369008140793
 -0.030588694398064446 0.013543803768076318 0.31684442315237465 -0.87390936594608 -0.0007284048281190591 0.00258279772271679 -3.4216118946655e-05 0.0006017263116264726
 -0.0027192766825051774 -0.004881605350321046 -0.0006133545235442881 -0.004921789993192412 -0.2753878030621949 -0.7985028017501176 -0.14007673486706607 0.07088278807532143
 -0.0027277950657325213 -0.00010833883256123495 0.0014797969734410541 -0.00014196382206760238 -0.12675690839507886 0.03812464964154792 -0.22841362950583743 -0.8856838063989131
24226540000.0 0.31187860487263397 -0.8631546910695613 -0.03228294862449689 0.01381528556598539 0.00012569066110005846 0.001840690813324668 0.00038699059295753673 0.0014829281616636505
 -0.030090662231425553 0.013585316928231297 0.3306635004831196 -0.8880465012985699 -9.46274040413076e-05 0.0002944049913561269 0.0005381936152384903 -0.00032687250052066124
 -0.0007412405996538309 -0.0030056050856669698 0.0034088203495934223 0.002026810774113413 -0.2690186373580366 -0.8120012716792661 -0.11467346771780465 0.066787645605229
 -0.003359442313097535 -0.0014337136721276152 0.005662533717828296 -0.002793702244350306 -0.12664782392727175 0.08198264275063234 -0.22057580639371807 -0.8568010689318566
24296530000.0 0.32383962082763734 -0.857098121688711 -0.03190307477025274 0.013179082103160331 -0.00028016200568141235 0.001984866473067596 -0.0010999284212329758 0.0009692841254177484
 -0.031093796089591345 0.013201287490121451 0.3225697199533072 -0.8833190780101318 -0.0013416383903485456 -0.0011001179228726677 -0.0006186392391379813 -0.0022269069849260204
 -0.0013703924374494703 0.00015072383889883813 0.0014394965816932558 -0.00013035253273662784 -0.28252831866657957 -0.7934536078320328 -0.13215176535539438 0.0714732712059652
 0.0002736171019457808 0.0012865925944108157 0.004480867008324784 0.0038380707411693324 -0.10630109428386673 0.07365221566359513 -0.23156608403395068 -0.831724308833267
24366520000.0 0.32596517586863394 -0.864449154311304 -0.032795081139329 0.012209218459888899 -0.0015922129169693676 -0.00036013494206100523 0.0008048706985621024 3.171442856063705e-05
 -0.03204858542075664 0.012531191405579177 0.3418665943985915 -0.8708670728706865 -0.0001629473137799463 0.0010663865320007335 -0.0014631673399266546 -0.002118631392192864
 0.0019183760125607793 0.002936138040581462 0.0015804765977953288 -0.0018713946392231733 -0.29156157999866644 -0.8021782256958947 -0.1254210524554586 0.06384126166267781
 -0.0038015496876203057 -0.0013516676544027128 0.0006250934049349121 0.002860793111451197 -0.1262731726452681 0.08280785864719763 -0.26921251557187814 -0.844673928479853
24436510000.0 0.32356032906625837 -0.8782190865872579 -0.0328723934005872 0.01247411912160226 -0.0009328467720469708 0.0007165515414784135 0.0005397869805151517 0.0007802105081315156
 -0.034009706911693735 0.012788895997086375 0.31294761413158584 -0.8627792493794605 -0.001422297415208799 0.0003903001417484377 -0.0001553601870280951 0.0011567754627460351
 -0.0008560625440889567 -0.001740308498517188 -0.0005998069311816369 -0.001538980756808664 -0.29180295921482946 -0.7868573981381408 -0.1299380467206974 0.07636106957610353
 -0.002405869221155005 0.0009719121516180102 -0.005502167284540805 -3.278534925541532e-05 -0.12962618188366606 0.07248749388590348 -0.26836914101658227 -0.8669552603515962
24506500000.0 0.328535352765967 -0.8830067931969283 -0.03396258010745023 0.012349353617007638 -0.002291182650322841 0.00011811105508141371 -0.00018665174057724192 -0.0019313962144562329
 -0.03446569772413358 0.01237988284634576 0.3209446305466268 -0.8628018956329614 -0.0009006012619226407 -0.0013803080474263346 -0.003244145814039753 -0.0009905905832607324
 0.001405918026355531 0.0004607054800495463 -0.0027849615212487285 -0.005836328878495 -0.27044226942132943 -0.786397706073122 -0.14090981344668402 0.06074746292569921
 5.636393306479611e-05 0.0025321587862372126 -0.0018534176560092996 0.00019404330796343017 -0.11427726818324316 0.07537544288210629 -0.25136134048946057 -0.855447007006085
24576490000.0 0.3062046226076327 -0.8767552438482993 -0.03414045323806533 0.012993907831604439 -0.0004965047386645113 -0.0008519549177115461 -0.00030239277599030393 0.0022828019288701736
 -0.03473867470180155 0.013029876395303622 0.31842377769943236 -0.8654425606788023 0.00017572511012647673 0.0033129618213774085 0.0007137241088033625 0.0019008183962133972
 -0.001549550656256013 5.816270990907775e-05 -0.0038340393254473262 0.0014286397476102506 -0.28976942557181257 -0.7743271903458858 -0.1317644476109783 0.058324496536138595
 0.0005159125473567987 -0.0006203042009823169 0.0006237021382763595 0.007417130989677189 -0.11785779083670078 0.06837969613117274 -0.2523790705746955 -0.866272930571381
24646480000.0 0.2963568891292401 -0.8820384399943517 -0.035070844016730024 0.013292684193853453 -0.0006921245900953705 0.0015737476215229552 0.0009022254040994302 -0.0002701554542996281
 -0.03544177848340929 0.013202089020590469 0.3030968077418043 -0.8689400512381366 0.00019169875294890753 0.0008161577571752271 0.0008067548781765426 0.0021400525083389433
 8.380725941872117e-05 0.0004779546054904868 -0.0015673581441468794 -0.0026521063101149107 -0.2881496432907078 -0.7969779897013081 -0.11009479812497314 0.06501421576081057
 0.0008972659576154248 0.0008618418575261599 -0.005478795624529231 -0.00028392902830742296 -0.12641950490801712 0.07025499257222056 -0.247032176892064 -0.8662032360487542
24716470000.0 0.3055131160488615 -0.8734605633041732 -0.03603176974947143 0.012352593947972335 -0.00012635908639314092 0.00040826583733127614 -0.0027241360680707975 0.00016742660537897702
 -0.036525613947510756 0.013860993713643808 0.2967494141183296 -0.8735408685466381 -0.002175846130941669 0.0011502868431104046 -0.001224909709557201 0.00040734975913883783
 -0.0008794312429390162 -0.0011295002169759182 -0.004394723403398665 -3.260678561704401e-05 -0.2924632661046926 -0.7917689235281413 -0.12754867875621836 0.06914926254646127
 -0.0002567670149838188 0.0005660108578108786 -0.0008004344131190685 0.0009254068438569856 -0.12928749861449101 0.1072565259244787 -0.2638546571085905 -0.8538536062569515
24786460000.0 0.30134529552975947 -0.8699283449796966 -0.03728112835297762 0.012673527047293314 -0.0014264113269790808 -0.00027689425127766417 0.00010304327549106365 0.001436409910991309
 -0.03649802280603743 0.013495235487553804 0.3262525389363023 -0.8808892582894022 0.0014991580350782702 0.0018996541995172642 0.0008063444110395119 -0.000853207761499493
 0.00020750056714583938 0.00048469665068626275 0.0007554836628468299 0.0036487949569535298 -0.2964171186539091 -0.7804097357891607 -0.11542691997997043 0.0780441748605114
 -0.0012196762118277763 0.0012581994978457436 -0.00020150844951019064 -0.0010532479375244036 -0.12528426722361938 0.06839232295870762 -0.2936419189825448 -0.8328067040292637
24856450000.0 0.29828442484998596 -0.8793558817122177 -0.03790162167502813 0.01244038505345085 -0.00018482179596085135 0.001840745822875481 -0.000662989139074757 -0.00027217799895139184
 -0.038325788040341334 0.01369636214524453 0.3009463636774386 -0.8706821191271018 0.00041085619129788695 0.0005302836999047852 0.0013466900097508084 0.0023286584081686898
 0.0007541236093486738 0.0016307796693502802 -3.8282893586795627e-05 -0.00285643929635826 -0.3109105620017259 -0.7764945609991303 -0.1415612179319771 0.07422551508222819
 -0.0008716460960787861 -0.0017698044263326274 -0.0028899831154498325 -0.0004417701457482181 -0.12352303338881829 0.07426209208672759 -0.2824751819604197 -0.8518114491816752
24926440000.0 0.2812721948839664 -0.868046777097426 -0.03815341840622514 0.01229719139351101 -0.002443028726576187 -0.001255470761058847 -0.0001847048289907505 -0.0006759040334560372
 -0.038547825229642 0.013561750913361172 0.30784434593190935 -0.8698273498325721 -0.0001656559194905816 -0.0009587142695667367 -0.0016987623383909265 0.0016926124225176758
 2.0520483505288575e-05 0.004454699284962371 -0.000464640863829896 0.0007664009763949141 -0.3101468065606533 -0.8055889352807308 -0.12263322668716888 0.08002139038039216
 -0.0015830160147908528 0.0019030793427816045 0.0003925087128770695 0.0019945521807677906 -0.12871088742863457 0.07458468274192212 -0.28889985397252904 -0.8412529285628728
24996430000.0 0.2785078873297488 -0.8874586718817988 -0.039758087026865827 0.01286634488582081 -0.0023629626951906257 0.0006252085775128354 -0.001256850891479887 -0.0001653849890075935
 -0.03887030194560606 0.014128659184980463 0.312998159432899 -0.8872097258320233 0.0013833100666081567 7.833066071146329e-06 -0.002220977410533078 0.0013713662673246613
 0.0011602009755912553 0.0026274941896460876 -0.0014777449303104474 0.00588897795297974 -0.3286497504632168 -0.7823504619240967 -0.1306432936196262 0.08796980976082577
 0.00013687287769303187 0.00020753077054880108 0.0006076540737717291 -0.0010832316857908536 -0.13141008371136312 0.07456700399253778 -0.27418394617286157 -0.8344309255539302
25066420000.0 0.2968519386027119 -0.8864009768843528 -0.04064940298486039 0.012778420047837967 0.001438754712905456 0.0019169248367849247 -0.0006141877226230611 0.0012907717171444669
 -0.0402500352326113 0.013735867938432598 0.28181707442365916 -0.8924781469416477 -0.0004762943474658078 0.0007540553015852149 -0.0013464064870453722 -0.0005901232643081978
 -0.0003020728504168532 0.00028350658764000013 0.0024620779016845938 -0.0014592722762338155 -0.32580804775311334 -0.7767169128341013 -0.1264163362045901 0.08351585789113182
 -0.002022880278547453 0.0005034757742802407 0.004286397161740186 0.00018613581863662873 -0.12382066673770173 0.09593720560150663 -0.2726124202237392 -0.8386412113002031
25136410000.0 0.2760401673036527 -0.8880187452894666 -0.04058481972816958 0.013243215001934414 -0.0006991634675638588 -0.00026010546523771874 -0.0006840518915593736 -0.0021376585140875475
 -0.041011487318876064 0.012794781479832425 0.2840718564401396 -0.8838092318472157 -0.0011402977407767682 -0.0008394288773232133 -0.0010100541397964694 -0.0006023998660707891
 0.00015213233902620072 -0.0003902371057793729 -0.0010314899768210548 -8.90102397283131e-05 -0.31926005646171524 -0.786691706491567 -0.1277655774112842 0.08151106371607547
 -0.005752683020561734 0.0014868238026826727 -0.0028278690076592628 0.0017427660811778804 -0.12772237229357275 0.08824834365460404 -0.2888984476796275 -0.8498976144668834
25206400000.0 0.28326371234684433 -0.8896921968280145 -0.041946548763550556 0.012889699191249026 0.0010554952806208883 4.064137270443863e-05 0.0003506038213747035 -0.0003674597179704846
 -0.04240566409636199 0.013213983198040635 0.2834433158974703 -0.8904536068712545 -0.0022100194389540924 0.0002387659017671366 -0.0017430485397918686 -0.0009525560975087847
 0.0010808607940746991 -0.0027497147160630243 -0.0018232763507964338 0.003146189946098085 -0.312862367047633 -0.7804611192882249 -0.11785385255785026 0.08777677908506559
 -0.0038423059551853625 -0.0022811403652749475 0.001382504789281178 -1.104353385884535e-05 -0.1331215546583249 0.0764954307993829 -0.2756712120137576 -0.8581881493753909
25276390000.0 0.2687430747348434 -0.8988356970903094 -0.04216983083583908 0.013514250159403853 -0.00045401553039071843 -7.045852512064215e-06 -0.0002627719265307081 -0.000585434473497684
 -0.042599616331516335 0.014601308362212122 0.2849233907247113 -0.8889284619164661 0.0002175432632006546 -0.00044739307769146066 -0.0020232072999271395 -0.0003249237181967654
 0.00039393972674293417 -0.0012140726801109078 -0.00225469322899539 0.0004443028769695841 -0.31644038245015493 -0.7642300518839458 -0.13535148112736944 0.07902775206873225
 0.002970069223618608 0.0006543571954230724 -0.00043152936632826394 -0.00119044403825031 -0.12450688231427959 0.08047377027013704 -0.30022774354136306 -0.8269745446445559
25346380000.0 0.2894024503545527 -0.8705825621105288 -0.043324335192748656 0.013809397794874868 0.0001420222498126318 0.0003747308289070288 -0.0011708806736106191 0.00031376500492462085
 -0.0429192181418921 0.012832058868748357 0.2896219221825041 -0.8821825378258282 -0.0003817710198967633 -0.0006119686050706773 -0.002665337371456675 0.00016581610383188666
 0.0011590820642384217 0.001142464031319689 0.00017481025961949958 0.002136206451120177 -0.3558540216910121 -0.7608177716219929 -0.1101101888054208 0.075381882444132
 -0.0013814322526036205 0.0009737063035195735 0.003995406425715485 -0.004069865067087725 -0.12758707664417565 0.08956295308218444 -0.3144473676374929 -0.824120846323271
25416370000.0 0.2690438641954185 -0.8854365095170627 -0.04377850297656326 0.01272115089608182 -0.0005875690712532605 0.001056490574925744 0.0006417242618338413 0.0011604237112431924
 -0.0425995986191901 0.013633861973492922 0.28287660952336746 -0.8786779540399372 -0.0005828030819834085 0.00020032937164214014 -0.00021180286693923378 0.0007200294871152695
 0.00034447988520458874 0.0012912679288130176 -0.0009880726513765126 0.0015248639751713469 -0.33497807391813816 -0.7699411048168383 -0.14554970421925004 0.08017317044669155
 -0.002167640672635672 -0.001648497373615839 0.0007570811514528027 -0.002502557851178657 -0.13027175096438148 0.08801007036548038 -0.31308439255336623 -0.8531755518658827
25486360000.0 0.26256199858874657 -0.8907939296747912 -0.04455375560783219 0.012883539617220347 0.00042591681988520056 0.0001820158953177989 -0.001516779666645649 0.0003518049758968575
 -0.04507909713161574 0.014174901870018701 0.26816654662063655 -0.8839349924439632 -0.0020231605338307786 -0.0025293586320852923 -0.0005549310921296217 0.00036117013476752544
 -0.0005486837867112474 0.0004499807242690734 0.00011898651682575277 0.0011598858929673186 -0.34377399728808206 -0.7653319200650712 -0.1356832950821254 0.07445350174932455
 -0.0013193414529401929 0.00024375148639149338 0.0020888010799711746 -0.006305900186833997 -0.15139218167001425 0.07849235630257444 -0.32209600739782945 -0.8530732084616691
25556350000.0 0.26748947259932393 -0.8785831047784909 -0.04688908712061619 0.013097843723401923 -0.0008850058756935564 -0.0011528662527490194 -0.0005984624217479633 0.0012483716467419678
 -0.04662950154489858 0.013754500508944462 0.27689606297653485 -0.8896939562143031 -0.0009277670140619914 -0.00033255409968736377 -0.00239132566281705 -0.0008678860249944605
 -0.00026411261544033866 -0.0011082340380636911 0.0012729698488971029 0.0030858786506048055 -0.34996106052396286 -0.7713954061782953 -0.14106230499202102 0.09046585248469208
 0.002149470065387107 0.0007518131770488147 0.003441659691564133 0.0008333499994743538 -0.14148250804029538 0.07825822751352449 -0.3212851728903224 -0.8296279563490337
25626340000.0 0.26189526367815585 -0.8886954732493079 -0.04725910311357469 0.012954518692608417 0.00033876509189101074 0.0001896805982665642 -0.0006245395284741024 -0.0016388451613346638
 -0.04707311396858238 0.013412149340313931 0.28355713432123575 -0.8965525227389124 -0.0018730733826533097 0.0012633706543337714 -0.00032292000081732866 -0.0002307007440844574
 -0.0025354579220928353 0.0006339047529654233 0.0004954063963183524 0.0016417950769878494 -0.35491543077627047 -0.7746202339879951 -0.14141331721399747 0.0966892970178467
 -0.00036006381019420945 -0.0024560080040375507 -0.0029806614203928697 -0.002295401730934733 -0.13530418455518597 0.08937396987263146 -0.3225464210553799 -0.8193140049648976
25696330000.0 0.2590830700111765 -0.8841101454347657 -0.0476278430602687 0.012871045532298944 -0.0005152654875592523 -0.0002260548905879772 -0.002310224311008417 -0.001526583017943763
 -0.046501376034434265 0.013125083664933026 0.2736785552067441 -0.8882224346503987 2.2397394796059298e-05 -0.0008720910308638502 0.0015293158092362772 0.0006632846373993435
 -0.003123822506175333 -0.0007869630227378048 -0.00024374799803805186 0.003933828336313981 -0.3508543278353819 -0.7732926286926443 -0.12223190622807575 0.08115257836803932
 0.002384370155563313 0.0025981505510238863 0.0017889818858443018 0.0023491338460661757 -0.13980254427974248 0.0861864764506952 -0.30871366946447637 -0.805794152835504
25766320000.0 0.2582009046582696 -0.8841833931815599 -0.04903700561643501 0.0142563126381671 -0.0008749699753134002 -0.0018354431122339857 -0.0010157968045612026 3.06538743973309e-05
 -0.0482875408959874 0.014218847924732025 0.26791981253998687 -0.9041269049824254 1.854400412689713e-05 -0.0012937098622755163 -0.0009406160677576776 -0.0014077739785711395
 0.0010236817680860924 0.002880015156039478 -9.80949719106717e-05 -0.000927205502879146 -0.3768356935092965 -0.7453515727494584 -0.14199515241075047 0.10373305222355088
 -0.002254401742053232 0.0033844261708892527 -0.00032616241103038926 0.0011569020255676543 -0.12861754449802318 0.08889836284075595 -0.33666259771706275 -0.8044116273514265
25836310000.0 0.25973793675044876 -0.8696046886493118 -0.0483721096698297 0.012710219801162222 -0.0003942996225649033 0.0013692397359305365 0.0012501784497369263 -0.0011528826874761182
 -0.0485188727518595 0.01334437396483366 0.272383557015261 -0.8769119816711174 -0.0004782031499182584 -5.242328570421378e-05 -0.000953297418354355 0.0005354338445985738
 0.0009042697229908699 0.00047073522913462725 0.001524380700152685 -0.0016503429430851646 -0.3806287575241452 -0.7621136389861761 -0.1410626554635629 0.09916550792717735
 -0.00014426353902488053 0.0017740086049704484 0.001947586212566173 -0.0012239464303630098 -0.12888699485232355 0.08690952191673977 -0.34550048799150335 -0.8164747138302931
25906300000.0 0.24315672921742118 -0.9002817120766509 -0.05006885572088856 0.013793893071112926 -0.00013095564676291027 -0.0001317208135097993 0.002106243563649652 -0.0005810065465963722
 -0.049964944342519885 0.013707768392920688 0.25440844298831833 -0.8862480051963562 -0.001799135123086292 0.00011208865053660552 -0.0006765603220557947 -0.00032241287548688037
 0.0009708487602847016 3.739461997036111e-05 -0.0021341410172225827 0.002047790678650119 -0.3570544269257628 -0.7404089522808079 -0.1377679444127919 0.09424729396735225
 -0.00106437087158553 -0.00034023476922995157 0.0006479439085228567 0.0003921029581096967 -0.14431577842451934 0.08236935342772578 -0.35089093822946277 -0.8328925883450873
25976290000.0 0.24330415145708986 -0.8863729590688099 -0.05158375152433485 0.012814999851477875 -0.0015058474088792827 0.0009289922508811416 0.00017945054199637982 0.0002935204328027901
 -0.05016003429156402 0.014427698569992004 0.2552781990334381 -0.8936435042455183 -0.0006776858266087976 -0.00021714151142689778 -0.003181157394821944 -1.577938818562273e-05
 -0.0008479116070363032 -0.0009491773704497744 -0.0004962521022666451 -0.0002358607570084605 -0.35623969346943757 -0.7434863057165749 -0.13673375762238152 0.09889692522970416
 0.002345185851065766 0.0008282712759836875 0.0042957660243454375 -0.0005056818459844474 -0.15872861487213888 0.10790101655252687 -0.3271952364397994 -0.7842068319296095
26046280000.0 0.24657536770026084 -0.8983436524283552 -0.05253491738618502 0.013050714783487408 -0.0020679939281875873 -9.138883800453894e-06 -0.0007605162855398154 0.0018304709136282638
 -0.05234975546020931 0.01311322241326766 0.2707779858330018 -0.9159071935230209 -0.0008749352832249152 0.0008502552350098705 -2.8544441790074934e-05 0.0008626604381451106
 -0.0018519003664206916 -0.000998805595528748 0.0025654628828385042 0.0047541782594309285 -0.36044403249755336 -0.732806320482991 -0.15129693739785108 0.10335410245283719
 -0.0021331930798872763 0.0003710895643715837 0.0059890553265661214 -0.0003953480974990029 -0.13678018491593147 0.10877025214336983 -0.3300156769536757 -0.8002736453441539
26116270000.0 0.23422019185290002 -0.8920064520338677 -0.05203273048326099 0.013910304622045835 -0.001094536249816546 0.00029730507028361545 -0.0019204331951567367 0.00015438282087942842
 -0.05198288083490626 0.014602722831365565 0.24608732138335349 -0.8962848659335776 -0.00019642977138052816 -0.0012480176533106186 -0.0006901308504052245 0.0020749363306235115
 -0.0033012341151337954 -0.0030496319091173076 -0.0006045270317281569 -0.0006538454400491802 -0.36656209784765487 -0.744814720964455 -0.1534476855896649 0.10125582228855275
 0.00245439327251982 -0.0006879787093400384 0.0026953123731485455 -0.002363127214505765 -0.1296051947840166 0.10123390705276285 -0.34494503788739 -0.7945666516710437
26186260000.0 0.2361597152390529 -0.8896395666830308 -0.05283790253605522 0.013104639799899459 -0.002973845154328944 0.00013226947935450524 -0.0017688413069657152 0.0005008984428850275
 -0.05439966922076434 0.014055442108587094 0.2501664050721029 -0.8859446733233484 -0.002034681576912798 0.0008582028733564114 0.00040449219347477066 0.000211523190217295
 -0.0005405465454873934 0.002541326706105696 -0.006617624606667398 0.00035467944669476223 -0.3841469464458644 -0.7715010418235583 -0.14479580039055945 0.09208849508609974
 -0.00547453338616221 0.00020164139649786193 -0.005597127021588949 -0.0044352898586832844 -0.1280662594831483 0.10003257290466482 -0.3786622137748823 -0.8223291509731068
26256250000.0 0.2482897997732129 -0.8935355167913687 -0.054824037114739446 0.014527830100196723 -0.0023280370934940613 -0.002062543457999051 -0.0005951843139783639 -7.861748831789566e-05
 -0.05472772529505421 0.013865420853026156 0.23512969712196988 -0.8911846211294067 -0.000274782825907662 0.000172485243410709 -0.0031940652872421297 0.0011049268680437061
 -0.002084435383464202 0.00032702143718520767 -0.005538020095243769 -0.006783923336696041 -0.40101439656817245 -0.7019026305064114 -0.11817776314945383 0.09381574148190601
 -0.0007339324626381257 0.00015175099759946067 -0.004307184370956848 0.002906435834672202 -0.14905855217239602 0.10378485519978023 -0.37562205501242996 -0.8201876609116139
26326240000.0 0.2282602437744938 -0.8822116058574594 -0.05592895701299546 0.01628433109122189 0.00015928963208048532 0.0002651987040065312 0.0006505411686956707 0.0012566757048435228
 -0.05522118309187223 0.01540078660317145 0.21655855526736625 -0.9034253034963976 0.00143235285203066 0.0009298478229847924 -0.0006397675969066921 -0.0011230844434553225
 -0.0026311117586355595 0.00032676633917914184 -0.0001488435293706223 -0.0025479931862101173 -0.40199597536663306 -0.7359338622053556 -0.1444643164098515 0.1164660498276069
 0.0036998965271609198 7.621532492732896e-06 -0.0025277202842264594 0.002861613772833125 -0.13969729023152672 0.10977269927674087 -0.3764698343336821 -0.8053889103913112
26396230000.0 0.23022823992603011 -0.8888996787072968 -0.05562112873286737 0.01486233752364718 0.0009854508184302833 -0.0005770580633306806 0.0010302074502981189 0.0016489115685111206
 -0.05518989759464797 0.014212153438076068 0.23462051457610555 -0.9027415195897287 -0.002311158972758605 0.0003351927111423941 -0.0007031530772790291 -0.0007632068748591981
 -0.0020330413078794873 0.0031071915091268965 -0.0008000823733033093 -0.005270815820502941 -0.4191849595008936 -0.7345221752549532 -0.14308870225817064 0.09950739830167166
 -0.002150275047910677 -0.0017503807128333626 -0.0027523663970510774 0.0008206311362553955 -0.1476939761590764 0.10802599514170393 -0.37323045106613606 -0.8136859273600751
26466220000.0 0.23573491543261937 -0.8728909925615026 -0.05689433693380136 0.013907853635570348 -0.0019943726639481455 -0.0006918455297142005 0.0008203936605787733 -0.0002934751636830565
 -0.05568064473146651 0.013297970686083764 0.234015920468081 -0.8758885317970261 0.00027621141912349286 0.0002144369116680883 -0.0009620742108903072 0.0003681367418138312
 -2.062292707981451e-05 0.0012595960745232762 -0.00037543922397526583 -3.207692470959117e-05 -0.41890414747061694 -0.731501161422305 -0.13985807959224736 0.1137820348895784
 -0.005708875779285402 0.0005991103099685623 0.0012867454530183196 -0.004187306544524016 -0.13651857342799117 0.12682137491918416 -0.3848206912135038 -0.7936382231240976
26536210000.0 0.21079421273468565 -0.9078228185306254 -0.057114536047050274 0.014493996825980782 -0.00011055147954170874 0.001654415363598387 0.00023035210742307482 -0.0005092289775414247
 -0.05698087218690575 0.015498021050065315 0.22481502378018828 -0.8994050960411485 -0.0013863456214858927 -0.001229523179895802 -0.0011631378330237254 -8.681371578325722e-05
 -0.00449836038077389 0.0027459186684685 -0.005472850901685257 0.005091118644619992 -0.3758890713678622 -0.7055209776247713 -0.1485037488723447 0.10298079331662101
 0.001952803937059835 2.5074193257508088e-06 -0.0015271997773837474 -0.002653523523777876 -0.13504473286571414 0.09729990927962902 -0.39622001675492136 -0.7756934269255966
26606200000.0 0.20621733863207573 -0.8941894557582941 -0.05903186003654906 0.015585978682919329 0.0012836778077975324 -0.0023256747742897745 -0.0005155416465475351 0.002617411023928132
 -0.05824860509459611 0.016823940204509228 0.21399658674304045 -0.8998518800428777 -0.0012050676294802112 -9.296820899838089e-05 0.0003766901632485229 0.003234046960259461
 -0.0001347697506978992 -0.003416121408608062 -0.0014070323544235885 -0.0007378722940965596 -0.418234493885592 -0.728549761247976 -0.13916287354643903 0.11986893446095571
 0.0025674146905256294 0.0002892571313530881 -0.0034484905339253343 -0.004943662996334774 -0.12032015689772368 0.11723772324904179 -0.3596835519987264 -0.7970817906453299
26676190000.0 0.21471967711643508 -0.8996987607588648 -0.058775393754416816 0.014810479008507696 0.0008374918453102693 -0.001164844006839574 -0.0015676245676123149 -0.00019420778673143519
 -0.05979582003728337 0.014210196968607838 0.21686813718895492 -0.8843740156336902 -0.0007123815815744843 -0.0015007926259539544 -0.003017089802466267 0.00027130108424840464
 -0.0019756285957999056 -0.0019002337623474578 -0.0011721760376985735 -0.000540454975622081 -0.4073119232839768 -0.7025029860304854 -0.14878901214136475 0.09193020369632582
 -0.004195107823577563 0.00014077132848185634 -0.001656977663192228 0.001352838491931977 -0.14426353850422585 0.12179005090215524 -0.40674652672870887 -0.787355507723435
26746180000.0 0.21473346695964865 -0.8771361048143049 -0.0599401588334723 0.014689552226685314 -0.002078222908353539 -0.00023163001953807407 -0.001938591864575416 0.0008238659103081931
 -0.05999128037140333 0.013946391404776876 0.2291148709664993 -0.8860248178469341 -0.0024946247933320424 -0.0008741331057377036 -0.002136694839777306 -0.0017423353198719714
 -0.00031051489956409147 -0.0005092885316407822 0.0009380078461882121 0.002683507727390032 -0.45319821916787784 -0.7293696432359542 -0.13938719791264076 0.11302949824703597
 0.0028115193597346615 0.0018087581688578458 -0.004981642633433716 -0.0014665456294829268 -0.15948789362226157 0.1191043642130719 -0.43031415641898935 -0.8022030115545838
26816170000.0 0.2173573398738696 -0.8963854901445487 -0.06190486671809698 0.017094109417066735 0.000285458218504262 0.00013319312564000397 -0.0020399286594834066 0.0002949395325393858
 -0.06164949041432741 0.014635140429152977 0.21455834993883943 -0.910500792911373 0.0004909478548371594 -0.002310779101458707 0.0016367999551210963 -0.002017151530317672
 -0.0007907494677238398 0.0035656328501801654 -0.0014121887197839432 -0.0030830801182685683 -0.4417774765140652 -0.7124169524424968 -0.15040768978072075 0.12920121570747412
 0.000869974362317477 -0.0027005895463962366 0.0015041252911552497 -0.0037450889300775195 -0.13168333301725593 0.11740516311604199 -0.3805157275497376 -0.8049217950823405
26886160000.0 0.20231131069956795 -0.8881493995683862 -0.061644426340721654 0.015006889833805371 -0.0011223646418968881 -0.0006992683531489784 -0.0008161941341418563 0.0011287469050943414
 -0.061548597117667955 0.01509796771632418 0.2172129859828855 -0.8951986578610682 -0.0011999316925677646 0.0011320164711791786 -0.0036173577050528215 0.001689100363821355
 5.84563726394548e-05 -0.0024929015743343137 0.001171941425959692 -0.0013204019886055916 -0.4356166600391951 -0.7241945763608022 -0.16683547475325342 0.11918588461830013
 -0.001782170631754456 -0.00014628936898485522 0.0002610254222124871 0.004099576138729646 -0.13976809411178362 0.12680777619968903 -0.42873437620409083 -0.7835473297805619
26956150000.0 0.1885383226333436 -0.8932034250009822 -0.06240972075380029 0.015678785904431135 -0.0006093736239481798 -0.0018308204484196386 0.0004601283719357736 -0.0007795976693011533
 -0.06228238535040984 0.01626804437824829 0.20931570125679055 -0.8937557850004935 -0.0017707392514252802 0.0008625610007447988 -0.0005787717393600216 0.00018637276641342136
 0.0022811634210730403 -0.001067830363397701 9.853231830969895e-06 -0.0025074203534913913 -0.42025361081171075 -0.6972455410865059 -0.14242584400676817 0.11880757530508614
 0.0034154383247654006 0.0019103661689070866 -0.002023723498139855 -0.003250703941695346 -0.14361854340400224 0.1295700233959057 -0.3977932555518128 -0.7777511199765205
27026140000.0 0.18299647828547563 -0.9074894652508292 -0.0636167306199912 0.016960278665964494 -0.0010917202777978936 -0.0010712323897166583 1.3400095439907747e-05 -0.0019685068843240234
 -0.06304901789386586 0.01696578053769368 0.19890948321371882 -0.9065796671726936 -0.003745703881861926 0.0006866138710207101 -0.0003136094420049428 -0.0011527873465524974
 -0.00266860008185656 0.0026634816492637618 0.0005593394340961843 0.0017709614992334997 -0.4051370572126637 -0.711890928969071 -0.15903821150310837 0.1296187566087318
 0.0003351553690213395 -0.0009496066057772449 0.002727436074561227 0.0005940354941181724 -0.14754020395967138 0.11870255202076396 -0.39701051832309675 -0.7570923387381343
27096130000.0 0.19667525961245583 -0.9087491282180058 -0.06480239872407557 0.016414617568310447 -0.0009324490058869295 0.00027745421489148796 -0.0009624228006731892 0.0005637946781606293
 -0.0636545956157295 0.016531199673032657 0.17870641008072743 -0.8926548275783899 -0.0002503764420474463 -0.0008434616524031185 -0.0005917543320649748 0.0014001832618316576
 -0.0030657807065904356 -0.0026978037357036134 0.001331771531722921 0.005084642834188245 -0.4313790514260966 -0.706401790079456 -0.15944765591824156 0.11533520500844385
 -0.002103608402869815 0.0007678927019789247 0.000783623591244248 -0.0011013260844192753 -0.13868357337033477 0.12740819969589925 -0.3989968170528953 -0.7719971907585361
27166120000.0 0.19343181565733758 -0.9167268852691999 -0.06568817265888316 0.01884260467443424 -0.0027157113222294714 -0.0011438338417360133 -0.002355469169964936 -0.00039501141799115424
 -0.06518126195222135 0.016567132275121497 0.18607741369671496 -0.910075113774913 -0.004069466217963979 -0.0015160814184866866 -0.001859111629109858 -0.00018488567713401946
 -0.0008539219986994669 0.0014195424902863712 0.001088988605551556 -0.000321915378851976 -0.411338740574668 -0.6906957540155498 -0.1487664560253886 0.09531691406518422
 -0.0005657440823112721 -0.0012635532452433668 -0.0043597003097384885 0.0018013912907530452 -0.1447741648795428 0.11604821902488889 -0.41764644513523186 -0.7718573674764375
27236110000.0 0.1804597487619304 -0.903407408008061 -0.06493515487919077 0.016483828150711706 -0.004786117491394019 -0.001451396779461287 0.0015075123658237033 -0.00021075330796724957
 -0.06443117272737311 0.01728814733907228 0.18302675935568827 -0.8991594348543056 -0.0017550258975009526 -0.00019564814964397127 -0.003029659370969755 0.003895428360317625
 -0.0011822337667091246 -0.0006368042002268157 0.0029796566762380493 0.0002920234798326104 -0.4424516516669338 -0.6893030619524301 -0.1361208085260904 0.12122126978426045
 -0.004434485651800401 -0.0029649321266094412 -0.00016313538379563328 -0.00463344472849964 -0.15018990376060098 0.13342501532304576 -0.4385034596499728 -0.7460738681523478
27306100000.0 0.1840214716172425 -0.9007214902696874 -0.06671431866666236 0.016674319614875893 -0.002572440146860197 0.0013138640023107329 0.0009411466524732284 -0.000650138855205066
 -0.06704910721091546 0.01670578508795578 0.18241520682465745 -0.8869975324226214 -0.002243955932210337 0.0008095952324720189 -0.001815835234053268 -0.0002238283922451755
 -0.001549858919620211 -0.000572083552661532 -0.005005181173641431 -0.002142059945986822 -0.4473606920168496 -0.6828763737065545 -0.14862849730170774 0.13922525851545553
 -0.0004971217118496934 0.0012016703830919511 -0.00896792297581279 -0.0010288853641852319 -0.14954450998283791 0.13033699362245016 -0.4421548980956532 -0.7807365359313286
27376090000.0 0.201431649520776 -0.9169786449612815 -0.06830088048114388 0.017255004407182712 -4.6518426886680414e-05 -0.0018741647356484003 0.0015376180154250292 0.0012648925394790312
 -0.07017588095166379 0.01788656425620958 0.1848468595010909 -0.9124601874764883 -0.002977010355684776 -0.0016888894253136116 0.0018466297465428742 0.001607805590348305
 8.542682685340114e-05 0.0008961832234070592 -0.005874659925612836 0.0015039526491825747 -0.44764302552582413 -0.6661404962866138 -0.15544560259545076 0.1269161887559907
 0.0005735162827188695 0.0004050920866397221 0.0020777049674141133 0.00222404672932865 -0.15194508157088482 0.1320610320379825 -0.4548378063569523 -0.7402572590975149
27446080000.0 0.1612947009134816 -0.8956238568047662 -0.06771291889220997 0.019204486469789617 0.00022204537045238476 -6.37040812649672e-05 -0.0011442962216683494 -0.0015796685023525864
 -0.06671559666047748 0.017441291196928426 0.17917480182600562 -0.9165601279711443 -0.0036895607959709187 0.0027261870924351803 -0.00020177249345564605 0.0009788988882745448
 -0.0025269226394852703 0.0028750400577113025 -0.0032397591342432494 0.0006332552145877336 -0.4410894021442663 -0.6863504224443431 -0.14835906478087824 0.12656424696377808
 -0.002746174765293479 -0.0016913944503228265 0.002273000140721817 -0.0012920551644328654 -0.15711178243149962 0.13541870267956693 -0.4255659750465798 -0.781393172228355
27516070000.0 0.16873740022163938 -0.8926306114121693 -0.07003196107123422 0.016813703406125192 -0.0018130315246602299 0.002131374842425665 -0.0009070786631099543 0.0005241032520395263
 -0.0675491457627043 0.018065752485221655 0.19067718994595412 -0.9050214714529154 -0.0014227726440115126 0.0017052063184401758 0.0006652141627467867 0.0013111344458486454
 -0.004316362039539622 0.0012914158756629833 -0.0014517855839100203 0.0014501243331776438 -0.4778412090117606 -0.6924091010481788 -0.1400426301391289 0.1325586503363904
 0.0020076851861891972 0.0002000059698446975 -0.001730463866921212 0.002279975469953861 -0.1477033410359137 0.15762514238775358 -0.4621104276748494 -0.7429662911220429
27586060000.0 0.17459859133748443 -0.8964216484723212 -0.06883185241411945 0.01805204884497499 -0.0006657011049061791 -0.0012720598759007036 -0.0031637906060887765 -0.00016555253781841886
 -0.06986885035362728 0.017245763607915604 0.14868104558576925 -0.8943589965723379 0.0008493068401934673 0.0016874977731783586 0.00121518168560576 0.0006218131226988354
 -0.0016484011604154655 -0.0021272670757276546 -0.00183071969345343 -0.0037817519031144945 -0.4493379181367233 -0.6777466974063445 -0.15728864550611485 0.1225455410302023
 -0.005005299208588517 0.0012230483762145578 -0.0043711719583204595 -0.0022703126435523447 -0.14273592783586525 0.12201661247883527 -0.4373713306870889 -0.7749498993944044
27656050000.0 0.17168235159437023 -0.9015264823659066 -0.0716402027929695 0.019125862854314515 -0.0015399247742565799 1.0447155930869903e-05 -0.0012630739617514224 0.001834839362058032
 -0.07139729739320934 0.018834254450463307 0.16235814752900762 -0.9084187524544651 0.0020900591175199512 -0.0017968251733270157 -5.494444248182684e-05 -0.0018027681891857718
 0.0024308155891506864 -0.0020472014690514472 0.002366352290859361 0.0036845295162288537 -0.4412978658461776 -0.6797390956439534 -0.14538842589045872 0.16086109503819354
 0.0002910801720107175 -0.004323920068445861 -0.00022569636497150297 0.0011684109840445545 -0.1599100836667604 0.12682362320069293 -0.4462631823233552 -0.7705540352566359
27726040000.0 0.15220488566392715 -0.907923548895236 -0.07289599272616362 0.018431172941249314 -0.001938847567182114 0.0015050086194226305 -0.0016108792800477538 0.00021495435521146837
 -0.07256938480573569 0.019671246314805994 0.1736941678426663 -0.9063472042478283 -0.0008433218827941657 -0.001515330862686649 -0.0005874012058624116 0.0017205762067170679
 0.0023366089448519237 0.0010795288174770216 -0.00016484207268243676 -0.0025183646973078785 -0.4706687706934847 -0.6746903698737825 -0.12613999661478448 0.13864257312867306
 -0.0036289130479473775 -0.0036471362970775223 -0.0036134777000140896 0.0026713936562518343 -0.13736337898640855 0.13141553016840238 -0.4635346333635237 -0.7405961370229744
27796030000.0 0.1429195281827196 -0.9200110807425113 -0.07199500122150883 0.017808827361855333 -0.0018721083697742444 0.0013124378443132745 -0.0014599900852244 -0.0019462286457678458
 -0.07327946453645312 0.01979825162813208 0.17298521471174444 -0.907315799745209 -0.0010932441224199391 0.0010303076077789251 -0.0009043146136795063 -0.0010875131640503105
 -0.0022503510173148044 -0.0001354889374482972 -0.0032084663043241706 -0.0022878586886148715 -0.4227356496931469 -0.6616186498469676 -0.13648830916341917 0.13014514370771718
 -0.0009736228471264711 -0.0007799129730133521 -0.001471254688271455 0.0006653823176153229 -0.1439501525080616 0.1485481467645014 -0.451536169464322 -0.7633782457435261
27866020000.0 0.159146098802413 -0.8885886484780289 -0.07352611805336642 0.018798572379349846 -0.0004913527658049682 0.00013009443452903665 -0.001862521902317066 0.0019047092424269187
 -0.07357743071533591 0.01750242750569508 0.14775816902371341 -0.9044134637990422 -0.0018280373923772694 0.0006620542647736513 -0.0013775848215793606 -0.0006352210735537093
 -0.002546130189322619 -0.0029272331517162693 -0.005458555921041714 -0.007389970228769772 -0.47144779319306634 -0.6992238366527831 -0.13188131960648897 0.13299592667811747
 -0.004171405277192759 -0.002514764037530465 -0.0014169517262860724 0.00017953530895941584 -0.1438235139810379 0.13116053676137812 -0.46788776982034835 -0.7455532273698317
27936010000.0 0.15277983131550554 -0.8994417147512134 -0.07402272989762841 0.019430685020447765 0.00033095328898481604 0.0013471162373804523 -0.00151157574813791 0.0009996632846819159
 -0.07393061309885172 0.01875881528078117 0.14955604685761997 -0.905865324027342 -0.0005916294033227467 0.00021628786056004899 -0.0008466173383305149 9.78731143384543e-05
 -0.001688064003912096 0.00012163864313007891 0.0026961640312312503 -0.0053705667369448986 -0.47848937037571254 -0.6795525952206708 -0.14833883659506159 0.15209446289950132
 0.0004947402061782864 0.00045331426341044067 -0.0027882691205284404 -0.0011069215673024774 -0.1539692855791883 0.13385761242722352 -0.43816578364568065 -0.7434602323467717
28006000000.0 0.15206241490634545 -0.9088343494487948 -0.07734970912165175 0.019609262570952066 -0.001294306206194797 0.0004636606506697339 0.0007478184136783644 0.0006050870532452481
 -0.0770571813919257 0.02045941325798381 0.1595140871117112 -0.9294729257155263 -0.0017700259781013446 -0.0011050901973949257 0.0005103319684335635 -0.0004904625603724448
 0.0004979624233832351 0.0009091246587921734 0.003410489861081079 -0.0014699245034795186 -0.488479771269895 -0.6482510288725241 -0.16203730118264606 0.13665653200563646
 -0.0015506644655322594 -0.0010509487613799796 -0.0009923794397875049 -0.0012288376675495954 -0.1391616898769041 0.13504180305264146 -0.46438656814929863 -0.7262862545712351
28075990000.0 0.15406052179066992 -0.9142088718811271 -0.07670000171819275 0.021073277183402097 -0.00098584112568295 0.0010608282783316529 -0.0008090584054418465 0.0006761276094949119
 -0.07726707302729327 0.020007660184428733 0.13745238775078147 -0.904970566985294 -0.002652725579733967 -0.0005153685537981972 -0.0006011782018037372 -0.00025298989085987823
 -0.0015644758550307043 -0.0006475377228132897 -0.003565843759078275 0.006545764338366445 -0.48439178552845236 -0.637416128260606 -0.15360123381240093 0.13832113402799312
 -0.005371590965345706 -0.0006890505396776615 -0.0057583279596154545 -0.0035627082553469597 -0.13884458027645255 0.14542614033462103 -0.4650522136240349 -0.7313990952765587
28145980000.0 0.14264410955780404 -0.885811303710132 -0.07854399591755228 0.019849454116071197 0.00023842947054618688 0.00022269076172883262 -0.001827193988386607 -0.0012795480823214903
 -0.07656262457546355 0.020316946460173617 0.1525544648770088 -0.9079154326992838 -0.0023272612930523113 0.0003060757171237501 -0.0020981102326203204 -0.00011803725545527501
 -0.00029600733527115 -0.004737491141978963 0.00019782576533232494 -0.0015725425952545476 -0.4879572841432163 -0.6741014116527918 -0.142433979829466 0.13984053426748846
 0.0016122233027639603 -0.002381820492917467 -0.00036967685310635443 -0.00428253012098295 -0.1514770913374792 0.1451370207348045 -0.4865941449629227 -0.7435399800285303
28215970000.0 0.13944654391477757 -0.8914479004627908 -0.07635048003563265 0.020152282371731417 -0.0011210339421943347 -0.0006213353190114122 -0.0015725012664196238 0.0016046925400322735
 -0.07652945006437044 0.021494308693329606 0.13087770974760626 -0.890025202729523 -0.0014805477431074944 0.0004213484383138086 -0.0014972026309220266 -0.0025973122923166835
 0.0009343021799218502 -0.0009726108172140196 -0.0018759264752765442 -0.0008409151798568628 -0.5176325697236159 -0.6659827988534119 -0.14652869356403223 0.13144082872130247
 -0.0013938766961458734 -0.0034451868255535563 0.000838911776121191 -0.0028784919526744137 -0.15632686090746029 0.16652943373090795 -0.4815011571055973 -0.7577155527227372
28285960000.0 0.13152442457805075 -0.899544718466247 -0.07944777888883013 0.019744058624424476 -0.0022414563739019664 7.276283488249982e-05 -0.002576432872551719 -0.0005137419582041823
 -0.07900714577172137 0.020851576951515946 0.16717941127973496 -0.9072330113311974 -0.0006702641733607362 -0.002144191330492559 5.403715460156271e-05 -0.0021561484224049995
 -0.0030061859451783555 -0.001458830793768569 -0.0012386294280922567 -0.0013093606323911914 -0.49321242618587224 -0.644726523839801 -0.14135294313522553 0.159148659091752
 -0.003615033431208089 -0.00011862185392033002 0.0011466128506096263 0.0035907442451940446 -0.15431442672373452 0.14673506742602033 -0.49280313236812057 -0.7131039431049245
28355950000.0 0.12541602505214666 -0.8925531961427814 -0.0800976379245424 0.019723234767393495 -0.0014058679368100394 2.5862486796171844e-05 -0.0008126149835425572 0.0018640801527382055
 -0.0786598110297384 0.020509725063634816 0.13390207806129106 -0.9176601941528749 0.0017507049095339706 0.0016528040885041657 0.0009748078260539788 -0.0015970912439783375
 0.002741793968105515 -0.0034305268131791695 -0.0022741809556486923 0.00016386512297547823 -0.4980664101651033 -0.6330613637808826 -0.14415040027377463 0.15284250702239913
 -0.0021587727217891512 -0.002341300104410761 -0.005947484972227791 -0.0018534829719424955 -0.13683608679203066 0.17395198651162852 -0.4778587958033703 -0.7165000734597894
28425940000.0 0.1336880221985074 -0.9207943973678235 -0.08216196065224352 0.01995601969134161 -0.002056786714487916 -0.0007093048387495689 -0.0016980954500911865 0.0013708999821512285
 -0.08274911935641649 0.021293014526367584 0.13261395192348288 -0.9013078071851546 -0.0007730041486058124 0.002435726295177765 -0.00023624910144351524 5.492433020037166e-06
 -0.001242505254722762 0.0025544007177259686 0.004536194549649582 0.000618419727882345 -0.5045499631853982 -0.634335779018832 -0.14494671544821636 0.14483999729258246
 -0.0026655668650333755 -0.000319987261289345 0.0012484011665333992 5.719655172814036e-05 -0.14444509654491022 0.17403316116693104 -0.5170125323944025 -0.7352824702129217
28495930000.0 0.13738493816626104 -0.9206677119658198 -0.08124787480427151 0.021806022933168398 -0.00259439825031436 -0.00010130835123468635 -0.0006981669834431319 0.00156776259815873
 -0.08348667564955015 0.019212729540005292 0.12742108863817334 -0.887246465331476 -0.0017540726582589655 -0.0012275352200387037 -0.0035041243405093724 -0.0010817461532029347
 0.00044306296993870475 -0.003170042254337859 -0.0013219763787950605 -0.00141170671233821 -0.4894448310481183 -0.6190934790450566 -0.1475905265389081 0.15871018452593696
 -0.000807298302350618 0.0010824388470214341 0.003194055532060813 -0.000968347333236259 -0.15689075351241363 0.15524712688407302 -0.49250891249775736 -0.7435357534971826
28565920000.0 0.13647172484762882 -0.8914928994136195 -0.08140972388466192 0.02281549166609317 0.00018527865622495657 0.0008993561787243348 -0.0013301697042202498 -0.002063046575482485
 -0.08044628714238954 0.020262245861320922 0.12433657508185902 -0.9046645687565623 -0.0016890402527798304 -0.0008046070509523447 -0.001314361017766791 0.0009511275895228877
 -0.002924132666561065 -0.001875091229396151 -0.004893973319302072 -0.0013767214657291543 -0.5261240121897973 -0.6331391208831959 -0.15838987779853367 0.15387205850591743
 -0.002947162435918354 -0.0016756980091234223 -0.0028482447617258163 0.0028528119141343366 -0.1510668212283009 0.1491500860386923 -0.4788251319789981 -0.7354418295288447
28635910000.0 0.13957536101415363 -0.9065767960744529 -0.08373894048616545 0.021441160886018707 -0.0011673324507455625 -0.0001991101434173963 -0.0019230929719265164 0.0010566873876066752
 -0.08347001104614923 0.019600770316367592 0.13012142197929452 -0.8893093365955665 -0.0028990360034614566 -0.0010363557260702706 -0.0008925729696631853 0.00037183108714572855
 -0.0011174408487583697 0.0025478361853995004 -0.004063946783198223 0.00428148856643611 -0.5115099282198606 -0.611375109323502 -0.1439128373386498 0.1661568601878835
 -0.0005108121603252644 -0.0023765527647653262 -0.0016044837687584446 0.0043144651285272435 -0.14588205328274215 0.1769288120028084 -0.5156691135578277 -0.7058460309181583
28705900000.0 0.12003651399954843 -0.879028458927187 -0.08301536883980572 0.020981452842121297 -0.0013924184082137934 0.0007771888348118263 -0.0009776376934548105 -3.0159877396283527e-05
 -0.08256120962341727 0.020804132204605388 0.12655607716288775 -0.8981478211170882 -0.0013714184377371552 0.0007452332151864567 -0.00043911635056448567 -0.0003480592969369831
 -0.0023089776723023794 -0.00023978270539095492 -0.009093611985803416 0.0035947622174561282 -0.5092370524670495 -0.6454240936442059 -0.1506415546973618 0.1498511934881706
 -0.0029306769752706625 -0.0005033349067008463 -0.005053430973162527 -0.0019300006153377559 -0.13840333092087725 0.15437007053169308 -0.5147572850966103 -0.7213381587841348
28775890000.0 0.10343497666949085 -0.8971865635429692 -0.0850961794032176 0.023275849145477704 0.000585577754225809 0.0005207985016417766 -0.0018011779379224764 -0.0006971123393468396
 -0.08501183585536543 0.023496794019659012 0.10649710583023027 -0.9216335408071438 -0.002443682683792027 0.0005483508219646408 -0.0009846638674451743 -0.0007780621096694279
 -0.0007173284065629288 0.0020059022429022477 -0.0033696737497041877 -0.0002927341912415877 -0.5134519903797208 -0.6335922257481774 -0.1499843703018062 0.146969932654816
 5.588097216412296e-05 0.002510599555997717 -0.005305431152932984 0.0005816389475944116 -0.14908335010410886 0.16564649514596422 -0.48540729513365877 -0.7060555004222421
28845880000.0 0.11992173202083438 -0.9085041204576404 -0.08722082922170242 0.02328511347957911 -0.0022556705046302213 0.0009020851021653244 -0.0005958969901784118 -0.0002873253157774803
 -0.08693409619706803 0.022670237455828964 0.11821035487759936 -0.9017701207763471 -0.002577133382352482 0.00012156157287768402 0.0010821041811606826 0.000272778160321461
 -0.0026405617956386193 -0.0024517096323201522 0.0019778617877249274 -0.0023740652136579146 -0.5266981794955673 -0.6046830822121312 -0.13079532665625 0.16978540344071313
 -0.0013118302045992734 -0.0017524753413384639 -0.00051836068665344 -0.00023814968916834438 -0.15665508746256138 0.1599619721787444 -0.5162112346040387 -0.7105690083430949
28915870000.0 0.08101151662176878 -0.9113485153813725 -0.08498872881876567 0.022575794871886705 -0.0005031664530700081 -0.001288594459389983 -0.0018774326414203516 -0.0005530356252562218
 -0.08735281451388356 0.02672327412583992 0.11901765533159997 -0.8920872883255444 -0.001890271514632282 -9.820481876419548e-05 -0.0035311009600493574 0.0018929074624934343
 -0.0019492240976977185 0.002609748029208312 -0.007660159125650439 -0.004537155762446106 -0.5277195297209144 -0.6567496589921997 -0.13311793551208245 0.17091688371619035
 0.0004475045866942147 -0.0016137587808500002 -0.002364855619530871 -0.0009873836248213976 -0.1423186842724952 0.15265976495668074 -0.5292233332004397 -0.7127011672634878
28985860000.0 0.10495160414738626 -0.905077859679557 -0.08642149803974358 0.022720788026306546 -0.0031536921722910014 -0.0009318615722031719 -0.0018880016434528425 -0.0013344608188944724
 -0.08768524764878578 0.023728593922729597 0.11001225514413751 -0.8985968821395285 -0.002993725061525958 0.00030286155864744376 0.0008300343949991137 -0.0013602042984066506
 -0.0013896784290364842 0.002720081705332055 0.001767108169740571 0.0053533504498233485 -0.4991692574230539 -0.5937493994711327 -0.13559914567318027 0.16876167361457534
 -0.0010289559071596224 0.001217729903069255 -0.002715707042325462 0.0025934726609466822 -0.16542564560149847 0.16964171190478228 -0.5191444032873395 -0.7030912882927141
29055850000.0 0.09862191215206483 -0.8982965127938607 -0.08918102240282257 0.023321022777778012 -0.003240268634268716 0.0019618895067122204 -0.0037072253219031003 0.0009854949657269302
 -0.08821718393822191 0.024660391664790695 0.11881545534293533 -0.906393507317203 -0.0009367537051755763 -0.0007096287881813258 0.0019182873157769951 -0.0005326029500839405
 -0.000912263220547253 0.001730092814964062 -0.004431479311219142 0.003717991376335905 -0.5262977978624025 -0.6052421881048563 -0.12666211111257342 0.17522911861543322
 6.033527861914767e-05 -0.0010833993477502224 -0.003077299405183716 0.0005986513474936046 -0.14017055437204082 0.14847465000384177 -0.5452094793863745 -0.6806276119202298
29125840000.0 0.0848520659826597 -0.8996622492920834 -0.090893411618348 0.024121006765881307 -0.001340663214353541 0.00019913644472931477 -0.0013929482590756925 0.003256881317874955
 -0.08942083329638877 0.0253971249192771 0.10292547915822788 -0.9022201080756038 0.00030652097368653777 -0.0006034526768334531 -0.0015031510305714736 0.0009786250064385638
 0.0026595093115442557 -0.001231620195915519 -0.0034443919839919567 0.00429212986605826 -0.5279927298202057 -0.6217908296069256 -0.14352150230555802 0.14150128903945253
 0.0001468849107564502 0.0029145712839748574 -0.0021945495076826993 -0.0005931705083854126 -0.13789777956447763 0.15716700984232707 -0.5085775193646657 -0.6890218375585025
29195830000.0 0.08560924544641034 -0.8977402991063522 -0.09201404035140068 0.024333494183985074 -0.0031176527250897277 -0.00012042751475696129 4.867438733313087e-05 0.0007481234062683527
 -0.09096793269217564 0.02690793964137832 0.10190134235033219 -0.9119262911442825 -0.002780429611061657 0.001244887907095763 -0.002284093264834003 0.001334812599291933
 -0.004114029017310119 0.002340780217410238 -0.003213530273251313 0.004033859255194184 -0.5307858887092037 -0.6064186061137761 -0.1501620492504859 0.1594696168847715
 -0.002810030673496297 0.0022302948681118488 -0.0012553388683062686 0.0024939679348357103 -0.14801372979672164 0.19554602375018432 -0.5449260431164441 -0.6735234962570399
29265820000.0 0.10221371660461373 -0.901256244386833 -0.08994646623205857 0.024750220697581194 -0.002623062159897536 0.0002340789882442177 -0.0010679206027324572 -0.0009644968881689455
 -0.09159813448341468 0.023765315259909523 0.09117510842339181 -0.8986708518777436 -0.0014238953858122174 0.001470958262677834 0.0008179856261743727 -5.8221795770315816e-05
 -0.005081152836090481 0.0019240929660720614 -0.0030503196160173982 -0.00015215811682318695 -0.5284626389526619 -0.5907398976714461 -0.12057920833741077 0.1753100851971102
 0.0024252311487073463 0.0022948210306525905 -0.0008342900583153671 0.0022285520538467183 -0.15518123271813894 0.16872167574359398 -0.5422299115050287 -0.6821943884794086
29335810000.0 0.0629925302248212 -0.9066702000648045 -0.09213636721955715 0.025282243562489908 -0.0012654550057880655 -0.0003460848642722377 0.00042296374739385893 0.0014513425683053039
 -0.09133898817182437 0.02767152133959651 0.09998641864796805 -0.9043689883048259 -0.00198337658531777 -0.00014520807935657952 -0.0027006608088879984 0.0011454725542789737
 0.00017564134532115384 -0.00268588162675377 -0.00021002591037451915 -0.0016368181108065525 -0.5416618716237134 -0.5883806014206009 -0.14992058419138649 0.17486160408390497
 -0.0007034520895154627 0.0010154139263235857 0.003004418718415615 0.001230510938431455 -0.1518047547380976 0.17970218610407082 -0.5519655875384462 -0.6837775776978062
29405800000.0 0.07851819656962027 -0.9053688527283902 -0.0927579120823627 0.02484954923571577 0.000762915419768564 0.0017814626269093965 -0.003063614770641032 -0.0010261474370199303
 -0.09280086356820026 0.027329148056745415 0.10585707286784325 -0.9040349152181847 -0.003243938092262985 -0.0032117583715868124 -0.00019060195224133284 -0.0009180417705410864
 -0.0008911762340848256 -0.0004870438817040007 0.0005377433642671546 -0.0010687895658232495 -0.545739298396571 -0.5761012908557052 -0.1524870537903882 0.18422827168579883
 0.0009580529051932333 0.0026097219520250575 -0.006319182041168674 0.0068829007022503655 -0.15337150881715533 0.17841473138173478 -0.5497725680652679 -0.6574646480005572
29475790000.0 0.06583993535114845 -0.91112661478195 -0.09442871288230537 0.027449090263187266 -0.0016783020155573636 -0.00043601091551683874 0.0005107448559104339 -0.00035744595925218367
 -0.09609275083643175 0.027902612177068006 0.08497942422693044 -0.8981016859913971 -9.286880496251763e-05 0.0005818683828773461 -0.00400676859621536 -0.0005273445783009134
 -0.004679317471521367 0.00360199856802147 -0.005716024599498951 -0.002234137734730887 -0.520315276904473 -0.5738016372902996 -0.13506027101226073 0.17699569750500777
 0.0016669634268300872 0.0001346122084639272 -0.0013160458585896489 0.003922436746916844 -0.1391295580036185 0.17675959515455125 -0.5486638158202621 -0.6696157796680443
29545780000.0 0.08351239595428443 -0.8957182591998214 -0.09607576683128502 0.029128335060563008 0.0005399849994722305 -0.00080856129170074 -0.001832724477995851 -0.001896085974376377
 -0.0938125998141633 0.026740924894529894 0.05935257663782927 -0.9133244128433632 -0.00392724255407606 -0.002758085269776467 0.0015526503368341856 -0.0013586563589613157
 0.0004533374710984404 0.0012560462022074745 -0.005702840581482744 -0.0007606580005427777 -0.5947819809447942 -0.608978818643141 -0.1409153092075771 0.1700036045887759
 0.00011283262946894594 -0.0004697866670887572 -0.0020459776568789436 -0.0029360824234744517 -0.14117088180714943 0.18028413338454555 -0.5425851484911959 -0.6805100779257957
29615770000.0 0.06863156694092179 -0.8940642786984181 -0.09766910626973534 0.027929621882619087 -0.0009967238955729488 -0.0018320066705758097 0.0009527554253850961 -0.0028619469512122706
 -0.09541645102532106 0.028479336167436652 0.09065332181897119 -0.9004334339529609 -0.002948323873756956 0.001378386004519101 -0.00189188062511922 -2.655276019622037e-05
 -0.0063183752986977195 -0.002454352677999201 -1.3784090143155024e-05 -0.011311512442067378 -0.5440455168380639 -0.5723072957425865 -0.1419651623919613 0.17824978097285965
 -0.0015262377690702872 0.005068728564903637 -0.0015321499963623325 -0.0002054477441005836 -0.1371105079686334 0.1714145562565895 -0.5449963488766918 -0.6417538509736842
29685760000.0 0.07685663124181358 -0.900156249685503 -0.09660122443493384 0.028143153301595822 -0.0030652662145525793 -0.0011712470069795058 -0.002035264426368093 0.0019439625248860672
 -0.09562615491432588 0.02813705381852716 0.07949518265208054 -0.9084460018700927 -0.00021135784076718625 -0.0009565333549387685 -0.0007157348903783958 -0.0017075609820165873
 -0.0020029831224978715 -0.0007278348118261301 -0.005150678924584437 -0.0012789008249381815 -0.5590883090692447 -0.5835702821963051 -0.15311775315935366 0.175679331763194
 -0.0018117816889637176 0.0022255133622799675 -0.0034731331041269586 -0.0006179963201905553 -0.14086267790901705 0.16607077466434425 -0.5559370533082726 -0.6325114661104887
29755750000.0 0.06502363042367659 -0.8931036682256753 -0.09853453541048555 0.029082533145748535 -0.0013077837827002111 -7.39682448342673e-05 -0.0005738952090514212 -0.0024991627602351423
 -0.09680869829924194 0.027721783148325484 0.07035893080918133 -0.9046056041289975 0.0017493911138755465 0.0010716246902319718 0.0001755138869382789 2.2797488655974116e-05
 -0.0028465377408705226 0.00046286904974241416 0.003340145957645537 -0.0027094138570135907 -0.5462271215327075 -0.5783505043896625 -0.1461640247739372 0.1802799807407999
 -0.002544337985894692 -0.0022300364666395394 -0.001704767923376334 -0.004729088277148395 -0.16079817735003404 0.18964763017844027 -0.5604379940977706 -0.6580817884040028
29825740000.0 0.06649986469630897 -0.9011415081583197 -0.09771976795241995 0.030361869236284044 -0.001976466510297407 0.0022420662867495915 -0.0012051963658931695 -0.0035741098961283514
 -0.09790390292081544 0.027223303336835442 0.06093580048068189 -0.9048931990955736 -0.0030706084968115718 -0.00304186792816771 -0.0011903705711366602 -0.002596832884869649
 -0.0011605888505749303 0.005363403880328231 -0.0031440814519677904 0.0010857131491216025 -0.5705551635018482 -0.5366289836176962 -0.13548139843916862 0.169570103652042
 0.00014752416314165048 0.0007114954488238836 -0.000618547209717032 0.0013586413566652642 -0.13910765320254959 0.18511043821759893 -0.5399079828266313 -0.660974456433178
29895730000.0 0.050288166899176936 -0.9087696033925841 -0.10026831330682497 0.029102933182486412 -0.0006310536147012691 0.0006688364373496722 -0.004063664897188555 0.0027566692374068197
 -0.09897322162852784 0.02943354975526348 0.08556538040591975 -0.8995896501821988 -0.003188257213438938 -0.00148821974972825 -0.0007924439401352922 0.0005755603996692216
 -0.0035665623782185447 -0.0022684682822762398 0.0011004636365470634 -0.008368489651399823 -0.5589868350741647 -0.5710238756046885 -0.13348314030606104 0.1752349913616908
 -0.0009236404080051361 -0.00017932337767518966 -0.004581722588533747 -0.0007668407208133833 -0.15423061115740994 0.184711783912198 -0.5328627610962033 -0.6236596397511829
29965720000.0 0.07145011936029473 -0.8998657621313135 -0.10154181336212038 0.03078127857079164 -0.0017595112515693802 -2.4016136157810902e-05 0.00014674840948564934 0.0024061588425915675
 -0.1001863796011174 0.028635090204240418 0.053560144057077534 -0.9055294357772029 -0.002523815868323568 0.0021380428074063294 -0.0012866870341893507 0.0010544881265900272
 -0.0025877228142281794 0.0008523967463581209 -0.002243279215231202 0.002630063346688496 -0.5728608292640968 -0.5747716897921397 -0.13613362023707312 0.17581330173211127
 -0.0022194231971352637 0.0033469600469160977 0.0011600951117740714 -0.0022256143112612758 -0.14506968622340558 0.19406195917220714 -0.5548399712407901 -0.6365496116453526
30035710000.0 0.04354491631674481 -0.9095452909540305 -0.10236140223895225 0.029241098713504197 -0.001390721033725216 -2.8075145391783456e-05 -0.000954356503003353 0.001627904386428676
 -0.10138644060953073 0.030909121144266385 0.0670235058000886 -0.9163716242509965 -0.00123864021721765 0.0005894721453356524 -0.003223469252181289 0.0002934324270167437
 -0.0029450231366173582 0.002103186054468799 5.058788179599961e-05 0.005016483852173535 -0.5468774943850362 -0.5507338004627024 -0.1392778485561458 0.21229823900995615
 -0.0016693051344456972 -0.0008435156147170199 -0.0045396237599605255 -0.0016512292181708418 -0.13588654523194982 0.16659021263998905 -0.5649195669948409 -0.6313179357867386
30105700000.0 0.05088916508805653 -0.9083448712879767 -0.10078482028155876 0.03201400710321278 -0.0008138134005788988 -0.0013570457880950387 -0.0015832112096889567 0.0021648878487863974
 -0.10078902831048657 0.030240075063950506 0.044821339769817094 -0.8937480834207118 -0.0013161974004645407 0.0007018720143571722 -0.0033070466486507665 0.0014049911298954782
 -0.0035234340632882954 0.0020589781239376648 0.002410156814608023 0.002634035790477058 -0.5788736930519714 -0.566475341508198 -0.16133211895858052 0.19856302492854458
 -8.773451291071565e-05 0.0039001215529280027 -0.008893620204365337 0.00345853974665572 -0.1406899086669613 0.2001896611885497 -0.5637188183076848 -0.6625641518447681
30175690000.0 0.019472378325835923 -0.9096885984182239 -0.10404126793167418 0.031351488179105824 -0.0009899746220484844 0.000304051040468064 -0.0011239157514751931 0.0020949086395268524
 -0.10146191048333228 0.03347832651165073 0.037386249729630616 -0.9079309512226609 -0.002217879976851421 0.0011828053353604225 0.00048187473656956616 -0.003246431415066261
 -0.0019259506069638857 0.0014399093260499295 -0.0013344190184900776 0.00199758973777122 -0.5575170115278006 -0.5680489129549171 -0.1512920038071254 0.19426198446817716
 0.0002182275884000306 -0.0005019056218667559 -0.006074144148487785 -0.0022818624588381966 -0.1530458393881453 0.20251858254251723 -0.5728940336946948 -0.6405018383930493
30245680000.0 0.028832927701435442 -0.8840292400417408 -0.10510552791930317 0.03342383257647284 -0.00042769932905301257 -0.0002646756019674058 -0.0017783136402452224 -0.0011341197753083944
 -0.10170294876564814 0.0314212545858666 0.03270754606288893 -0.9177505866550286 -0.0017715555494594894 0.002033428705369722 0.0004328919618377976 4.7776208495197694e-05
 -0.0018550239599522682 0.0010202845269865629 -0.004094500080262105 0.003952148769672612 -0.5953256624544981 -0.5676366428957658 -0.16550307140281134 0.1768288870533199
 0.0020146600852555597 0.0013928865118050893 -0.005972359298587787 -0.004859076537964715 -0.14378024583584767 0.18887254932082703 -0.5317484525183714 -0.6367947058692962
30315670000.0 0.0452887341673163 -0.9061346534439197 -0.10466994338482748 0.03136923670416838 -0.0032194549264279986 0.00040974340640659453 0.0002666405698759964 0.00024816347267270477
 -0.10384303552814206 0.031073226671670062 0.0300321178564217 -0.9010591483649534 -0.0030358869619389246 -0.0015443596665060196 -0.002037226632201696 -0.002139455725328507
 -0.002469326239299482 0.003388191650709925 -0.0030795490461237116 0.005248523514555292 -0.5832729776346844 -0.5628373406705082 -0.14339363959821916 0.17853515293251374
 -0.004586215494495221 0.003316183721633699 -0.002871554681112681 -0.0008970294188683671 -0.14185910566360704 0.18280063510626762 -0.577415453719134 -0.652872131200802
30385660000.0 0.023190072096775746 -0.9108842774211583 -0.10781619914229076 0.033239053302485874 -0.002216514536974116 0.0010404337864757974 -0.0017458245472932851 -0.00025406902376103643
 -0.10572682323264497 0.03306368718273201 0.041518612906639316 -0.9116983931187919 -0.00012320805785852863 -1.7204599081232525e-05 -0.003504469503576061 0.001862943688189266
 -0.0020608071630953406 -0.002600501765739752 -0.0026572016525577193 -0.0032132494639337183 -0.5889196778214866 -0.5644380558784937 -0.1571763641074229 0.2108283342300435
 0.0006292552588700955 -0.0018177768857333958 -0.0012905466956117133 0.0003674757891539271 -0.1242224318229906 0.18074475986609864 -0.5814888591131557 -0.6203695608630189
30455650000.0 0.054844181510079935 -0.8966790314463957 -0.10613906700461957 0.033498515741227794 -0.002430655134864668 0.00037783623990588297 -0.002367922624525455 0.0009094203158579154
 -0.1069261243957506 0.030261880981681664 0.02536717532167285 -0.8984449596129845 0.0006946527628169352 -0.0006701968145500647 -0.0014917636091857929 0.00039019664513422554
 0.0009129944402383973 -0.005445131934304272 0.004351996593044756 0.007070377653958635 -0.5773303488508675 -0.522024176205557 -0.13407980125024438 0.18561450589557257
 0.00032151487439562433 -0.000591514004515977 -0.0024576257071929615 -0.002831783393793651 -0.15908843400738834 0.1751384076832559 -0.5865683801773678 -0.6319434323547167
30525640000.0 0.03141262542845364 -0.8928026327369207 -0.10710162848615334 0.034286386731095866 -0.0018009752548275957 -0.0004790510038988667 -0.0026115304846614997 -0.0014081815863652267
 -0.10574260505146381 0.03229243705321081 0.031195720733091476 -0.908138410627741 -0.002058969675457089 -0.0012072030876651319 -0.004436915305063592 0.0014902305875059375
 0.004049045369085973 -0.002489552676142488 -9.113033556890845e-05 0.001216327362993358 -0.5899928209634825 -0.5560783248459583 -0.15395425037014854 0.18879010568646137
 -0.00042049954791653784 -0.002748734065619282 -0.0042833470270172225 0.0042837956015567 -0.16192926504289337 0.20189824432458442 -0.5812331804740432 -0.6160395860636488
30595630000.0 0.024431318501279775 -0.9047233585562744 -0.10904914957041216 0.03550566767621494 -0.0023501062346520814 0.0008564511807729632 -0.0032819303941757846 2.1285728981885995e-05
 -0.10789395006677761 0.03404906074420247 0.028511180290791367 -0.9117820812908811 -0.0030512142911064137 -0.0015882194884011382 -0.0004947604513937851 0.0006846891349416947
 -0.004164268800719258 0.003947325681544355 -0.0033420531159183784 -0.004744655970587024 -0.5915741596604351 -0.5255473181511213 -0.13187236794526666 0.1724313704931042
 -0.004312347180905461 0.0010545785166209548 0.0006774164849947877 -0.003988019297320572 -0.13451059179049699 0.19531585900723758 -0.6109736553821846 -0.6032132010321919
30665620000.0 0.021797624590380794 -0.880333867913045 -0.10660236978361261 0.03458620349707738 -0.0009029351733565999 -4.776962927212483e-05 -0.003906947741838056 -0.0006858352293962448
 -0.10831160359495993 0.033101984920429074 0.022095664259391544 -0.8809196118157075 -0.0028776491917598345 -0.0005559607273961219 -0.0008195467049722707 -0.0010324475618156933
 6.448921870921706e-05 0.0026672830152440668 -0.004136960565993057 -0.0010339222756876978 -0.6069594558729396 -0.5382608862736544 -0.15740269389271697 0.1905832383226822
 -0.0013427785372523916 -0.0033060701814753173 0.0028994822514167994 -0.0003474818554922977 -0.15207853868261437 0.20520982844696808 -0.6088705528615187 -0.6400298953336399
30735610000.0 0.011852418431410057 -0.9042608261887085 -0.11093077503860756 0.03197490152168611 -0.0028069107296861654 0.0015253287894351028 -0.0016026770802040472 0.0013474915998118956
 -0.11093278025202194 0.035507728401469374 0.04326985210958672 -0.8991901799147747 -0.0051339964800366745 0.00027967394839969084 -0.0041733636475333 0.0005484926870944259
 0.00023817652118463464 0.0006400280656341646 0.0001459810976699177 0.0016060901940204695 -0.5942370307255287 -0.5343177120379768 -0.14429149327129315 0.19955003716295242
 -0.0006380812505855223 -0.003070247136663514 -0.005165930930887861 0.0009091081663090841 -0.16827075291868474 0.20420207582486383 -0.603209129966333 -0.5908627858495475
30805600000.0 0.01384472738862738 -0.8925180973604073 -0.11115003271205141 0.03506189387180734 -0.0009042487185462147 0.00040459606812402315 -0.0005590587540365949 0.0020262653493281066
 -0.10803635207047063 0.035719985202703954 0.010531037326654892 -0.8990424795608184 -0.002551294862766696 0.00029571383245334326 -0.0031088576548957965 0.0017869938133197765
 -0.003457715213634085 0.0023781015564816746 -0.000736989085839001 -0.0021788555306268146 -0.6272654699695533 -0.5391944669682032 -0.13991657142632005 0.17664348508640246
 0.0001438573294828125 0.0005906465967384563 -0.0007975057991639881 0.0003495245716890836 -0.13975195744928698 0.1967264488468679 -0.5961813206384496 -0.5936975474786906
30875590000.0 0.009754901110071492 -0.9097754354965074 -0.11354383730640169 0.03482286148375526 -0.0014233864155909352 0.0035668056532681632 -0.0023266259752362057 -0.0005525128213330898
 -0.11405483678042395 0.03540034554653881 0.024463213351817916 -0.9066022587765867 -0.002771902662852559 -0.0008818718416841755 -0.0021991515660462423 0.000782477212590853
 -0.0014940534313787066 0.0008971252817957746 -0.008457420952620495 -0.00837826039285157 -0.5890725632279711 -0.5222185496275976 -0.15013293912113032 0.20263107224001872
 -0.005469425654118758 -0.00024598336992449763 -0.0014572613743878502 -0.00013751311098510085 -0.13344682758934165 0.21300738188404653 -0.6130919145843831 -0.5991191637779547
30945580000.0 0.015299513253258117 -0.9045364977298109 -0.11594599781054062 0.03478039315037498 -0.0030018042416513273 -0.00046447316948358686 -0.0021052985077275508 -0.0008703303477940506
 -0.11481393024729492 0.03491947735182261 0.011135462514201729 -0.9227690094742708 -2.5173668297660414e-05 -0.0003301575496129387 -0.0031589256475495365 0.001997229124396446
 -0.0039227626692506755 -0.0023460050710655666 0.0006794152986106403 0.005547296198140895 -0.6187785833866472 -0.5325323744804454 -0.1403300293744556 0.2019422931691021
 -0.0017229594024991972 0.0039053088504217444 -0.0020738097538565274 0.003865759341621792 -0.14597745467815013 0.18792398544829622 -0.5950487664440031 -0.6099969868937537
31015570000.0 -0.010074290228514938 -0.8976377949718978 -0.11219858148196955 0.035287827470580305 -0.0001529838423327044 0.00026193058695552364 -0.0027108958849982115 0.0027968902646970254
 -0.11286569939344855 0.03602329516376919 0.008061640096868269 -0.8808044708007731 -0.0018215722180146981 0.001331510573404899 -0.00476372357699483 -0.001104855213441722
 -0.0012852152262098464 0.0012374946648243126 -0.0030850552844527966 0.0004361627058759466 -0.6130588018660795 -0.5328562623219485 -0.15338866810900378 0.18457197162011071
 -0.007373195112850653 -0.00199279585275282 -0.00286114227618405 0.000935530247954344 -0.13711237778306962 0.21146891134195825 -0.6151273679066956 -0.5875491970368986
31085560000.0 -0.0009634985885116533 -0.8820000116519258 -0.1153499163754903 0.03587582485681942 -1.2179440211799779e-05 -0.00039991222834714327 0.001250520240598555 0.001416672832420169
 -0.11335696647371335 0.0368870395354678 -0.0006857664602914298 -0.9018020732757184 -0.005737118472668015 0.0011095101550729035 -0.0025764381493041904 0.0012713078759619735
 -0.0008013382273927905 0.0006601331152404744 -0.002652247959088294 -0.0011511942434449514 -0.604296513452149 -0.5086936941350046 -0.15110648874087634 0.23138794898128218
 -0.0029688487909469824 -0.0010548713172570255 0.0011751444793234869 0.005184109478709239 -0.1253161793300134 0.20170925109763158 -0.6020337754948542 -0.5916995670422399
31155550000.0 -0.0050001191886535805 -0.9097581517679372 -0.11539789767488873 0.039034219662616776 -0.0038099594115996406 0.001673089770648399 -0.0050108828306829984 -0.000954544695500494
 -0.11506673982948294 0.03885283523820635 -0.004447887043293006 -0.8990125092429778 -0.0035978816426281146 0.00043467793383401376 -0.0007685884180340187 0.0006071949685900006
 -0.003485806612838093 -0.00033494502158446367 -0.005440813639738637 0.0016244175156880194 -0.6098559108370705 -0.5070911748680954 -0.14542724229585577 0.21294796863015783
 -0.0002616015089104861 -0.0004114430097873091 -0.002346010762400492 -0.004262389421237582 -0.15825977113189546 0.20554531428626924 -0.5885280732924915 -0.5881070820446421
31225540000.0 -0.005614757664566871 -0.8849759312673633 -0.11319238061470333 0.03718292693037163 -0.002378712471130959 -9.242037393807854e-05 -0.003710606959728358 -0.0029804628026436925
 -0.11564475675486519 0.038886406728690835 0.003789053022624363 -0.8796766642109696 -0.0038616685519079347 0.0014525443091919327 -0.0030058536735101614 -0.0010597843586565502
 2.1787358347784548e-05 -0.00363440395576878 -0.0010916903292675728 0.001845925476394092 -0.6047568243568079 -0.5027602768857817 -0.1455033538054693 0.21825888944180777
 -0.0011345825113486206 0.0004910529306238925 0.0005038443604877717 0.0008087834836524905 -0.14593461373401076 0.20478097071581075 -0.6423487660481391 -0.5831494244595902
31295530000.0 0.0014865476761795765 -0.8911155982677266 -0.12072275934581321 0.03915579633169522 -0.001982299911647784 0.001324155156049914 -0.0014739869994497992 -0.00021919747898244596
 -0.11699008541174195 0.03791353223203534 -0.0158330714644842 -0.9062240328454679 -0.0032851238703347258 0.000619014585549077 -0.003438031565610761 -0.0001940457134323946
 -0.005345110477668892 0.0027243276924092752 -0.006126826007714683 0.0012873280326614353 -0.6069507728392678 -0.5168314776232601 -0.14005920834659052 0.20064551157646143
 -0.004917525582881933 -0.003237845610129617 -0.004982972649800919 0.0005864404472229771 -0.12374670134604558 0.2147387263841854 -0.6351939096475678 -0.5707438806852562
31365520000.0 0.007628173015358122 -0.8992646994352633 -0.12149198513298638 0.03727788589443556 -0.002816255551472599 -0.0005281010726399404 -0.003571028571062474 0.0011543538213863844
 -0.11971607939972606 0.03814734528102345 0.01200035560370834 -0.9032651213918016 -0.0003134674867593947 0.001537445237808407 -0.0038452043735159704 -0.0031334356993664445
 -0.0011970724493409503 0.003678529489999207 -0.008221990781321022 -0.004318454073671777 -0.6406321117687728 -0.48363679016151717 -0.13034599067448338 0.2163842974799391
 0.0012606285118261537 0.0009438978811832298 -0.003728602907993046 0.004573087540075073 -0.14686710566725034 0.19179917774563424 -0.6597165072193945 -0.5630888025467845
31435510000.0 -0.02515536719588178 -0.890519013949508 -0.11905366577099245 0.03836473207430758 -0.0009794713605359153 0.00019172617869648778 0.0008050635846597944 0.001528959071929138
 -0.1197965384386301 0.040390720961466085 -0.0037313124287279365 -0.8889650244236881 -0.004008771053922395 0.0015302797356240498 -0.0019131559232153604 0.001180971159323678
 -0.0019596926032088733 0.0013128461113246807 0.002046033886915205 0.0004992592509527395 -0.6140365356068441 -0.495318176097236 -0.12815932774589292 0.2422164314897672
 0.0036810062165694977 0.0012400336279418465 -0.004632672128400021 -0.0016570949718663463 -0.14039941404214834 0.21395407741292927 -0.6264915106883492 -0.5866789187718225
31505500000.0 -0.02670005796858064 -0.9045754070617196 -0.12030381878656132 0.04055567640082633 -0.0022625211334331655 0.001425921907180773 -0.0020721324494092064 0.0014245685310140164
 -0.12257763948981065 0.04077211407400946 -0.008809190956590544 -0.889409059611206 0.0007581362887110101 -0.0011218465843538198 -0.003508558446689926 0.002572129559252442
 -0.000868020095925386 0.0014709861288624267 -0.001533999875382983 -0.000775924494436126 -0.6149576045297728 -0.47647903807731284 -0.14754536140400457 0.2220315827087819
 -0.0029016232674415852 -0.0017929326839706296 -0.007779617195314207 0.004345493649177282 -0.14903258663745053 0.2152119294693899 -0.644534485116402 -0.5983684567446943
31575490000.0 -0.013666258782209515 -0.8810922177606043 -0.12279843348189969 0.03838245127895111 -0.0038492555343251 0.0009650522725646308 -0.0032646501096081294 0.0034857899632730616
 -0.12183073469655774 0.03954171947952005 -0.013781934586067102 -0.8931642850154956 -0.0032601924782452354 0.0016431224410407886 -0.0025016413363664345 0.0004658515373113779
 0.0026804604973109814 0.005888647569077699 -0.006888450470594362 0.0038561700291631605 -0.6481841415436259 -0.4894180228823375 -0.14716400128233112 0.22010924696342227
 -0.00533888603611108 0.0031370172461665257 -0.001846729138013065 0.0021424708198594785 -0.12681395506041232 0.22246654521026327 -0.6393453497920625 -0.5671885404659961
31645480000.0 -0.007881890415722724 -0.9007610206123021 -0.12246060853225417 0.041626274955528286 -0.0013934890551399487 0.0014334767451808397 -0.0009733835398838068 0.0014132677772868848
 -0.1240088156432349 0.03947564629127375 -0.029616591404013768 -0.9056648436724501 -0.0018765132960054842 -0.000799363531348423 -0.0046054284525409335 -0.00017236667052986484
 -0.00422842077780719 0.0020341471637559407 -0.0021425517007927835 0.003280931864920397 -0.6345849516484628 -0.4757034399173123 -0.12804624253435198 0.21472884010494986
 0.00020332299636675657 0.001441813585352032 -0.0062336283632162 -0.0014230891491416023 -0.13821170257662152 0.21503992614059786 -0.6146034278648863 -0.5644524477083914
31715470000.0 -0.012442310111425851 -0.904077279724283 -0.1255451568522862 0.041925215497806756 -0.0007973169842330985 0.0016596071186240093 -0.002090848640081278 0.0012364850347666627
 -0.12338572347974608 0.043068170896084335 -0.02245032033533654 -0.9165524802379073 -0.0029029181368867797 0.0018795706842812969 -0.0014928288201098046 0.0009200833172045101
 -0.0015409483391856484 0.0011123648739209675 -0.0007558653280706647 0.004079436677013804 -0.6134744309739243 -0.47834766434213716 -0.14486656197140935 0.22193771065001175
 -0.0008202364126991132 -0.0007483384602741601 -0.004182302199566655 0.0009990265625261657 -0.1406535064818326 0.22002258311269496 -0.6321616294781421 -0.5185561121836793
31785460000.0 -0.03778547370551711 -0.8867555907852938 -0.12283334518163913 0.04212400661412082 -0.0011142002413092541 0.0003000648321128395 -0.001312236501172558 0.000390848074615369
 -0.12350131565073491 0.04365358939826494 -0.02663167733235321 -0.9052159116683415 0.0016820763562303623 0.0026680320819737037 -0.002696103965717096 -0.0003119832523162288
 -0.0031955212892042046 0.003670873624815706 0.00012224980769428589 0.005750059896816473 -0.6355152089520367 -0.48045158028255713 -0.13528610377457967 0.21713075233960513
 -0.003503690383956574 0.0008390729021425055 0.0018571276466797404 0.0013618483628447494 -0.14762253336149508 0.22221585796459548 -0.6435688963914098 -0.5592704198637374
31855450000.0 -0.03883474496681125 -0.8803543379127043 -0.12517087601507002 0.0450916828744712 -0.002358702212513873 0.0004944988566027462 -0.0017086992951398875 0.0006892737523281055
 -0.12419812776480536 0.04303222072796835 -0.03885717484867416 -0.9032518348146261 -0.0009615967486259928 0.0019328785167889268 -0.004361068531235834 -0.0016335564737041557
 -0.0014248764571917183 2.8324302971245285e-05 0.0013901714712789958 0.004493369710515513 -0.6420808987578702 -0.4750142936039826 -0.1295934061814845 0.22349112774471663
 -0.001345166006996202 0.002973910465612204 0.0001571133540771108 0.002801842844949634 -0.13573721899011573 0.22761097227231067 -0.6380044325183742 -0.5796972229972709
31925440000.0 -0.050694605354898 -0.8949680432471303 -0.12631959613428145 0.04792856700507153 -0.0013211954286260358 0.0017500232800477947 -0.0008992308954929076 0.004269889482649523
 -0.12765353185580294 0.04616961864303517 -0.04351983535727575 -0.9072776531888298 -0.001662156887730614 0.002367486077850576 -0.002983884364418976 -0.00022649108923099518
 -0.0016388522843903033 0.002244291087519055 -0.00748640563181871 -0.0008918649579208761 -0.6213846211694264 -0.45949001320073196 -0.131339800252102 0.22226936375858825
 -0.005102745074609078 -0.001639284844283724 -0.0020331252068124454 0.0019391796851811445 -0.1233171403157331 0.22612328998973844 -0.6429007768417057 -0.5521449422670359
31995430000.0 -0.04736653781246024 -0.8935836603091549 -0.12763906844393128 0.04557728333446912 -0.0018021682149482624 0.0009417583167971438 -0.001776496836557471 0.001455755268832298
 -0.12572930815569655 0.04648099459417699 -0.05598771221217077 -0.907548188952763 -0.004324812215968122 0.0014528220221710505 -0.003084838319315673 -0.0010629599191480721
 -0.00828213792690909 -0.0007678587449638178 0.001020381002236649 0.0027819774412202194 -0.6413841177878261 -0.4636366994603696 -0.1259294110224814 0.24561494388673055
 -0.0010910972216139295 0.0022722861434866064 -0.012093563923799918 0.0015359433048631578 -0.13704536993236735 0.21663195451125772 -0.6269181370881358 -0.572278377561191
32065420000.0 -0.02743829703566833 -0.9051009508570382 -0.12872482277892203 0.04585380959965532 -0.002393009128954623 0.0014992409393054656 -0.002559134355570511 0.0030367454511018707
 -0.13109218310326043 0.04445132427682963 -0.0374568831786614 -0.9015163282666685 -0.0017007423392623026 0.0018759930168246541 -0.003241199798237087 0.0010539552677225983
 -0.0009502398649759229 0.003505345238183299 -0.00046015523549476606 0.00507174969044462 -0.6469529312972608 -0.4334865187072139 -0.13587820446995014 0.23581726751154122
 -0.0028594640541258934 -0.0007680100412921756 -0.006403778485537706 8.604342874081861e-05 -0.14267062936343453 0.23685536199451906 -0.6434705286181069 -0.5498069241698466
32135410000.0 -0.04075047501970486 -0.897893121103479 -0.13067681624055125 0.04398674818579017 -0.0028864317108702685 0.0012154669362396348 -0.002938951006381744 0.0010731599499234636
 -0.1310971867622254 0.045374947712478894 -0.0272141171704008 -0.8978974251420807 -0.003487939578352924 -0.0002973110504272769 -0.003955460482316268 0.001604127798069852
 0.0015791343603824394 0.000538920921506617 -0.003784467475080238 0.0039933532918958875 -0.6357458170801268 -0.4481304311415423 -0.14816739226589473 0.21922618260699253
 -0.002898041945212882 0.0015529918403595505 -0.0034226871697858726 0.000335241577115539 -0.1330458819586671 0.2328131376720352 -0.6526921800020636 -0.5232735945988873
32205400000.0 -0.05311101081279088 -0.9021460285608337 -0.12904613855382505 0.04701359460729688 -0.0011241121101789773 0.0012595806878253296 -0.0015039952700359447 0.00229855581365112
 -0.1304009080171122 0.04768511920714399 -0.04813086448395645 -0.8939143629351701 -0.0023133172917246757 0.001454496650377855 -0.0036181201748214 0.0018079353086522644
 -0.01022036875560428 0.002378692783664862 -0.0040275407741596535 0.0015635226943546956 -0.6477942175650078 -0.46902475427714635 -0.1290950441464513 0.23077647849943467
 -0.0028290770479755234 0.002196387428277911 -0.0007988953056543571 0.0036477581568923976 -0.12509337386069477 0.2296539197416012 -0.6570339588109144 -0.5127571018349768
32275390000.0 -0.04396649897289955 -0.9003420548340877 -0.13166141236361015 0.04737922181711883 -0.0017306311208356582 0.0028888469563653763 -0.004753187330348648 0.0018031651764638034
 -0.1330731410222822 0.04778338361088516 -0.04340501858277294 -0.8837686483537859 -0.002274902180606707 0.00048497726373104036 -0.004937345558942845 0.002489113349083921
 -0.00033728671533830065 -0.0004732130876612094 -0.002477842362564918 -0.0016928308613068917 -0.6530203415029978 -0.4243227109850609 -0.13929028337091123 0.22770856731816197
 -0.004810328548164248 0.0034369662069010584 0.005510067121394548 0.004829317901699615 -0.13023005263847712 0.2566608179319444 -0.6880757748567113 -0.5429338770546717
32345380000.0 -0.06227055087336926 -0.9120029233578827 -0.13068207001581134 0.04887068279197962 -0.00012529912147968026 0.0015216264221173334 -0.003222505135712699 0.0012239475379837701
 -0.1343230645246527 0.04901335458921262 -0.04355209823317532 -0.8816190691840621 -0.0033797782456277937 0.002055260576114623 -0.005351274292583494 -0.0001609254294766501
 -0.0024928620975298364 -0.0002116889365957372 -5.981011502233956e-05 -0.003395444480679567 -0.6515769138193971 -0.4052144101120733 -0.14522841813194623 0.2434258376345719
 -0.002465599728082768 0.0020605379265178432 -0.004776643616183849 0.0010388570908152772 -0.1374267144672799 0.23772237665863744 -0.6745518786026188 -0.5571044657487754
32415370000.0 -0.05502263993015242 -0.8885660203195708 -0.13316822311059445 0.04746202602076778 -0.0014666322694058683 0.0013906489708597754 -0.0007470034406216678 0.001481866793863146
 -0.13346735769671286 0.046037807554137285 -0.0484052906662139 -0.8902045091413948 0.0011195303667954294 -0.0002587702135714386 -0.0031692273484966497 0.004125832251002759
 -0.0015978279443005596 -0.0008828963896309384 0.00020258307388039312 0.006881139665283377 -0.6577242747668337 -0.43120323396841803 -0.13027613518321887 0.24623479326731737
 -0.0024159870869581764 0.0020784655882068433 -0.005206045770625163 0.006102437691510569 -0.1231702152376058 0.24131124320390165 -0.6796915974343017 -0.5374105128683515
32485360000.0 -0.08567510325209239 -0.8839336155261873 -0.1325815222132736 0.04871456919437206 -0.001110579017684222 0.0022654023835515786 -0.00271631282810816 0.0026392490382210385
 -0.13253182141480155 0.05107600342503975 -0.041716803598159505 -0.8805948982445029 -0.002787770244671046 -0.0006953327635269309 -0.0014744461745873846 0.0015633973504964403
 -0.0042646478041614665 -0.003956316445654011 -0.004389970597156148 -0.0026932663940096033 -0.6486992368623498 -0.4322067097144857 -0.11638694493243133 0.24323524652554518
 -0.005057479874923666 0.002957508101120691 -0.005630129852023951 0.005461122419250758 -0.11732459598789102 0.23231258742415173 -0.6872424097982697 -0.5157055315853041
32555350000.0 -0.07840311140387349 -0.894700242460206 -0.1367835459858758 0.04958192684721816 -0.002872117175547162 0.0026859595838751907 -0.0019268315992113944 -6.710798870458448e-05
 -0.13560934194927218 0.053162740984816895 -0.06389228307953879 -0.8929386045106232 -0.0018540022655546275 0.00254015214508275 -0.0033888443904608084 0.002383239868294885
 0.0027110904154174897 0.0007347032477787832 -0.007619780041305447 -0.0005726666557512387 -0.6268646591018117 -0.4428715869669494 -0.13238322116680426 0.23880501066504986
 -0.0006345699862842425 0.004078677567793276 0.0004617098835104358 0.0034202072776898513 -0.13748744603923926 0.2251663568390037 -0.6589404326659573 -0.5084241668334373
32625340000.0 -0.0798358722285636 -0.8818010254499524 -0.13640957415430036 0.05261938945649172 -0.00215318238028811 0.0005296095530306635 -0.0036492351930877496 0.0008577818998015979
 -0.1317508219951643 0.05219682682541767 -0.06771571539945608 -0.894237803577108 -0.002456659213522908 -0.0009885171075333975 -0.004231978050828873 0.00222740963293709
 -0.005146145948623921 0.0016151805364147402 -0.005135715235170297 -0.0015718317047360905 -0.6626585279889834 -0.4411233312108474 -0.12021882920137014 0.21338017348181726
 -0.0034104749333129566 -0.0014492696953554707 -0.0063346916642656875 -0.0033804640630613644 -0.11452938364108421 0.25717076625926305 -0.6638615619638948 -0.4825750811457036
32695330000.0 -0.06670682138030973 -0.876622752366007 -0.13575374716203187 0.05291125204400179 -0.002599854729330518 0.0024047792871471126 -0.0029289418170428735 -0.0008009985835971206
 -0.1365988902243715 0.050553858177173394 -0.0714099560138986 -0.8857669519018797 -0.003124491092859352 0.001264209972322888 -0.005129200306512708 -0.0002824206409706866
 0.00015981645182587645 -0.0032108290921475063 -0.0010458242614361701 0.0012989129473100298 -0.6730511717495169 -0.40700922786197336 -0.11529757030413582 0.22588448198863864
 -0.0023739400408090234 0.007935846527118111 -0.002906380419944404 -0.005757175292957124 -0.12693310966793417 0.23094870864502798 -0.6392094818809725 -0.5227883338223552
32765320000.0 -0.07597707799759292 -0.8918913873337739 -0.13837415363664354 0.053536809909506454 -0.003829684969001441 0.0016503848124787234 -0.002484647402507512 0.0012872312492759677
 -0.1351053444497341 0.053292697454090966 -0.0695794129110913 -0.8860931587031241 -0.002998891303956019 0.003352911267478384 -0.0035409862655932803 0.00022580800467911002
 0.0051038702552508135 0.0018590894786737868 0.0007368652012673758 -0.010710707491881077 -0.6554947444368145 -0.43288753770075794 -0.13576762333317977 0.25526867082075533
 -0.005580245146764207 0.001057888797807526 0.0011767147923338046 0.004762040030065074 -0.12076424648743499 0.2550937537833515 -0.6989102557619045 -0.5081590003917342
32835310000.0 -0.07755154040683515 -0.9113274401609704 -0.13723501411719588 0.05166527479978918 0.0005531198167296175 -0.0010220568349482769 -0.0017987359384584094 0.0011937518695249844
 -0.13952205994758363 0.05396861559118665 -0.06559996795281084 -0.8790816007419111 -0.00034982772105056586 0.0008250471292579315 -0.004713091493157469 0.0007418348956944002
 -0.002879678532929508 0.005303200401627168 -0.002057998425384619 0.007619930757025441 -0.654264841371264 -0.41221193035953535 -0.1438441740353507 0.23220136169246428
 -0.0040843347166268935 0.0019103917378009217 -0.00040788757556245393 -0.0005992991950984279 -0.13735686295474972 0.23059302087170072 -0.6892950462958537 -0.5262247065233688
32905300000.0 -0.07905426367649132 -0.8729474632711295 -0.13608282349291373 0.05616905419014412 -0.002433593416632373 -0.00034599196356538913 -0.004491110446565345 0.0011642653418132464
 -0.13459124805226566 0.05333301356186636 -0.10126506390082911 -0.877518197881154 -0.0030724648616659977 0.002160670561733091 -0.0033927693829035733 0.0018105962092459156
 0.0006896297271823562 0.0009217343863493227 0.0009825835513155587 -0.0031657393920855974 -0.6740368669992765 -0.4005082251264156 -0.1262625700730853 0.24426407109884476
 -0.0034472947911761125 0.0019872012025356533 -0.0008043609998035062 -0.004313594034205274 -0.1400519004312343 0.26120882661935513 -0.6356357553790867 -0.4575164751784901
32975290000.0 -0.0815738892518461 -0.8951656136999308 -0.14213689834473162 0.05515838404881764 -0.0011309639115712918 0.001621826024235771 -0.0013954755856478672 0.0029709049950664593
 -0.13806228003743537 0.05595660686699466 -0.08962841272319516 -0.9086225048925977 -0.0046326137533837875 0.001348126044429666 -0.003706681937716469 0.001072654625923518
 -0.0012177897804332588 -0.0008454658469902723 -0.0029817710141923424 -0.00030971406974141224 -0.6807996222684698 -0.4101953200651918 -0.1232171162508624 0.2578920592227848
 -0.0035317270185135784 -0.001496401939198478 -0.0022783890036125703 -0.0009403963371751984 -0.12576136314465544 0.24402903968495757 -0.6586956208567665 -0.49727179400741595
33045280000.0 -0.09136398734334972 -0.8904258176481007 -0.14032574202602452 0.054611993749273974 -0.0031885136303052017 0.0010508650016524818 -0.0028576014047260925 -8.293972262885817e-05
 -0.14032574939785494 0.056648280905106804 -0.08371165807138134 -0.8815091146526086 -0.0007894496040356032 -0.0006019962776430175 -0.0035373884497791838 0.0024081064295071344
 -0.0012018586599284512 0.004124676470376548 -0.004122050127648157 0.004255943834481167 -0.6458778297893575 -0.39482752170892466 -0.13720557426006974 0.26582296172895803
 -0.002389311474392009 -0.0036816924577066906 -0.004313642875698854 0.0032565634348669876 -0.11835834272915917 0.25364342796870915 -0.7001628361471076 -0.48996250636870803
33115270000.0 -0.08971052507312195 -0.8645452604700756 -0.13798836176000215 0.05446999228804152 -0.0029012551713550275 -0.000431090261587834 -0.0016117756770924682 0.002294482325498843
 -0.13882790021908775 0.055930365829454286 -0.08083594878208555 -0.8828987315513174 -0.00028417263439338913 0.0008036553902201167 -0.003039854631845893 0.0001229062412146314
 -0.005074910055211046 0.002104442175374089 -0.003944659735167591 0.003935912065153927 -0.6870645371598735 -0.4190486389267527 -0.10979940615801295 0.2515482547105056
 -0.005137540332872164 -0.0003223624392231278 0.00234991324432351 -0.0020290821868842075 -0.10534079053431583 0.2554417698553798 -0.6992787002492575 -0.4670859881361032
33185260000.0 -0.09323918666278248 -0.8951087832978184 -0.1434772300891334 0.05602628487592199 -0.0001736657031065542 0.0021265253563671305 -0.00233296290006799 0.0024671598496386364
 -0.14573770769036584 0.057520175614829396 -0.09402570687781477 -0.8776417450098807 -0.002210157463447798 -0.0011329278285089207 -0.0040492476802225395 0.0013658466030106093
 0.002314037202450291 0.004324073159882019 -0.005735532631518183 -0.0024846968427197926 -0.6580122062404333 -0.39610550055446037 -0.1293464350233994 0.24220771796442908
 -0.004277747894274561 -0.002339689547556766 -0.0005026311179955579 0.004773663927642893 -0.13449461029367005 0.23722548106535662 -0.6874635457065726 -0.4934816023012644
33255250000.0 -0.1029146458197932 -0.8884846796840802 -0.14221387314635495 0.05949518473063173 -0.0008860870174996236 -0.0013392595640683196 -0.0015294549769193035 0.0004276415948917061
 -0.14335337324762862 0.05909829063048423 -0.09738806896371116 -0.8832919024139446 -0.0022958644230090344 -0.00021932772331628036 -0.005718612883317755 -0.00010290381464055352
 -0.0010501874088915514 -0.0014888845037851542 -0.005236808809704728 -0.004536970054175787 -0.6901715207461611 -0.40437088726585785 -0.12679240200966804 0.2321640624228718
 -0.002537792678482266 -0.0013443556343918817 0.003910032972868144 0.002738181379929326 -0.1257942710248115 0.25112762245227727 -0.7140168733508075 -0.44761719281148765
33325240000.0 -0.10876408140628346 -0.899443944413533 -0.1454243899757948 0.058864241288506744 -0.002749374167716242 -9.887379783900013e-05 -0.0027997379207539783 -0.0015524503071562808
 -0.14768190798032835 0.0605657535229482 -0.08473417640485448 -0.8921905067440077 -0.0023513910867197997 0.00030959573499868655 -0.0008257849375448511 0.0027184900052186606
 -0.0022675065845918813 0.0011864973469356364 -0.0021664214048951664 -0.0026061799000120646 -0.665504929994999 -0.3673436033944746 -0.10832881134274998 0.24255360171415366
 0.004622866275056673 0.0012927507008298937 -0.00884371864014587 -0.0002644529008825111 -0.13813910228833287 0.24367654007214734 -0.7219195476693522 -0.47176694492394333
33395230000.0 -0.11638943548475437 -0.8704729030153034 -0.14222871177226412 0.06128808830219298 -0.0018899840264772622 0.001432736324876842 -0.0016895156310916372 0.0023900428487068958
 -0.14120670419503245 0.06238794488725461 -0.11610136646941403 -0.8783635575165364 -0.004412342003476809 0.0033062255207685826 -0.005335872050733263 0.002588681925253624
 -0.0010455190417572207 0.0040317184402796245 0.0005669118851738617 0.007946908899286804 -0.6891440942015642 -0.38591079684505697 -0.12398111278798282 0.2447325455437418
 -0.00031131457650122077 0.004294741254805174 -0.0005730785572406261 0.005988930007426975 -0.14203955087603615 0.26706219868308956 -0.7038355340431645 -0.4589208936126715
33465220000.0 -0.11239560568424287 -0.880152797754232 -0.14491300385589143 0.05787336325346919 -0.0019468026712699015 0.00046171891613560316 -0.0007477322431488313 0.0012866068974037843
 -0.14423665970698904 0.060546214313919364 -0.10370209251032414 -0.8834458228654409 -0.0010454851933820845 0.0014264883176839066 -0.0031827192467625753 0.000528237021939904
 0.0033415757572332525 0.0016102703501870805 -0.0036730778999776773 0.00021982298429030852 -0.6815714268491477 -0.38839894650891754 -0.11437585407483221 0.2580891914298853
 -0.003517221168148831 0.002543079040187754 0.002164927890598487 0.0036191626493445777 -0.12770946989410595 0.2509600472226656 -0.7306687833995591 -0.4309655706926966
33535210000.0 -0.1074528274364787 -0.8864232878581244 -0.148574471165152 0.05838819034320889 -0.0003932581750822214 0.0003460333721437799 -0.0039908322939418706 0.0005632900871981599
 -0.1457013545706533 0.06332402849429647 -0.09330568528381251 -0.8804487275165938 -0.0028777526934155645 -0.004588206833610975 -0.003979029951022082 0.0024918814195072927
 -0.0012910642055480308 -0.0001743223989898649 0.0015301637515363472 0.00246068240687418 -0.6656487367638043 -0.3615140546306433 -0.12980049337277585 0.25769176217429474
 -0.003125501591279294 0.00387191379139962 -0.0009136485446299237 0.0026508576899740293 -0.12648433726156796 0.2639092460880656 -0.7304868216937089 -0.420595003709848
33605200000.0 -0.1264088522875242 -0.877343571101796 -0.15012787983748452 0.06568632399978094 -0.002396315786212656 0.004426407610967563 -0.002668203063890928 0.0012219930751059724
 -0.14695793173389676 0.0625364990648726 -0.11663838314685655 -0.8899651208000104 -0.0037489138982805784 0.0012609423950527745 -0.004829312678189472 0.003055289303467069
 -0.0012994009402286912 0.0051563314749461416 -0.007146522608946805 0.001727922376396865 -0.6871919340010944 -0.3961126362852851 -0.12316320617373264 0.24078251890078364
 -0.001145210790626246 0.0019168088503386093 -0.00781799359772917 0.00024271284034071118 -0.10736882710966873 0.2632135195717191 -0.7151988633509947 -0.43574924534473736
33675190000.0 -0.11448002952802096 -0.9090646276568354 -0.14947704196545128 0.062329977583891145 -0.005206011780632059 0.0008826807410398336 -0.002748081654045139 0.0013080075530261567
 -0.15227590255783868 0.06138623613639326 -0.10649263600056287 -0.8850285567041423 -0.002925617923221948 0.0013144811436633813 -0.0051614446343129245 0.00378359980799252
 -0.003943055114400666 -0.0006193909350061319 -0.003942135830744382 0.0023511877200100752 -0.6759117273380139 -0.3538975442680208 -0.11806247543616653 0.25318464193008916
 -0.008373871786128608 0.0016383658278324414 -0.0004903878719319624 -0.004156397874604425 -0.11256155582779412 0.26379225399340706 -0.718373153616891 -0.45889252837895933
33745180000.0 -0.11789119019624447 -0.8711770840495824 -0.1463746337198968 0.05920130943764059 -0.001027011469304823 -0.00046133105029600824 -0.0014705567199465178 0.0018259931797611302
 -0.1469079783990644 0.06018995800810035 -0.10399780472105989 -0.8684836448944301 -0.0003320182229808426 0.00033234173100078106 -0.0034607009673493566 0.002455022216819109
 -0.003924480076479824 0.0007730043730324546 0.00044919814481257935 -0.0011847369277102843 -0.7032864546548561 -0.4056106706112469 -0.11488714974112975 0.28012242353009786
 -0.0036835754923756586 -0.001036079296790372 0.0018475765241644942 -0.004697136592789489 -0.13417403060459443 0.2598172150520166 -0.7402728009589502 -0.4771628727915758
33815170000.0 -0.11716916561984418 -0.8937571825858928 -0.1457598120354945 0.0631474990489272 -0.00112456923924816 -0.0003217748115336427 -0.005195847479586114 0.0016314374689818903
 -0.15122710645974277 0.06250893769108211 -0.14331877643552413 -0.8525265823218988 -0.002902755392208689 0.0015947610432286063 -0.0025552617224511346 0.0022877671805082594
 -0.005339827931421184 0.0017489668668018313 -0.003719730078648222 -6.135641633027338e-05 -0.6903024098276547 -0.34431951948726347 -0.11055881021883367 0.2498844799405101
 -0.003578334640562849 0.005232233519550646 0.0015420365449577832 0.0034528616782122028 -0.12781204938924787 0.26620252042124026 -0.704433450109222 -0.4466263661035383
33885160000.0 -0.14239068387368486 -0.8876681534048491 -0.15257795660762036 0.0626881799617504 -0.0010174078823778387 0.0030897012186932656 -0.0033849926785133435 0.00020919363558580777
 -0.15151966667037003 0.06765428662188551 -0.11368736151597895 -0.8792403071234127 -0.0014975715896849134 0.002480076108161278 -0.00451164257808183 0.0030421447036551655
 -0.0020765548379841257 0.0007211787942313252 -0.005415948656178688 -0.000913657178038717 -0.6883008407474549 -0.35932118278901704 -0.11256042602010223 0.28209488111404707
 -0.005838355293532111 0.0014641538327713735 -0.004443432198383858 0.000830257423591681 -0.11390932103980735 0.2738812797741249 -0.723737033797823 -0.4291019508376361
33955150000.0 -0.13729919469269944 -0.874369964580955 -0.15225342226167674 0.06656599108480316 -0.002119895322544692 0.001516437166772046 -0.00015085060624913548 0.004477851645262387
 -0.14986588380444962 0.06566333372565201 -0.13249380425969443 -0.8827307453791591 -2.5769678243553314e-05 0.00241409723049616 -0.002228553971248884 0.00014567261565324254
 -0.0005765513884816675 3.995744271135045e-05 0.0019266129562496412 0.0013991893823408384 -0.690490052619769 -0.375261359226711 -0.10932050021782601 0.2741265897860555
 -0.0010776648635203855 6.276242704871764e-05 -0.0021144679090919685 -0.001137562250410134 -0.11025113265836972 0.2859750961148412 -0.7407349001822034 -0.46059704811776014
34025140000.0 -0.16983138080732124 -0.878683839545368 -0.15728272554440087 0.06726626385644943 -0.0009869071867804884 0.0011159547566318901 -0.0012964709266661016 -0.00033678734670754154
 -0.15370999541295952 0.06970847923139971 -0.12866876461877755 -0.9014851545110087 -0.0034709031121411805 0.001690908277003676 -0.004962421282609798 -0.00011439820414471923
 0.00044526190617931704 0.0046044344703874114 0.0010926900781599873 0.001962299632880562 -0.658567642408847 -0.3650515077682444 -0.11331071956350207 0.2713807564504468
 -0.0037364186927388494 0.005954237697106281 -0.008273019214040004 0.0003459900882550236 -0.10099396664745255 0.270343563823387 -0.7112162638414663 -0.4167993674316386
34095130000.0 -0.14035742059194112 -0.8729855759871548 -0.15695905347724048 0.06517285191141627 -0.003224100553468482 0.0031285635341609403 -0.0017458585402351403 0.0022003338902275744
 -0.15396667111400994 0.06878524319039783 -0.11426750648019757 -0.8766423521647662 -0.003606500844085534 0.0008628756302931716 -0.0029653351536318992 0.0024585220659361744
 -0.00023695821411700763 0.00506136981166988 -0.007931299742826133 -0.001633934266655708 -0.6983900919916153 -0.36553954605858996 -0.11188525116079766 0.27864224931121423
 -0.002611324529185432 0.00201964453280748 -0.00458513757158927 -0.0014596455802704238 -0.11347085583713042 0.26345992479798663 -0.7275778506680887 -0.4366113631338343
34165120000.0 -0.14691069362388362 -0.8710565510689304 -0.15226051707955768 0.06719870089097527 -0.0023627903867514317 0.0024125999323703485 -0.0029604410872878877 0.0015098261530909383
 -0.15475377880691005 0.06928695513194882 -0.12610975081880701 -0.8759749293334428 -0.0035644491338070582 0.00022045895986761975 -0.004017238796445244 -0.0008242992021122902
 -0.0012887401152304055 0.0004205058317015803 -0.005447161047033856 -0.00111134658041547 -0.693974213373482 -0.34320498646292763 -0.11851162115153459 0.27848073747517293
 0.0027156457168264737 0.0037616963634550162 -0.0043739318892908365 0.0018079598674215543 -0.12183833794117521 0.27514865821488965 -0.7459309330205901 -0.4408682394351905
34235110000.0 -0.13546185105011954 -0.879897325216416 -0.15433843190742452 0.06906542693009084 -0.0010125833401712487 0.00030677399674153326 -0.0028266562705810774 0.0016170728620842271
 -0.15543965031324422 0.06719035190990424 -0.14070969768896158 -0.8774120933428079 -0.003632061281174553 0.0020750110966620745 -0.0029980619550806276 -0.0005584836630588311
 -0.0076567856124862615 0.004656496921760755 -0.005978964030206418 -0.00020657508014149554 -0.6955036846445803 -0.3419317479384895 -0.12572568720841762 0.2724249068780339
 -0.0002335962199880334 0.002523194723210349 -0.001475736653896561 0.002923972349746922 -0.10451646412000232 0.2769572852467946 -0.7130058723645887 -0.42263688267822097
34305100000.0 -0.15092977785035777 -0.8618477550324201 -0.15643384357224288 0.06553941262772785 -0.0027933063409881177 0.002176628801971474 -0.002397935371672718 0.0017094268622502382
 -0.15492277262086387 0.06624193304859104 -0.12972891934432623 -0.8718332794158329 -0.004338892682948523 0.002341031909064106 -0.0022368810726883267 0.0044215009221668594
 -0.0036775981513329265 0.005286545208403559 -0.0005485351830960979 0.00014797842070865918 -0.70223133460951 -0.33946735481293494 -0.1063705073757465 0.2847720293681585
 -0.0015121273952899317 0.0004841987371570067 -0.0036620655860086764 0.00427049297275172 -0.11009581882565735 0.2676931333473944 -0.7230414118839007 -0.408346138259729
34375090000.0 -0.13441612716101295 -0.8748917365308347 -0.15967031720653557 0.06986214614883957 -0.0015083603769667881 0.0008610794489735329 -0.0030343380103092185 -0.0002859584663540957
 -0.15521369457286224 0.0674817487375932 -0.15105198849682408 -0.8899224908355052 -0.0034228891229976114 0.001637880728365261 -0.000453926463096884 0.0017490690619298636
 -0.004489619956581265 0.005239609909496947 -0.0012951840562569427 0.003776920633439096 -0.7179263359292593 -0.31741587987828684 -0.09916034072892253 0.2716939870260047
 -9.771942614118835e-05 0.002510479872873845 -0.004283812851304462 0.0025976097690283617 -0.11913081441487583 0.2847285630573866 -0.6935252873271381 -0.37613202050796335
34445080000.0 -0.16254929101271637 -0.8822095332437846 -0.15574401121136786 0.07157233687295772 -0.002191025042574283 0.0016705041765680143 -0.0016287559023417607 0.004992625764702396
 -0.16009867498344652 0.07035773721945791 -0.16210565370569774 -0.8679128399930852 -0.002229615109499445 0.0018715788774360718 -0.0010551537622109136 0.0029276595770711435
 -0.004660031366165527 -0.00022511724732564043 -0.006503517724569555 0.004337454752889487 -0.6841424517134843 -0.328369192333876 -0.08365690814218564 0.2743639829774555
 -0.0007210967857571877 0.003974682031107592 0.0010272992475992588 0.0021128437598362795 -0.12261497616212669 0.2762719305192922 -0.7161178069300708 -0.4116163804252748
34515070000.0 -0.14209950230200266 -0.8623470645545269 -0.1587985754482219 0.07356838578589736 -0.0016742795771564586 0.0018532740165224956 -0.004166555796745548 0.0029833899654255936
 -0.15804303779203296 0.06967431483180994 -0.1588742507522335 -0.8611420756271874 -0.0011178703693785238 0.0008098962018610954 -0.0038533686784977 0.002181605123625064
 -0.003859388355209614 0.005304298505682385 0.003566426154872198 0.0034070875501064613 -0.7177251532290265 -0.33772664060866536 -0.11600375291442339 0.2699683716543964
 -0.002286343124681137 -0.000977331081883044 -0.00865220058049923 0.007755927969099456 -0.12532326139484906 0.2725311977097208 -0.7411011585569997 -0.3987382504954542
34585060000.0 -0.1634189403597167 -0.8776683617464183 -0.16071909082725142 0.07203691531869608 -2.037848067414769e-05 0.002584678331385981 -0.0021875384625960454 0.000580881712464983
 -0.16105764178051932 0.07257214313345746 -0.1540944389931233 -0.8750829171384114 -0.00324188659949896 0.0022966666006428364 -0.006405880457997895 0.001173295379630721
 -0.004109643738512564 0.0022203800278050557 -0.0009046546986486417 0.007535713224104888 -0.6950415047693409 -0.3300582166547048 -0.1028515173625584 0.29448683728364405
 -0.007569246813428016 0.00397217410676736 -0.0028759475211096374 -0.0006503331035172477 -0.09891392657244576 0.26447147392151293 -0.7316144737459108 -0.3871247260603352
34655050000.0 -0.15295482139367594 -0.8819837806596242 -0.15977709213486466 0.07403289204179678 -0.003694972223306766 0.005348554479214861 -0.0011133840453546187 0.0026301638198884224
 -0.16348847348578602 0.07312713428469839 -0.16034017398399442 -0.8588342049978268 -0.003234951954493389 0.0038278589643257854 -0.0035625115605656585 0.000972441253350071
 -0.0038337917134854413 0.0026069194454085686 0.00019311194822679118 0.0036333601441884923 -0.7030799931715106 -0.29202492045255013 -0.12417972216795775 0.28272303984040303
 -0.001713966811100988 0.0014058754480280545 -0.004804028878769122 0.00169416922896525 -0.10355816340519178 0.2684637458274159 -0.7264167674298592 -0.40866862367859175
34725040000.0 -0.15293600448287858 -0.8705154825808363 -0.16338268485738214 0.07608212702974211 -0.0008969838769027158 0.0036466709006277207 -0.0009994772832114204 0.001081073224824267
 -0.16127095010277678 0.07336865044000171 -0.17203558570233987 -0.8757238269952936 -0.0012897822794017328 0.003474670972674564 -0.0030693343879901617 0.0031847898929726983
 -0.00541710300042086 0.005374254352220703 -0.0020653914159586527 0.0030242230905941055 -0.7192270668747692 -0.3194822790071603 -0.10563549019818923 0.2846198724887874
 -0.001205399362032645 0.004906361143487701 -0.008335411518124638 0.0006374970439218172 -0.11590864668805377 0.2831083686218857 -0.7145577795731507 -0.3850956661466246
34795030000.0 -0.1609833844949023 -0.8841150451119874 -0.1638888699929636 0.08031670600075139 -0.003969645853009087 0.0038108918819285322 -0.003250136452143218 0.003016040327941338
 -0.16595259022578887 0.07859324920380169 -0.17229643139215883 -0.8768574418281543 -0.0038302238151882253 0.0017006336947200638 -0.0040218098069489325 0.0018726838839393677
 0.00021922046752359336 0.005111789967958974 -0.0021361156572869086 0.00579729814487087 -0.7176118341489393 -0.29176697509965926 -0.08717638415757314 0.2889444104775685
 -0.00118776465250258 -0.0018223192813587464 -0.005118268637736637 -5.142938006576252e-05 -0.11023125583051525 0.28615713244658636 -0.7188893363945633 -0.37653589192224163
34865020000.0 -0.18271091332277892 -0.874061951568697 -0.16535122952199946 0.07746462202596227 -0.001163255502595928 0.0024176170906959472 -0.0030256091670125282 0.0027071743965844074
 -0.16589602925256078 0.07781520851266664 -0.16144565078887624 -0.8802625124894363 -0.005305321771515392 0.0015397119348766154 -0.005329007931086123 0.0013112279676760455
 -0.0025697810597146674 0.006039746447680221 -0.007321401058047905 0.004530532089495507 -0.6827532703799211 -0.306758415899011 -0.11779521704369895 0.28001578006829925
 -0.0006821730844954677 0.0019960561551678048 -0.002390922077259593 0.008092359344916568 -0.12478292345417147 0.26878371590087097 -0.7420141136151207 -0.364169207800124
34935010000.0 -0.18196400083998063 -0.8620641676860349 -0.16319556305360994 0.07626342351133263 -0.0014369825955734764 0.0034841716076087484 -0.0006310743662569904 0.0030537571613058995
 -0.16394138451387472 0.07762850478249896 -0.1638777061464359 -0.8762648483847966 -0.004315093475771207 0.00028951308396207425 -0.0017552020480222888 0.0005025866927392955
 -0.006138873715699741 -0.0027175932648417327 -0.006232531281714087 0.006884720539219465 -0.7015028575927882 -0.2984525545434223 -0.1155429897538852 0.26086417249515137
 -0.002760271982357738 0.00566828210256101 -0.0003550013158805183 0.0041187628854136085 -0.11429235995981332 0.27550989357377476 -0.7445618403812426 -0.35863755747223813
35005000000.0 -0.1993207426658329 -0.8806138840427717 -0.16578513231937586 0.07785887856307618 -0.003396118958633747 0.0009358934209553478 -0.0016455251921447536 -2.7346669710703444e-05
 -0.1678815578758014 0.08299483904571552 -0.17975569424959234 -0.8793317507509993 -0.0016720545710994107 0.0028044413414000115 -0.000503034230668588 0.0008984382163844605
 -0.003095842189326443 0.002274646301828434 0.0031090406080006637 0.005875779276780269 -0.6947936092598725 -0.29194448594517064 -0.10691395151574261 0.2596190172712983
 -0.005213074855055874 0.00038202845503987717 -0.004275829682736693 -0.001999715320225754 -0.11357916409478397 0.27128429959872363 -0.7249838388682809 -0.34745051953099415
35074990000.0 -0.18583906414127577 -0.8730003323507026 -0.16682108933923523 0.08180569566493485 -0.00077514787493894 0.0059073191499087775 -0.0018071446004475523 0.0029806738254606704
 -0.16813608471955627 0.07937095945617133 -0.17970823993745672 -0.8691761969619888 0.0021025687787866727 0.0037852095431093447 -0.007068058648623415 0.003925278078649168
 -0.0036416394277367643 0.0023048274488305536 -0.0019353913351691965 0.008817926916490613 -0.6867436253110538 -0.26944026772764784 -0.10365296862511496 0.318698719578588
 -0.006748654643274515 0.0013288656953522548 -0.0043120545081288975 0.00011058050821586969 -0.09796399142568325 0.2705118964414597 -0.7526282938028925 -0.3709853798503638
35144980000.0 -0.18813895657075236 -0.8702727345814609 -0.1669018647284252 0.08074785142245078 -0.0008812671921075966 0.0023886380265468817 -0.002894685286438336 0.0013467029234232378
 -0.1681925391298662 0.0800162718440189 -0.1721432172892137 -0.858451189259787 -0.0009654546376471223 0.0029833004210650096 -0.0018315808505792316 0.0035740990139074076
 0.0008530175608689783 0.005392965671780008 -0.011611475322762889 0.0008450531362876196 -0.7057090602940564 -0.26939094365966876 -0.11883516719704657 0.3048624722347087
 0.003827677940682697 0.006302298397015638 -0.0012707756240494309 0.005996229349184346 -0.08543072091051189 0.28009206791768226 -0.74680678022611 -0.34853215647495644
35214970000.0 -0.15872126978707052 -0.8762552624665697 -0.16772095056630562 0.08270790830082034 -0.001870814474346283 0.0027233653119376946 -0.0017317855164587133 0.0002070976540579914
 -0.16931138422076442 0.07686612588978284 -0.19162193292733035 -0.8686545289871426 -0.003037794587125901 0.003912535038854019 -0.003791693313581462 0.0037839980628405073
 -0.005331934114123533 0.0015277191793924656 -0.0018514410670232397 1.3536467935227608e-05 -0.723958086414638 -0.2567737662802472 -0.08235912005033558 0.2907333005297182
 -0.0019754230189483394 0.006538750752350493 -0.003661941958569125 -0.0050227517707410185 -0.103944978753143 0.2913304342110673 -0.7431293735218742 -0.3459712584391075
35284960000.0 -0.2077587318008572 -0.8514596846345903 -0.1707076772002362 0.08037843331017618 -0.0010854789724124845 0.0036978849373810437 -0.0024744264242025095 0.004341652061588814
 -0.16749368019378402 0.08471688508151512 -0.17903075183091446 -0.8676406088325664 -0.001357854253543427 0.001854593312408063 -0.002810822102765899 0.001659628302797448
 -0.0006428646339506276 0.0006917321015104206 -0.004839341410908512 -0.00978018653227384 -0.6973958074693707 -0.30781068280221735 -0.09931077606373545 0.2732131110960959
 0.0017569500588646293 0.005951632362515022 -5.8669972659386366e-05 -0.0038908288836817604 -0.09288033978170314 0.2897957233141097 -0.7943345020360065 -0.34849832992705393
35354950000.0 -0.18717446834774254 -0.8507518931545568 -0.1725864268503547 0.078244732039054 -0.0011785089757457335 0.0027830351591759694 -0.002735480044360663 0.0021611660518082933
 -0.17236576925784863 0.08324916932658381 -0.17248760322589404 -0.8630123138907075 -0.0005922853363096969 0.0015295200967836446 -0.0027721178801284586 0.0036908530874550757
 -0.0034003456002684508 0.0014104234433068128 -0.005457778087935687 -0.0017226322777074675 -0.7130702261718681 -0.2972124325648933 -0.07530362454724322 0.27905859221414875
 -0.0017105110182223005 0.002797927605120553 -0.006624309328618171 0.00498099811736359 -0.09989492786912191 0.302116263389407 -0.7680643996554444 -0.3682255832723049
35424940000.0 -0.18575965768673022 -0.8574117537402112 -0.17608465163581405 0.08916519792109887 0.001195581531583876 0.002462803530203705 -0.0008465696309915876 0.002158682665612244
 -0.16776400256502316 0.08652494842709997 -0.22020340382920447 -0.895758493759033 -0.0051598866744089825 0.004871348490939287 -0.007159802551114305 0.002014377102164949
 -0.00014979405467068386 0.003233657598509863 -0.009857787983571982 -0.0014888264858388303 -0.7117897332162278 -0.2777499552239184 -0.10428540201057353 0.28304453021382653
 0.00031558358568010834 0.002476284412656726 -0.002511415157385422 -0.0006017646793427912 -0.07855342373109593 0.28718234174370183 -0.7190775357698843 -0.3232371609825291
35494930000.0 -0.18230189790315587 -0.8522490782359263 -0.16893511357062074 0.07905195034869088 -0.00016204756720294828 0.001633487940118966 -0.004528183485387537 0.0009064395465200884
 -0.16966565087511634 0.08161955416657231 -0.16654932432277383 -0.8379037732036424 -0.001244296155136776 0.002240055773456005 -0.00594646040209038 0.0020867794070033195
 -0.0055853721041589635 0.0017762273316718146 -0.0005429907969739205 0.003299232390688644 -0.7374494222351025 -0.26722085384301525 -0.09745047990400921 0.2950499173292958
 0.0020315681838435026 -0.0006059240394444438 -0.0024986519427066607 -0.002253194118513424 -0.07885915600961062 0.285998036783622 -0.7576576413015761 -0.30582441011854955
35564920000.0 -0.18610389537330635 -0.8520846915380469 -0.1757675131664014 0.08493338467370916 -0.0021488055575884252 0.002666137028262192 -0.0042935780044011055 0.0019549679300131205
 -0.17304597498083021 0.08470844514601686 -0.19334894144114614 -0.8671401233640991 -0.001972736178448509 0.002762388993704879 -0.00014308471062290728 0.0030054976657459685
 -0.002186944289338337 0.0028963526196282017 0.0004271171999817242 0.0028052465791485338 -0.7204818236827876 -0.26827262686503395 -0.099936808384376 0.3148672165537174
 -0.0022950120165155788 0.0016696035145592712 0.0019297182651852672 -0.001087380297221393 -0.09378518074119435 0.2955463320901396 -0.7955689536595483 -0.3513572137186915
35634910000.0 -0.2145637993508606 -0.8495188517239218 -0.1674228450434278 0.08705567863101375 -0.002227099623410543 0.0009245630320815605 -0.0030611284651673077 0.0038424569838274806
 -0.16907834491022522 0.08583214934791954 -0.2243848731108732 -0.8488907056125459 -0.0031216315811164763 0.0038835259093964306 -0.0016234634198006351 0.004385592397559241
 0.000987967910542764 -0.0006560074508358749 -0.0015917234380706637 0.004207198774470539 -0.7136335889370745 -0.27191806614158676 -0.11268256122196399 0.2833617336013436
 -0.005082901413223492 0.0035960453567126507 -0.005077161623280291 0.0026366316670591375 -0.07985467396064587 0.28758019378197636 -0.724130180231265 -0.338828311028194
35704900000.0 -0.1903903924940726 -0.8622704482396467 -0.1746217223963071 0.08910746472938054 -0.0009344082167050018 0.0024753871439950753 -0.0017961606697322208 0.004216952888597494
 -0.17561998993735695 0.08738989244039293 -0.20779778141083433 -0.8564147445473939 -0.0020296095279940126 0.004548809713670468 -0.0029289003661806296 0.005035366245515986
 -0.0045975996007373045 0.002793010921194459 0.005620143021189063 0.00023786691849289807 -0.7163660345628033 -0.22458613393522295 -0.08030574842088924 0.29126422293481036
 -0.00017334456801887274 -0.00043763540012754787 -0.0073410352765545545 -0.0005815939451218071 -0.09037914374565642 0.3219179182502347 -0.756197051587276 -0.3104613005265592
35774890000.0 -0.22067216634523207 -0.848734004047295 -0.17528564008831815 0.08977580242107776 0.0004889207908143743 0.001399154185346746 -0.0015863171138973903 0.0016107577635686755
 -0.16870631587499577 0.09164466715584474 -0.21848833740864412 -0.8632420944847197 -0.004189284736117926 0.00256274366946306 -0.0029282440478865233 0.00450894535507727
 -0.0009506304565977703 0.00015798105911028168 -0.005346169939119201 0.0016844920329856475 -0.6889005738820775 -0.2487368373427097 -0.07498922856977508 0.2935543331153566
 -0.0025697279426521013 0.004238916495533773 -0.007942070383567205 -0.0012645938038421706 -0.09123971555112019 0.33165062551911134 -0.7507848824600708 -0.31940398763605166
35844880000.0 -0.23058403631620975 -0.8491412519450375 -0.17423292203981294 0.0932448061916176 -0.0017975439262642942 0.003513782472552892 -0.004435992746407509 0.00401660257934158
 -0.16986176132742284 0.09414312285954074 -0.21130501599413418 -0.844489846558122 0.0016143737552791189 0.003767582278067679 -0.003828225621344211 0.0015807814711600726
 -0.00685160573675217 0.003791109755173514 0.0019970384073830774 0.0025060035311688226 -0.7369482919291361 -0.23615285735439556 -0.06354977871255109 0.3084859093732059
 0.0028927018040977026 0.006447785612113515 -0.003409117147669186 0.004400952017219812 -0.10171545072338439 0.30098789232592504 -0.7714350610746605 -0.32856445388682726
35914870000.0 -0.23494137036153814 -0.8522462310449416 -0.17356233934924464 0.09414372481023531 -0.00010929516344869656 0.0011318558494378063 0.0007725361486363145 0.005038136579799104
 -0.1766976043898195 0.09505316517530843 -0.23561820638666195 -0.8579091345493646 -0.002280856817494476 0.002233728191281083 -0.0027739746277011673 0.0018364715335657856
 -0.0017921497690888196 0.00022418657223540115 0.0002752311245393763 0.0034329278579015364 -0.706237294574813 -0.22601806141907768 -0.07952560941457651 0.312141617342379
 -0.0023711059874306603 0.0007702863568429906 -0.0031117389725058313 -0.007402715329598438 -0.10317064828228993 0.27453198023903647 -0.7458989097535679 -0.30132334904240565
35984860000.0 -0.21246936453034004 -0.846983316591699 -0.1754429170144206 0.09490397833550217 -0.0024427684841908455 0.0016710584215742662 -0.0010575760920075205 0.0029522341875112676
 -0.17537538408801726 0.09000846853977901 -0.22145972271987702 -0.8587755149202391 0.0003510845477666362 0.003956487942288587 -0.005860899482403651 0.002398879839750291
 0.0017432240834689174 0.0040893700073981794 -0.005924604628994472 0.0019822185012047006 -0.7208066549268556 -0.23928453475120898 -0.07821118521539289 0.30650612725254867
 0.0023940243655153366 0.0047413838071601695 0.004278652609471133 0.006264821753427949 -0.09059880013414084 0.29992067490027163 -0.732531476956335 -0.3170402155423955
36054850000.0 -0.2174483883644989 -0.8307776680200871 -0.17331468972987485 0.08689322292495895 -0.0020391942499460077 0.0019951703293634064 -0.001823251432802115 0.0017318164908534134
 -0.1739143328584456 0.08778188378558419 -0.1998966367021127 -0.8440100750801445 -0.001969600630818497 0.0063528197236286735 0.0015102175443198235 0.0035792612418894566
 0.0008676104856040142 0.0009221961582374461 -0.005907469059466556 0.0044445532380321525 -0.7451524645142696 -0.22265941178513995 -0.09105577862402466 0.32015211257864296
 -0.0031438397274544034 0.0013857465458619307 -0.0005163081287253 0.0009286101918835081 -0.10061256762344246 0.29913862000675323 -0.78995650862159 -0.3028657879676558
36124840000.0 -0.2200758278796439 -0.8412775238065149 -0.17748128396159388 0.09241571342069087 -0.0007108162696030205 0.001638980182821649 -0.001471997134179001 0.004472657990811705
 -0.1791029280564611 0.09173918407845083 -0.20969775138834254 -0.8439565129663715 -0.0032165020205529586 0.004380755721571857 -0.00276240309855761 0.001129836287260582
 0.0021428449436090074 -0.006806660818242149 -0.006876436597887939 0.009857067373804701 -0.730815475142847 -0.20732629536246125 -0.09219057684414705 0.301257804298482
 -0.0013888835748549272 0.0005295383001043549 0.0021481604413931617 0.0017104564127403967 -0.09069043528161451 0.28775589372360555 -0.7766235970787667 -0.2962003410490762
36194830000.0 -0.24816791542224664 -0.8524056481568963 -0.17779471634702926 0.09813702512944683 -0.0015368461213095023 0.0024512634793367764 -0.0020034879523034045 0.002726201499104516
 -0.17791006549033947 0.10013960469946964 -0.2378560685751522 -0.863766542429432 0.003832399544739501 0.0026031204982195112 -0.004300229980553601 0.007178278519389142
 -0.0044891889721673725 0.005571069331421615 -0.0010517513637472954 0.00013530528969818496 -0.7458442885726403 -0.2515087509691742 -0.10010918436763122 0.30603299880924645
 -0.001485780346592791 0.0009546671855270689 0.0034695436705551113 0.012992576959849029 -0.11027125084344346 0.3002371391955721 -0.7686668864388869 -0.29915762035232624
36264820000.0 -0.2413940368402601 -0.8205355308663859 -0.18128281893789946 0.09379996074545682 -0.0006917768558541013 0.0005459718128766974 0.0004268858648927828 0.004952633593733629
 -0.17758868286954718 0.09494823586000525 -0.2297790469880808 -0.853482130671932 -1.952399823107404e-06 0.0002711354106851329 -0.0022185437898089347 0.0022394271456431898
 0.00034362165764419345 0.001593303136287783 -0.007038086166440138 0.004359853890487836 -0.7236172495429773 -0.23268198975833698 -0.091506029540821 0.3140878369778188
 -0.0002225982096841815 -0.0005694542876708669 -0.0020992629480149055 0.005276474702182786 -0.08859622292113907 0.29412188333026434 -0.7514962310835862 -0.2664952333885838
36334810000.0 -0.24553339372235575 -0.8385611488424332 -0.17744427944712707 0.09261977040701337 -0.0011660271782206418 0.004005818499256097 -0.0036334811073618356 0.002022228437005629
 -0.17883826974845196 0.10121767568626687 -0.22083398411060834 -0.8440914670188977 -0.0005346124474144632 0.005292329650639369 -0.004830066164790271 0.0037476906677197793
 -0.0035048850581055765 -0.0012628314040099415 -0.0007309279735182616 0.004788596881034702 -0.7208510816464122 -0.21820074507747989 -0.07996821748757445 0.3131317839510749
 -0.0005216845730385491 0.006542317951837398 -0.008660980940746604 0.006225655174419261 -0.08246578812892975 0.30576759219923955 -0.8051373504402205 -0.2860886310803075
36404800000.0 -0.23878353178000072 -0.8560801982274088 -0.1859209961853392 0.09727070582744506 0.0007457087004183905 0.005219038524540333 0.0011157706718828422 0.0051732579745705325
 -0.18263592776856769 0.0981634027173864 -0.24277788394353922 -0.8630043890205052 -0.0027246315198324877 0.0027230722017774125 -0.0024501572556751903 0.005016010027356888
 -0.001487055686555832 0.002157970067515063 -0.0003994355278001933 0.0012265821078951994 -0.7203678990885242 -0.20241302903170574 -0.07722773636628126 0.30506222780888187
 -0.005107721615584385 0.0010907680895866998 -0.0034893589105538447 0.00706903155457604 -0.08244464639425861 0.31604625725509977 -0.781694866447901 -0.2728637404779971
36474790000.0 -0.23657635702853994 -0.8456969647732674 -0.18129163167214057 0.09641679434451648 -0.0010922025404873452 0.0014785728606641613 -0.004209915933574284 0.001767922174744666
 -0.1849409366643212 0.09810392642756811 -0.2464454315105471 -0.8293063111268242 0.0005207810845346608 0.002298851901224272 -0.003850557176249533 0.004723487767128527
 -0.0008752075290776939 0.007126101389037706 -0.0026353215499562363 0.002459817109884689 -0.7105929722822097 -0.21868025486550782 -0.09838921586641768 0.304899045516797
 0.0010512973251996275 0.0015419447771230239 -0.0008096371829479388 0.004347235918223692 -0.08668524114139997 0.2935605129022522 -0.7650252216658763 -0.29312501164496546
36544780000.0 -0.23551775772821276 -0.8364854711099355 -0.18399142607574204 0.09829881654944553 -0.0008299076620511087 0.003435490128562937 -0.00022409284486939345 0.002328277082484814
 -0.1835047830654726 0.0976028595538006 -0.23597958776254582 -0.8533434871655969 2.9563258949054407e-05 0.004675206708452013 -0.0031645953368230266 0.002894619215321094
 0.0009735681612182351 0.007830701770503412 -0.0011098985262871159 0.004941372125085441 -0.728721510033341 -0.22548639982263485 -0.08227729569733526 0.3081923548766184
 -0.005183678719219669 7.202960237471528e-05 -0.001271923078673305 0.004908441620928277 -0.0784666374061988 0.3141121984022437 -0.7843376554198164 -0.30754281140695083
36614770000.0 -0.2773870209123868 -0.8272706467573131 -0.18817338788935753 0.09913787449850545 -0.0019013305334924803 0.00288592971610702 -0.0025001539238264196 0.004072457865098424
 -0.17792811886077345 0.10188307445660748 -0.238567188821773 -0.857304727357239 -0.001302688237153086 0.0027368074697472415 -0.002229002660825275 0.0038780458288728624
 -0.002213950816240299 0.004699178345932364 -0.006504787787886174 -2.3637042550722915e-05 -0.7297804454896982 -0.20791785534299606 -0.07782732316733539 0.3056318364210818
 0.0006690111043693762 0.009202682052206956 -0.007906582821500144 0.010208437928516187 -0.08716934191339751 0.3050583482861237 -0.7576219706761103 -0.2703001395055017
36684760000.0 -0.24334424986399714 -0.8340796847198694 -0.18542614992250628 0.10221341781871297 -0.0005627770313634375 0.004217553757970937 -0.0016291814973134003 0.00197276781514788
 -0.1834987399544076 0.1047571123487279 -0.2334018813254475 -0.8282335238411694 -0.0017759476434082472 0.003782954527404176 0.0015670741724377018 0.0017189672152125096
 -0.0018306533120274054 -0.0002126297990299811 0.003271655650884998 0.008220743781658314 -0.7517331105582962 -0.2007655012533203 -0.08235409121899838 0.31161624289456513
 -0.0015176050999692154 0.0025422841088988163 0.000429991268164603 0.0010949284152221312 -0.08293627433554286 0.29277264300909833 -0.798527285449667 -0.28128104322163777
36754750000.0 -0.25483663873466655 -0.8410824910576206 -0.18563254793066292 0.10510326967270746 -0.00041254899490149923 0.0032503313389216173 0.00048352410620735003 0.003651355599098643
 -0.18356146448830438 0.10198612094353514 -0.2523229672780085 -0.8499048684352062 0.000431069085991915 0.0019065615014478077 -0.00020295130778179 0.004587477150638826
 -0.002533173233153954 0.004721933583929868 -0.002522642058337243 0.00089846095749478 -0.7324310153273695 -0.2054716075603285 -0.08702553180268555 0.3125220968519182
 -0.0003798219834735576 0.005695764327194942 -0.002692070823997233 0.0020364920811400448 -0.0991303399930775 0.3036790876671127 -0.786150140966793 -0.2476006851170435
36824740000.0 -0.25358656949927927 -0.8365988670140598 -0.19052657176325344 0.1057132170301885 -6.042553966160225e-06 0.0016395684422569371 -0.0009461983198716879 0.002174353062099476
 -0.18909952389353268 0.1072724863114352 -0.23984170484746878 -0.8432498612811042 -0.003199824131033887 0.0023149248668383007 -0.002378455286235577 0.0053087737452719675
 -0.0027312032225304084 0.006215604864322084 -0.0054840809765551455 -0.0019863572094796353 -0.7620927036245919 -0.18348004071796625 -0.05736733892942345 0.3098977278003235
 0.0021638098305825065 0.0037018457799380395 -0.002789155757483016 0.006736676992267146 -0.06378350437025201 0.29857589521638767 -0.7842695370119046 -0.2657352356917988
36894730000.0 -0.25379441306794526 -0.8230953060672735 -0.18416558926860208 0.11195022083779024 0.0007363361784498337 -0.0010231924723718832 -0.0028324908861789375 0.00421961225005537
 -0.18387792364708533 0.10447884929479077 -0.2646782854389443 -0.8287274008276054 -0.0022484081590888015 0.0013690645988010057 -0.0004684074408603499 0.005153538198410363
 -0.004160343362045561 -0.00017781801064411655 0.0019586817643681385 0.003771691353309759 -0.7708347764157467 -0.20249507673373254 -0.054943897557104576 0.30737803174224665
 -0.002124525888493507 0.0019340850586623023 -0.0037106462998273164 0.007347679205476138 -0.06496004283135566 0.28639696504107004 -0.773751460006633 -0.2796436149653776
36964720000.0 -0.2597321177559225 -0.8475768930765623 -0.19244541467639928 0.1056770732555932 0.0011795071596645123 0.000685219377588212 -0.0029603563815581322 0.0007134023576281566
 -0.19015094462172916 0.11092299828715901 -0.2617095008956052 -0.8533543709725603 0.0006632754277614898 0.00368928168033083 -0.002567113795224381 0.004167143215047787
 -0.0023776592794543905 0.0008445614783008952 -0.002976020765700316 -0.0024250304411182057 -0.7331392493169163 -0.1770968901844853 -0.06656165697660373 0.3129760677893023
 -0.004577159476338818 -0.00035617932422229005 0.004721436336472614 0.006731833469580885 -0.06064437256064586 0.3089043258790096 -0.7847102221629675 -0.22604844811663546
37034710000.0 -0.2628558964102704 -0.8402540566025076 -0.18698910979787495 0.1128466755871002 0.0009933941213384986 0.0038310148683168435 -0.002928308778280642 0.0033823925604195963
 -0.18694376457708806 0.11139132636520643 -0.27170534839511723 -0.8316030235061636 0.0013023055434021999 0.004044942212661135 -0.0043951188711578 0.004443279052668347
 -0.0037308113602263298 0.0020842768037298343 0.0019230100658248228 0.005280673602000643 -0.7329881032282407 -0.15039552315216637 -0.09142089214601404 0.3123759982873434
 -0.0005988296442049681 0.005016127985816919 -0.0009211649535095146 0.009355607181640559 -0.07045897117463898 0.3144830212722737 -0.7846505245207659 -0.2531478998547849
37104700000.0 -0.2642292287490175 -0.8361956810100104 -0.18980676569223817 0.11418587449148297 0.0016850819659267866 0.0007779584504242463 0.0013604022571340915 0.0027031496615342303
 -0.18597492205693136 0.10962543880282123 -0.26733870566679513 -0.8472506395530311 -0.0033433304804003617 0.003742425972674278 -0.00047775849467622165 0.001957809516078015
 3.57796868316063e-05 0.0011837969643069576 -0.006874275366437017 0.000974107040079154 -0.7340623958135657 -0.1595321743379779 -0.06533193830274751 0.3183795869850278
 -0.005224723815326818 0.00045270305590331853 -1.4535793787201115e-05 0.008065453555927955 -0.06044775310684818 0.3027451888174991 -0.787256658448964 -0.21309488662410603
37174690000.0 -0.29755151066181007 -0.8562507772804844 -0.1869271274371499 0.11067525517969742 -0.0019148365791711362 0.0037494031000493513 0.0013931756414308212 0.0018436468968363459
 -0.19092743395095974 0.12005804676361867 -0.25274918390266043 -0.8336318718168305 -0.001389687582189325 0.0019736035005292266 -0.0010861186450068377 0.004936335738711036
 0.0026444560801098145 0.005252584111870979 -0.00031794830256523044 -0.0016520603989159679 -0.7434964379951948 -0.15700456808457194 -0.08121436328175995 0.3064720401282626
 -0.002622850457224976 -0.001530766983954526 4.022266314665407e-05 0.00650766524375539 -0.06117519839360426 0.30735223946012974 -0.7983238311508647 -0.19587588505917863
37244680000.0 -0.28316611148228693 -0.8064560863974162 -0.18970532503964524 0.11612090327979716 0.001273664730795715 0.0032380872561630176 0.0004876431770498843 0.0043884757788201076
 -0.18694379987564136 0.11546470367430012 -0.2842791738802882 -0.8418110486440334 0.0026309032414420642 0.004303437234378126 -0.0019246810339605747 0.004119229938803599
 0.00408190627419063 0.008706929800973097 0.0018106052874405083 0.007051371954719998 -0.7378617444971101 -0.15547437285752957 -0.07258077514918015 0.31401678922924653
 -0.0008063726450322858 0.0011273433785101775 -0.0018513090594129975 0.0028480772256164843 -0.07910557623138106 0.3097246248797787 -0.7672468143496407 -0.24974670455182524
37314670000.0 -0.2757002607601071 -0.8173528702702649 -0.18699394986996595 0.10960650479606132 -0.00019239268273375085 -0.000594360824199951 -0.0037370560917569583 0.0049951715138012096
 -0.1912252307353796 0.11296193684475336 -0.26803783202214576 -0.8167596166931705 -0.0004653292615484391 0.0032734851025946767 -0.002030086692252586 0.003616255607985009
 0.0024232871855604018 -0.001970147880286889 -0.005214224451092875 0.003755031063361429 -0.737344308667811 -0.16326818578857555 -0.07545761469990635 0.3314691248564951
 -0.000798288465000366 -0.00183225490378061 0.00021998779537788722 0.0072872169323733235 -0.07617166329285269 0.29784059049072537 -0.7957773510879494 -0.274070260015707
37384660000.0 -0.2869566646057857 -0.8567136211836939 -0.18998433408575224 0.11289864493384313 -0.0004594767595630737 0.00101720216810509 -0.0026547577594197764 0.003265595546766551
 -0.1953317161859276 0.11229168713199593 -0.26938641633893273 -0.8094658082883631 -0.0024514125438855608 0.0037229066062351396 -0.0015094082779758468 0.004775313545063572
 0.002536818279041671 0.005806044897806426 0.004462409279330664 0.004593118369039716 -0.7529570846400958 -0.16328898758086674 -0.06098264542229792 0.3111271867733807
 -0.0007659208391636652 0.00783338333752141 -0.001077442857570195 0.002636075781643347 -0.04811244297301273 0.31363820506579737 -0.7996112040742738 -0.21942553150742536
37454650000.0 -0.27614349686265566 -0.8160371664036956 -0.1948919970964759 0.11892056722206525 -0.0017006298281042934 0.001402918283986362 -0.001834084085729071 0.002518220872436469
 -0.18765992048253488 0.11218229036856564 -0.2779001905480458 -0.845367519481964 -0.0004274525348981091 0.0009056611566804875 0.0003533379088226228 0.003863337621369871
 -0.001647397395275172 0.0002221337667621523 -0.005400190012276568 -0.002894852694357448 -0.7344127823979213 -0.15515465512523482 -0.05867957380070872 0.3074167034402363
 0.0015615793869319318 0.005733054645843576 -0.00364494127110428 0.007121766983188523 -0.08053353096134717 0.3303242373148491 -0.7630666096952711 -0.21950935924117865
37524640000.0 -0.29128960404729565 -0.8157558105241449 -0.18557733941510113 0.1168728822282822 0.0013519946867631986 0.004817348383314716 -0.002197232841235427 0.0021257967832378284
 -0.19034623563851594 0.11601143994518746 -0.2799468995994564 -0.8061715771416742 -0.004537574364896956 0.003648133950769916 -0.0008835142926290375 0.0021469583672979508
 -0.00421842206602127 0.0016993792804948738 0.005478352832801679 0.004438567604307922 -0.757961939675497 -0.15585333659320158 -0.0802536932838454 0.3137448006645893
 0.0011231530060807993 0.0019148127961775556 -0.0031270202447403997 0.0009625646173606603 -0.05546888770769289 0.30134929848078523 -0.8049400689464888 -0.23043127828426307
37594630000.0 -0.28544879822168046 -0.8004262991041979 -0.19255687299289453 0.11261404287976111 -0.00021341447021658926 0.0020863962961984736 -0.0011791023136311668 0.004471538432905007
 -0.1900824273474591 0.11185139871360275 -0.28168259637090975 -0.8096966392981728 -0.0004926831584539103 0.002805114382093013 -0.0022497947109522804 0.001677317926550512
 -0.0016830415318814013 0.005183285778417314 -0.0026908085301492186 -0.0011777056058460895 -0.7318989010473447 -0.176751306654081 -0.03445603665731434 0.3227523118247093
 0.0011110518356583837 0.001606037293618075 -0.0029147151057621447 0.0010862955168218463 -0.05355028202137374 0.31611268155402433 -0.7616057765490485 -0.2459919631962953
37664620000.0 -0.2986630346136958 -0.8127358487762165 -0.19579758167810832 0.11333284809047335 -0.0021071522450491886 0.005153722851170675 -0.0012848353329847615 0.001372947339120973
 -0.19712768238578715 0.1173121891951476 -0.267733242552333 -0.8150823403565083 -0.00012879315782215954 0.0025720695669455254 -0.002780601410639457 0.004063140963756697
 0.004908150089410958 0.009731594128650985 -0.003370462273135505 -0.0029295986618112645 -0.7240202844189902 -0.1484330303210077 -0.024109032307882066 0.309173016009933
 0.0007407366929726772 0.0022398372328554595 0.0008709208676142821 0.009217518595994482 -0.07425426487898479 0.3280422578635994 -0.8012542889659221 -0.22392980035873922
37734610000.0 -0.29082978748468663 -0.8372095691102475 -0.19653109809442337 0.12485430432757252 -0.0002224257385058961 0.00224518540817218 -0.0018430797787456462 0.0018003392096189131
 -0.19613503641469582 0.1183045463268945 -0.3053385320282912 -0.8281948831072746 -0.0007999914915380629 0.004225668817098124 -0.0022736721796153448 0.002008386861576522
 0.006196047015550495 0.0011659924436956503 -0.004065980985088187 -0.001009678488484008 -0.7549558950844373 -0.1274784530276175 -0.053474430788687646 0.32088016071088665
 -0.0059222974839358315 0.0009314209986058759 -0.01181367316964466 0.004169036707100043 -0.04436723587719074 0.3247697385441039 -0.7585833296521899 -0.21729103360435556
37804600000.0 -0.3149246496931697 -0.8010691145508169 -0.18953521214779406 0.1215668930525922 -0.0011237807853726053 0.004096527770424881 0.0007332120633130104 0.0033406273186274726
 -0.1885138163099011 0.12349066108105516 -0.2772917224046022 -0.8070107929477255 -0.001082442810651409 0.0031055073882511035 0.0012089600622700843 0.0035368857158989556
 -0.005174777684164093 -2.6752106662377716e-05 0.004296438858446742 0.009502133793054153 -0.7344912799196255 -0.13339758505003543 -0.075832232567712 0.33296437285759833
 -0.00046274771870640695 0.001823113751041237 -0.0012242715950538624 0.001298543233575216 -0.07039151384426853 0.3300187986176923 -0.799812088011833 -0.22804980790674298
37874590000.0 -0.2888725703308565 -0.7995622605006649 -0.19829392949668076 0.11935860879579241 0.00020103834695988626 0.0031684183681983447 0.0007800731538154043 0.0018184296267249025
 -0.19120767134030367 0.12078867747231894 -0.29227530819633524 -0.8307983294908335 0.004467433018126841 0.0029526602524037647 -0.0015308238007510277 0.005373713932858324
 -0.00235681490725374 0.0020055513783993513 -0.003872892015634277 0.0009792587604878099 -0.7460516264455185 -0.1572367757355054 -0.04954497704888745 0.3331729332126675
 -0.0037082660013478723 0.002925838685071758 0.00039539722130094016 0.003331194990513248 -0.05557559756143483 0.31923743180784414 -0.802585765970703 -0.20674402769533495
37944580000.0 -0.3064939829358862 -0.7974871167468472 -0.19725273785847158 0.12027367404843507 -0.00034967863221159034 0.004061814425179468 0.0008901752193589475 0.0020598515388656367
 -0.197240407812169 0.12285971944610943 -0.30018293257756595 -0.8131307254582515 -0.0018444039614079648 -0.0012565262258197759 -0.0008333194762396828 0.0026659235695080112
 0.003424931937977347 0.0033731737285905053 -0.003926876329300965 -0.006133679318735231 -0.7576839664436285 -0.12699945587878939 -0.043087804956825876 0.30855913664291845
 -0.005318853987760166 0.002474867402919102 0.0036488496793137585 0.0005022404579437758 -0.019791028591734934 0.30777223807187964 -0.7971733587965215 -0.18975763796601355
38014570000.0 -0.30390080141313774 -0.8035544582000651 -0.1971242789440637 0.12689287006119448 0.0025706425206215673 0.0029331494370019038 0.0008659606146087387 0.0026867626185942666
 -0.19613203854729364 0.12665880007555255 -0.29667324782895765 -0.8212252963992026 -0.003336732014385766 0.004951530390888424 -0.00025377834028324437 0.004336672759177241
 0.006418633452025793 -0.00010796127520411127 -0.0004262709786033176 -0.000964392523231437 -0.7479954622063663 -0.13478914803084407 -0.05497682672949007 0.325373015504262
 0.005058846936112781 0.003742087432864545 -0.0012569036143890353 0.004813168569277754 -0.03599501798230445 0.324281150227812 -0.7779687588698627 -0.17999872309820603
38084560000.0 -0.31006413764300544 -0.8181287683536735 -0.19829235925669564 0.12445898535354732 0.0006635771093636482 0.002829115475157918 -0.001455448709961473 0.0024932186605072064
 -0.19883280897539127 0.12606633860946564 -0.29765325580101204 -0.8164962001219755 -0.00027731526840530827 0.0005610850837075213 -0.003380473858731709 0.0005002761936946405
 -0.000175501792523767 0.002289437051970957 -0.007534996060387922 -0.001232066492239459 -0.7456515008491386 -0.12106703609765262 -0.033784294186356444 0.30030704191645813
 -0.0018865361567921076 0.003073848757805102 0.0005497125028712456 -0.00021222906236975073 -0.04971107071412555 0.31733302901701665 -0.8126517063679833 -0.1982308602092925
38154550000.0 -0.3021527563482081 -0.7924174665177824 -0.19849635853239236 0.13162314464219416 0.0035486123830614433 0.003365586912541359 0.0005545545330808199 0.00024309126168358398
 -0.19622720354741507 0.12479155309839117 -0.3195069679971186 -0.8053598903834394 -0.002087938417815403 0.003815657750657599 -0.004392540678966727 0.004109374134227417
 -0.002776322332739104 0.0033139392687163666 -0.00041571291889401724 -0.00039344464790136934 -0.802481938988879 -0.13955187548129158 -0.060438163530717334 0.3231168913403705
 -0.0009301514397415285 0.004386331873145638 -0.0015407142088461252 0.0045133946716492245 -0.05520940458171388 0.3216597060942434 -0.7850459764496541 -0.1906813139616828
38224540000.0 -0.3164060733805052 -0.8262308551657284 -0.20142963819220297 0.1266732744277136 -0.0018091015447807015 0.001467937723867717 -0.003658305260368768 0.0009256188113884857
 -0.20376429302584742 0.13617461207903075 -0.29115472898267636 -0.8021575910270122 -0.002198952717890548 0.0003100837630690047 6.78210125969932e-05 0.0017110792309500168
 0.0001020613128385517 0.0017695868133617027 0.0007277425300689849 -0.0026628645317852517 -0.7337375333232891 -0.10407618216469638 -0.03953936668174362 0.32216500706010576
 0.003788337963156393 0.0051587633259617405 0.003732438095928117 0.0019433684830583763 -0.055547481584273715 0.33063397055336635 -0.8149674955728627 -0.19944087577690708
38294530000.0 -0.3321143305562366 -0.8057977059981982 -0.1965103818054434 0.12932734252611738 0.00012124877155177186 0.003150460978407585 -0.00032922065085836717 0.0017623048306040694
 -0.1952480164773788 0.13199315357193203 -0.31034371412379325 -0.7982950060502276 0.0016418763994013694 0.0015371563291830858 0.0003820606602209484 0.0027291956515867947
 -0.0003692201567408653 0.0022060296927788477 0.003192328536741345 5.930158644983456e-05 -0.7516301534513581 -0.10234982904443812 -0.053566674712720266 0.33139796751779127
 -0.002609318462595068 0.002890080830149854 0.004798344791058786 0.004380210247173387 -0.06352842558729556 0.32428340898635344 -0.7757864165484133 -0.17868516197377216
38364520000.0 -0.325825501825533 -0.772374737799862 -0.19149040266541753 0.1347295546287238 -0.0022474687977918108 0.0023959159932298657 0.002797328338662209 0.004475776304310409
 -0.19292559034235315 0.13155804660440046 -0.35611147080792716 -0.772983499824835 0.0023853810253367195 0.0034074492119404655 0.0010940456360805568 0.0031882952726384533
 0.0020196687364613898 0.004412152906728861 0.0046822508351771 0.005675145071149134 -0.7406221845383106 -0.13272524011156614 -0.04979998317421895 0.3147080420433816
 -0.00459000863784457 0.0028996763401929132 0.005308405202434134 0.0018267382629499262 -0.060936953137001676 0.30379224965757107 -0.7370969004483371 -0.18914598961747847
38434510000.0 -0.30481390705024536 -0.8071735668062848 -0.19393220887664955 0.12840084693884746 -0.001753844578676132 0.0021974436188486788 0.0004198345437207377 0.006175843897410017
 -0.1981168731766706 0.13487880780728023 -0.29318606463453006 -0.7791334271816523 -0.0026883300591212175 0.002051965649198435 0.0005803255517583724 0.0075468423003040705
 -0.0019808465005179588 0.006932915066110225 -0.002527392652626539 0.001741097617482414 -0.7410509382245026 -0.09443262231195318 -0.04943755468574129 0.3255492951162315
 -0.0005917496057730337 0.007292499019831681 -0.003704627198494041 0.0030769844519988754 -0.05371141044420989 0.34104995115290937 -0.8492707214648109 -0.2091117649071084
38504500000.0 -0.3417942052153221 -0.8126158527555336 -0.20234979374797113 0.13332733082014767 7.845308595636799e-05 0.002213177824850291 -0.0004149698836795614 0.0020264772327193217
 -0.196572130539236 0.13963975061000217 -0.3343572943378923 -0.8116578789782901 0.0011133455114424407 0.0025542202704675818 0.0007740097501542909 0.005641167824200839
 -0.0013607183094218862 0.0016136000532626 -0.0014133803246773222 -0.0027899786470804914 -0.7343996372613407 -0.10061068318981121 -0.030245712800655526 0.30641605506005093
 0.00032081681554268864 0.002214698259469742 0.0002111498626797226 0.006189919053721804 -0.057728877093148556 0.34610103871971265 -0.7921787106964585 -0.12693468678934605
38574490000.0 -0.31763345739551263 -0.7780303612057381 -0.20454403966974205 0.13966339607715497 -0.0011642557879822145 0.0027791275490783576 -0.0007660291773770692 0.0018761143212120506
 -0.20144350700341232 0.140022527733563 -0.3451794465470789 -0.8061954661077698 -0.001515620802486798 0.0038770857304108895 -0.0033930034570071005 0.00018102061036143452
 -0.0006439409772141627 0.0009326583122388532 -0.00022327167458015726 0.004662330820877939 -0.7521997052611143 -0.10619275615200152 -0.042286042686834835 0.3356972195385527
 -0.0008712257170680178 0.0037724014815845542 -0.006965373886528892 0.006032872688767944 -0.04312037108086423 0.3167527125675284 -0.7942359556134334 -0.15874004353795124
38644480000.0 -0.3272148538674335 -0.8084020905603725 -0.2002372390951958 0.13611378654764678 0.0013073121095045622 0.00289615163215649 -0.0005642229759152557 0.0048454876413952875
 -0.2017145380488438 0.13194299227487719 -0.34027921841187314 -0.7685137096733595 0.0005499008287145328 0.0015877186111766496 -0.0007816127024303802 0.006023961808137571
 9.462851801645639e-05 -8.177298551546854e-05 0.0019104245865592838 -0.0015707235714206187 -0.7477019759139051 -0.10379079649324566 -0.03509534815259321 0.3240394641809499
 0.005854313999655793 0.0008021038601467484 0.00325610119445575 0.004953036010005176 -0.05059752175970988 0.32083722356590266 -0.7732999517494167 -0.14686172793810137
38714470000.0 -0.3395052784270892 -0.8111640913832984 -0.20437013518061098 0.1379303717284753 0.002265436553621015 0.004204226909549584 -0.0008303621252378413 0.0009966952458408031
 -0.20716748077640978 0.13333538079056115 -0.33996851634044717 -0.7958400357095288 -0.0013320807316843254 0.0030267675278166893 0.0017104789996263566 0.002383852344840505
 0.0016731115743651508 0.003276165268261159 0.008206282939350369 0.007790885920009753 -0.7212584273213313 -0.08584527303922877 -0.03285318566394931 0.31632722884045644
 0.002327428325203102 0.004060357235185397 0.005345397753633054 0.001534908842243084 -0.02877171264280514 0.33912426539983553 -0.7781349104254686 -0.21076283004672966
38784460000.0 -0.32426280759814224 -0.8052236403251876 -0.20181034639780382 0.13564313737893977 0.0017023858410612235 -1.3897602263794507e-07 0.00032718228275598163 0.0016502446290000607
 -0.2022781228405185 0.1392002680358892 -0.3438000405698786 -0.7753721516698486 -0.004756478787718341 0.00561134685749986 -0.0003359096719830294 0.005277876033234759
 -0.0010932167983798227 0.005643726222480995 0.0014140606923585088 0.009105786699846494 -0.7494498005075854 -0.08798840046417089 -0.020653160888047226 0.3137328499959013
 -0.0015234437237122208 0.00025884740768924086 0.0030090378617653167 -0.01111874391586422 -0.053737573888056944 0.3375740938422625 -0.7921287592232656 -0.1710718382111546
38854450000.0 -0.3510737067159554 -0.8075144542113313 -0.201873780438556 0.13133944327966543 0.002622848548224036 0.0028309981672838213 -0.002275007208398532 0.006447694856428592
 -0.20318663386626934 0.14112847387289476 -0.29068113948932456 -0.787164063769607 -0.0013379173577695476 0.004803240041845333 -0.004871928006518461 0.00430878699043517
 -0.007921853832266392 0.002289176979946205 0.0008998476325888181 -0.0005674316052642376 -0.7538929722395984 -0.0872550612501017 -0.004360763831703829 0.3196697157800132
 0.0023967984755277863 -0.0015495380309516488 -0.008528366246117186 0.005691628038270462 -0.05131300147800885 0.294278915003067 -0.8221678888298979 -0.13869917048327196
38924440000.0 -0.3619653031610033 -0.7662592059702018 -0.20308053532807835 0.14018639612564357 -0.0012684459407776467 -6.457409716799362e-05 0.0010719932227377525 0.00767520102848533
 -0.20035106619896678 0.14000922872767863 -0.35021940834618875 -0.7911685697293118 -0.0004301201036034274 0.0027540352408809187 0.001087029083538107 -0.0006665402400348327
 -0.00205022423502456 0.0012562510570103653 -0.009573814604315889 0.007049195587702988 -0.738454200360589 -0.0845331478511941 -0.03474203039851755 0.32721931626111106
 0.0015171924192642567 -0.0009993637768020624 -0.007677333968652471 0.0021945391523175823 -0.02443894354421615 0.35294722418359536 -0.8040947790248482 -0.1779484563079912
38994430000.0 -0.3651705768793281 -0.8037980877778347 -0.207347391664046 0.14609413174003325 0.0015841112298596233 0.004770176627492226 -0.0004092139037865124 0.002512346993063873
 -0.21049098241804023 0.14446207357287008 -0.3315945878081619 -0.7822695345770566 -0.0027483086423863113 0.000772690695791105 0.001723067989762063 0.006090150646437601
 -0.0014860924439612632 0.003734575134133633 0.00652521391563068 -0.002505984092795187 -0.733385516317653 -0.06807543003220543 -0.039129075833252036 0.35224187882014946
 -0.0008388517560650782 0.0034187470103080597 -0.004344763519388337 0.002615522772586162 -0.03579575376666721 0.3597383157968741 -0.7852505482268867 -0.14280190159406667
39064420000.0 -0.36780503238873713 -0.7857436521241851 -0.20715496986856924 0.15377057949998396 0.002055681415671433 0.0038771508689195004 0.005847636972997392 0.003952840011415234
 -0.20138994080436903 0.14920247428222624 -0.3752861709840341 -0.8095501295366758 0.0011110054354689577 0.0025808192734870215 -0.0028162087664408667 0.0011005144343602614
 0.0009898009165849291 0.0027885980287734387 0.001852841861017616 0.00015367444195695442 -0.7448674397843976 -0.07919445937528323 -0.05528452362931851 0.34188022788749084
 0.0016859126357912342 0.005573568873553094 -0.0006663385046034432 0.007216900056778851 -0.01037048877104508 0.3154019447574465 -0.7782463315561998 -0.1330518474647368
39134410000.0 -0.355036095505771 -0.7493237578909425 -0.19934417940390098 0.1359583996375412 0.0009538621017091144 0.0018345756072776945 -0.0012014854503911644 0.004353002281979058
 -0.2012401561359667 0.14130700635729307 -0.33957394494733834 -0.7578598420984217 -0.002532355788563911 0.004849019495555615 -7.925947814996997e-05 0.0025382908092280135
 0.0021102863021854063 0.002700007702242228 -0.00045160129786538095 0.0019948685807613074 -0.774341918469154 -0.05807084185307262 -0.027421110150839593 0.33740219502725705
 -0.004308090792810617 -0.0014625003932983503 0.0010046017406878612 0.0018071071808649806 -0.03335116227000735 0.2874319119486686 -0.8224898761967402 -0.176784558177989
39204400000.0 -0.3691047570165241 -0.7883088357904097 -0.20863855516844834 0.143793093781893 0.0003431036778430125 0.00012996659382642626 -0.0010424394944551604 0.0029019692584808954
 -0.21163271614650625 0.15869223329613003 -0.3414473929387128 -0.8032456409156626 0.00019839938815914532 0.0015548533400431234 -0.0009893947040776226 0.005837971611699559
 -0.005294302713666976 0.0036041268158930185 -0.002596532272247856 0.006558459782802531 -0.7434624974536262 -0.07254212492078198 -0.03637155332994719 0.34830401426700586
 -0.0034955039340908165 -0.0022929131681348634 -0.005601952143569182 0.0008568389052400936 -0.04649857505249378 0.33521277241607833 -0.8237807102269369 -0.14819927992484372
39274390000.0 -0.35041567742732155 -0.8030820488394829 -0.21696686030268378 0.15669106859737406 -0.002211461168281144 0.0037167334214885297 0.0008398015282522337 0.0010035226029787541
 -0.21198669840860837 0.15144545743068732 -0.3715872411930892 -0.8130561659228384 0.0001626270923586002 0.0033881239166269443 -0.0029415579222100614 0.004026851299292475
 -0.0039990590452232905 -0.0014555384575342973 0.007266622058679566 0.0037721073504554856 -0.7620921512348175 -0.06223358507188448 -0.014009020791966975 0.35515657381184706
 -0.0009069949755559352 0.0016279833720813496 0.004295242599250994 0.002615121966446578 -0.031181307708282497 0.35802323565661576 -0.7955484176772786 -0.13539116478175095
39344380000.0 -0.3748670133722156 -0.7535458927202763 -0.2010970171313194 0.14437198303358337 -0.002214285295121522 0.0017613094337320598 -0.00037536850835757105 0.0036369102018269893
 -0.2002670697195592 0.14481848496830205 -0.35931267957012275 -0.756553979928868 0.0040217785089289235 -0.0004056392410457255 0.0009558313465943891 0.003167810284485705
 0.0035951658404608823 0.004493238356809537 0.0009266517318406731 -0.003543734816782991 -0.7412552094583753 -0.054143028960557366 0.002120717714408202 0.32691151029523
 -0.0008283426119798391 -4.473818571502601e-05 0.00414302617198242 0.008714129081052674 -0.030459216943741093 0.3507925252492698 -0.7995929499735501 -0.1377084312406882
39414370000.0 -0.3829878160806755 -0.7417330509550316 -0.20353016944339802 0.14950394458341942 -0.0012244943709579074 0.0029785749671409037 0.00015617211411874166 0.0002939203266533987
 -0.1973300726818456 0.15110885492477402 -0.35969712107756874 -0.7799032302510766 -0.003366387803027952 -0.0004894708468984462 0.0009475601348977381 0.002198136697827959
 -0.005358899439401268 -0.0010510440301881722 -0.0005728892038850507 0.004445710886788609 -0.7176420200672009 -0.06503018718653025 -0.037092055279451 0.33151045033019444
 -0.0019679419901788885 -0.0015419491039118513 -0.004933128154544726 -0.00019444400828093063 -0.03424398367836587 0.3456071292689999 -0.8211657993641103 -0.14426765937495498
39484360000.0 -0.35405487854245354 -0.7815391358879654 -0.20924825728619548 0.13804402983148695 -0.00025577805696287286 0.0021395307098507218 0.0009322826918069121 0.0011685533496412197
 -0.21349793060671587 0.14808891512872757 -0.3280497516806216 -0.7701147428803253 -0.0010302224790383276 -0.001148629149799419 0.0007353712290208581 0.0006110157871753424
 -0.0008918889291100219 0.002065324470292021 -0.0007252680622185936 0.0068428215021084805 -0.7680407114656367 -0.035233836166711587 -0.030896924319004163 0.3278018014319847
 -0.0011793934754742337 0.005961887896125698 0.00011561535281307248 0.0024565014514810633 0.0027619964519451207 0.33285048830547687 -0.8079933160755337 -0.1214431926986476
39554350000.0 -0.37912271651499674 -0.758829776956849 -0.20341255410175527 0.14778136228215677 -0.0009943462696736715 0.0023826895207629127 -0.0014689258042828582 0.0028044171378829095
 -0.1990663752432048 0.14992067998799313 -0.3690533977608601 -0.774480845415347 0.00030704809563131345 0.004378144379435576 -0.0014922084080642402 -0.0022319572358400837
 0.002211290594881784 -0.0029497233864323293 0.00417138127283479 -0.008770172828662322 -0.7369896923219986 -0.043764602355646116 -0.05860946962551236 0.3618061775213573
 0.0011109710302750445 0.004370963769113097 0.002202768230243072 0.009587206452439944 -0.01867748320044528 0.35288870145716006 -0.8184972992696715 -0.11629703465151621
39624340000.0 -0.39470783101037454 -0.7749987806168597 -0.20965502991029927 0.1625618235344354 -0.0017956461126353168 0.0005725976281113488 0.0021470979541150705 -0.00071105477730017
 -0.2077717218667055 0.15537316391187597 -0.37699703116947547 -0.7785411330026972 -0.0011487052964943257 0.0014176524054627351 0.004660079010404877 0.004248145720740064
 0.0029586080771871743 -0.00172484738108036 0.0005657015696222631 0.00372818626813433 -0.7613091253223878 -0.03379463076166455 -8.23810086653851e-05 0.32778361174822196
 -0.0013488006164306423 0.003341034207450893 0.00022609517352715992 0.005344680587376176 -0.04318148982822235 0.3317559457623348 -0.7639166864401724 -0.09601074396832314
39694330000.0 -0.3862289476148828 -0.7780531696968114 -0.2119446626592115 0.1597453995453576 -0.0018006865814150389 0.002073871456396866 -0.004019412554751808 -0.0006547469285992349
 -0.21214945032711868 0.1636090095803872 -0.38688607834336786 -0.7804711384740853 0.0005830336662478798 0.002313919404211835 -0.002828489800112661 3.533341307628545e-05
 -0.0007638047887783035 0.0028084400267350818 -0.0064185964223274624 0.00033135205671271155 -0.7212873067610593 -0.0315210934952039 -0.014259796112643792 0.3422127103086966
 0.0018368063541524095 0.0018943915220974304 0.006620774490436598 0.005319353578651174 -0.02561818461981556 0.3311502596871986 -0.7952293828383927 -0.08668868819971619
39764320000.0 -0.3621423250517802 -0.7830441984332344 -0.21663393664943814 0.15481518041231768 -0.0018283035591914014 -0.0008274822142198954 0.0029295112384136335 0.0004901087457058647
 -0.21100885112500914 0.1526775936407483 -0.36119053716877475 -0.779989056072622 -0.004168086046211707 0.0022450995603151115 0.0023277393081831744 0.003956560284845904
 -0.0016564459220587222 0.005995374747943205 0.005463295526193671 0.010871098686828952 -0.7848121718670028 -0.019162578894480718 0.005150137147663987 0.3357318995545028
 0.002964072615054153 0.004093472197611657 0.00827253751851674 0.0018157099461788338 -0.00983513719347287 0.35174043194136406 -0.8111005519837836 -0.08496672088800643
39834310000.0 -0.43781121215702407 -0.7475697807509065 -0.21133764789128615 0.15322310433695918 -0.0027969001976886837 0.005090404316621232 0.004665002673564793 0.0009013316373545866
 -0.20629825620140013 0.16510824618597744 -0.34633442709010737 -0.7688912552924625 7.065637166897004e-05 0.003418493465680528 -0.0019510036160071721 0.006908920299812649
 0.0021807112748433283 0.0013618976868051478 -0.013266420499302734 -0.0067097523720126276 -0.7343181165562415 -0.0721480338451103 -0.01386583477574876 0.3572802300273968
 0.0025008956853211934 0.005206347592269546 0.0021620469222328503 0.0012998891463533832 -0.018577507571966585 0.3580682946316862 -0.8575788420807307 -0.07362749344000094
39904300000.0 -0.38050138585626353 -0.7608849476076425 -0.21604625329635038 0.15703939306611656 -0.0028928774829679142 0.0009297148293826045 0.0017489955835808559 0.005509465404578619
 -0.21252071460579072 0.15590592561819658 -0.371480921075065 -0.7757608816766393 0.0049075103728226715 0.002202432721637524 0.0028992976740515675 0.003050802236151822
 0.0008076102297368678 0.007025632340267348 0.006493695019382035 -0.006981037154699062 -0.7699017997115052 -0.018200209691073693 -0.015052944682005659 0.33652024702109873
 0.002571522359890808 0.00525714957559576 -0.0026615646312972046 -0.001899765511977965 -0.026506270946001484 0.3467694342087624 -0.8130450781076453 -0.09609641039724628
39974290000.0 -0.3968481360631948 -0.7973547268696034 -0.20923238837002126 0.1575809043370099 -0.0011102376303649512 0.000916511816210834 -0.0012435389175640562 0.001541707206407491
 -0.21231157412585946 0.15958832035544027 -0.3588597432440224 -0.7397192129023097 -0.0006131301454606172 0.005058048138105296 -0.0013213185109795281 0.0005499739313034786
 -0.0021918723253352584 0.004347311245317576 -0.0025194810189038334 0.001750471978061679 -0.7362547593492941 -0.015553467397157596 -0.01552155163486336 0.3369278787883593
 -0.000606022915328229 0.0038980361294886964 0.004262087375702139 0.010486839789044529 -0.0008337804793335938 0.34348582597888794 -0.7919615732055646 -0.049941179415994234
40044280000.0 -0.3578022327720875 -0.8127133474414739 -0.21868871656308062 0.16295508312909796 -0.0012011618457052745 -0.000987467291466881 0.0070598886870269825 0.005519417790903392
 -0.22351189227278254 0.15933356417611186 -0.37021999657251886 -0.7634211397712757 -0.0016986764311675423 0.001989316359606561 -0.005428700779168228 0.006481266399282924
 -0.003346407731506497 0.0035452284420854634 -0.0010099174376428943 0.006803352577328597 -0.7490105805913768 -0.004657863323769053 -0.03779629265291457 0.34433688565133186
 -0.013811410861115354 0.0049573337494218045 0.006357913907985103 -0.005485736888198792 -0.013814102248175636 0.3144178827501499 -0.765563388399421 -0.10446760424701525
40114270000.0 -0.37925959965081485 -0.7644523204479363 -0.21492458150927088 0.16785225457417302 -0.0007176683330286698 -0.0018130023281856687 -0.0022783569067491615 0.0004085290684157855
 -0.21189914126148868 0.1657754226790718 -0.3880133765165528 -0.7469352389599564 0.005765344409458191 0.0025018672898955647 0.004664200902461282 -5.320272317093116e-05
 -0.004832926814840144 0.007084513590102136 0.0062434353365557 0.011030629807335835 -0.8198763436961984 0.024125692247563096 -0.0145111042474494 0.37097115851774004
 0.0052500953250282775 0.0032568273627838567 -0.005917895632545326 0.0009526716505857306 0.00333059829261168 0.34226535317300966 -0.8059360625818811 -0.093013366438741
40184260000.0 -0.3753284320030575 -0.7898527227891475 -0.22662007882650115 0.1636817752264697 0.0003270924856436511 0.0017838490660787617 -0.007966321983061924 0.0016128478430674433
 -0.22116320270107276 0.1661880689346037 -0.38683051320786643 -0.7805610271359091 -0.0018769802834514443 0.0011510983873580696 -0.0007499951165991144 0.0013888129564236954
 0.0025678843542990236 -0.004241828514156814 0.012683527459229361 -0.0020543856453936666 -0.727669669756033 0.011911340906176054 0.027726063084730645 0.31104335113279835
 0.0017817153624387033 0.006293283205969664 0.010228640727545953 0.005020685548535095 -0.012613950981434875 0.3980301084793735 -0.8201861822750692 -0.05762488668749857
40254250000.0 -0.4456655449444322 -0.7688845437321917 -0.22757436972272238 0.16865570825088352 -0.0010611395637612222 0.001791162523848898 -0.00012981392310308561 0.0071179394107313
 -0.208076800400699 0.17856524715623007 -0.37838110389701973 -0.8290043993973971 -0.002770795816303552 -4.105725395045421e-06 0.002687318679296781 0.0045672387114709875
 0.004853613705164724 0.005668850712687899 -0.004424695621420083 -0.001686645632597832 -0.7362189758432388 0.026276700063486466 -0.0038141726601368248 0.3515337183708646
 -0.007048485412370305 0.0033857699496235155 0.008145349664449651 -0.00014068363335610731 -0.0144099472250448 0.343820965076348 -0.8085414061055477 0.026165181821866345
40324240000.0 -0.3836063518483935 -0.7235624403243218 -0.2076075360157158 0.1638138697139303 -0.002603824589531298 0.0032920612499444824 -0.0024904784685378296 0.002100098863282076
 -0.19856046508604253 0.17520555320144346 -0.41175065634471963 -0.7467319040297072 -0.005650059217135307 0.003311768993514371 -0.0018124811621855132 0.0010184609595230167
 0.0017875575584971048 7.41145639656379e-05 -0.00204906929544715 0.005090569449939869 -0.6998279203736897 -0.048455616488474865 -0.047882944453308166 0.31380649851990056
 0.005155888992013373 -0.00332107680350403 0.012131022974803788 0.0019739238513654437 -0.042346676686216486 0.34253270753657555 -0.8158721084114267 -0.07151443960772716
40394230000.0 -0.44856690868569427 -0.7429439301721518 -0.20399201151546875 0.17390016552637722 0.0011400527012251618 0.003935269836359595 -0.0028840606774465983 0.0005742666662771267
 -0.2096187706555544 0.18305805741718484 -0.39613478809547376 -0.7578519357094989 -0.0003748729905011329 0.0011515311730585563 -0.0016008008549143662 0.0029161846871150372
 0.001175246473074823 -0.002579452638660031 -0.0072210917336387554 -0.007295071990845034 -0.7325602043462663 -0.024988888040614124 0.04374602650452725 0.33722065377957733
 0.003967343516333904 -0.00033379126139768865 -0.004158705086278353 0.0008092366579709509 -0.004843736498488565 0.35786796457096615 -0.781993074611646 -0.06232977305910351
40464220000.0 -0.39395496480689096 -0.7271568728014759 -0.2239716366528564 0.1668338831505146 0.0006289392303602935 0.00046348900458097057 0.002923842177154993 0.0027614380762833904
 -0.22307613311495095 0.1700818802394122 -0.3943031023551822 -0.7476093392457186 -0.0004533186788338263 -0.0008179836154765777 0.0023149349185727355 0.0006304891411236514
 0.004666220067406148 0.00242857427347108 -0.002658514448516285 0.004281618737705835 -0.7669400785229108 0.012526047154738623 0.026389730907160663 0.33206620487494254
 -0.004685757146839986 -0.0097607301923831 -0.001241940855884376 -0.004676161092851939 0.025973051803074482 0.33231531655732527 -0.8236254550810689 -0.05203893286308662
40534210000.0 -0.39381021308942393 -0.7591530950690092 -0.20735651971518734 0.16774987475868222 -0.003197481413391889 0.000834580145564433 -9.052940728546227e-05 0.0029010127657527994
 -0.20618130963980688 0.16349816397200334 -0.3797798389176182 -0.7211950234675927 -0.0028362034944561924 0.0057935573095541145 -0.0003097080846928288 0.007241535649908293
 -0.0003810483719830719 -0.003277536847619233 0.00631775244252297 -0.0038223082807651385 -0.7278324405819958 -0.02965520278882762 -0.018049154283777343 0.3625633237320223
 0.00021339793034274473 0.008974479253396093 -0.0019500484685760443 0.00040982364464560087 0.011702067153906221 0.30546260232976813 -0.8026219914725115 -0.03027528456323612
40604200000.0 -0.4137536478555109 -0.7423407633132526 -0.21703531915202903 0.15633971169825167 0.004790370845634647 0.0014704584781639939 0.006642317447091166 0.0048334349636043284
 -0.2244103232585079 0.15876321146093342 -0.36594469706547844 -0.7552227946759292 -0.0023607352440173897 0.003179184775993264 -0.0028182845505994284 0.0015645935275285295
 0.002015664772516195 0.005153288012735693 0.008189405619409113 0.011606237694233603 -0.7251323324775345 0.02553379324162602 0.014807379384255265 0.3839585429067407
 0.0014457735722734541 0.0021956438404264473 -0.004615963330146375 0.011897214858753296 -0.00014056643737190782 0.3416997517303679 -0.847686828235902 -0.04684246383732364
40674190000.0 -0.38622964451971087 -0.7336977651836014 -0.20957355086749183 0.17416995870559182 0.0016764651669012704 0.00043788492645344915 0.002845026008662074 0.0025208532050585465
 -0.2061671473871833 0.17264861622053237 -0.414077635508364 -0.7209414230494583 0.0018105147172670028 0.008458988865801709 -0.0028238596339682613 0.0011787914580972064
 0.0013095310957494696 0.0025557397361028055 0.006646823853278141 -0.011949665240651313 -0.7801674064811912 0.0037050747721128533 0.011945010224367168 0.37971431285043994
 -0.0015190475907154585 -0.005481149022950607 -0.0045090898675250336 -0.0003785516766708606 0.013759317883059851 0.36008366590286855 -0.7935838883420792 -0.024846487727420312
40744180000.0 -0.39117662709021245 -0.7519559250552112 -0.20498954152727705 0.17785828577880622 -0.000603001277051665 0.003386428013238497 0.0007710641307734463 0.00030167322683495167
 -0.21296752308303077 0.17034958609985562 -0.4273705814868197 -0.7031167338044714 0.001037991902190606 0.004774683956134203 0.005848880659708009 -0.0010751124647584026
 0.004574349087506439 -0.008070470153917611 0.00454292030881124 -0.005943950435010364 -0.7461036030751362 0.027070208853028434 -0.023029805300788575 0.3702522484980922
 0.012741202936520004 0.0052492634819845336 0.0003058256341778914 -0.0028518227469607853 0.011021933766104153 0.32971133154657 -0.7792841334439307 -0.10525393801508041
40814170000.0 -0.45036588860152243 -0.7254749368896638 -0.22289995059566456 0.18586355959928377 0.00020649430031218614 0.004753484809864432 -0.0016585019864028675 0.000318743771007556
 -0.2099215879236807 0.18326891031851317 -0.408248521415907 -0.7713988584449624 0.002662186010929514 0.00031896878312731147 -0.0008474113674638991 -0.0008632688757695869
 -0.007613268592837207 0.007138890050299944 -0.009147950805962177 -0.0005087912240853672 -0.7485721740413981 -0.011609226738774014 0.0025871678548348423 0.3391779149990585
 0.004011800729955018 0.009809864835487441 0.0028593901201696844 0.0008311144174309372 -0.014571642470277256 0.34241506081600587 -0.8273491538969389 -0.004755133424645962
40884160000.0 -0.3913767041899333 -0.7050027085167887 -0.2165033829496992 0.17522965544928706 -0.0006468476662209614 -0.0016796783793844383 -0.000547997600558365 0.0022830306747042444
 -0.20966440074618595 0.1809768174125356 -0.3884695648849489 -0.7163273782425846 0.0032175121293007394 -0.0007428969167256078 -0.00010048681706257163 0.005288336854222613
 -0.001032604092148418 0.007530149256153717 -0.00555672510089142 0.00745722721423232 -0.7124747044162413 -0.050453413070576755 0.04056164746979603 0.34823441772442887
 -0.003337880237790135 0.009037032864385054 -0.016707186242071886 -0.011568776781784047 0.03180701885675339 0.324186245674847 -0.8137656694908384 -0.0464939428551138
40954150000.0 -0.42559819903703205 -0.7740098458425466 -0.20577855588762345 0.17319142150864814 -0.002626664655673054 0.002129058557433398 -0.006196295652818204 0.0028435729999563755
 -0.2131663283812168 0.18490980347384622 -0.38853646529582564 -0.7186101398177299 -0.0014937722386841239 0.0027172402507726224 -0.00017782846581868277 0.003723061100321622
 -0.004176213339134493 0.0037221388184907308 0.00617488680478864 -0.006553473973945159 -0.7088925591222867 0.054267532962041634 0.013466469789203723 0.32999859669833004
 0.0031341734791590216 0.007058272027756742 -0.009519508452910438 -0.0030048873836503007 0.024086875536333274 0.34309697424176855 -0.8829651085427419 -0.022451987477356446
41024140000.0 -0.4553711629784852 -0.7039101163614042 -0.20288039189646825 0.1811088476341223 0.0011861897659147557 -0.00168415078991597 -0.007650649827585786 0.0017678669945433263
 -0.20801889493107337 0.17577901605167745 -0.45343279777845447 -0.7098453361190102 -0.0010168160766907202 0.010200748221023287 -0.0013211499392209104 0.0006371476049317735
 -0.0037878021375511916 0.00036152810850087735 0.001097826956496176 0.005480510655154372 -0.7048478319310888 0.014492467902129193 0.02549800184359362 0.3422538184479814
 -0.008774355400280431 0.0037014890285203533 0.0006424734107316312 -0.00517385390725254 -0.033084910394171135 0.3113854493393899 -0.7669452847799404 -0.027733906274487602
41094130000.0 -0.43798668040090094 -0.745826200545368 -0.22367598638340633 0.17662329615803993 -0.0010383119235793513 0.003261025020973596 -0.0018737910064992144 0.0025835629836714587
 -0.2160868127750269 0.18612200604606013 -0.3999270254485817 -0.7662630095387636 -0.0027458582936705565 0.003167871619813377 0.0018932847283391345 0.00502698061995041
 -0.0011181883586187987 -0.005661680069206072 0.004188909556685999 0.008995661016865926 -0.7454157608517621 0.06465568767899146 0.0024244848959541496 0.3559163787186864
 -0.00515733671260308 0.015080437330710024 0.006617290942315297 0.011653847014653081 -0.03009756195837706 0.3846754647047742 -0.8660920401929886 -0.012455060839206576
41164120000.0 -0.4188442784140401 -0.7316601393202142 -0.21930088795186906 0.17614605914323941 0.001112419276948619 0.001623917064408221 -0.00045194322020417104 -0.0013010422501618288
 -0.20776294066820078 0.17055276384295234 -0.4391518643302088 -0.7515514696400329 -0.001108683557373027 0.006541778922747431 -0.0038448315669346467 0.0049243657066381525
 -0.0003412698242780979 0.0033137291690238223 -0.005461196833888141 0.008005455000419284 -0.7902505523697225 0.03914604949398166 0.027266076352348134 0.3535797882688115
 -0.0010012999865464604 0.005420745381452665 0.0019418721974929411 -0.007849849396211262 0.0034335082523634045 0.34016159349861896 -0.8255332500344145 0.03465061235402457
41234110000.0 -0.4305138024870406 -0.729681642195173 -0.21457503310956835 0.19119281710526057 -0.0065367923380667695 -0.0006250347175608769 -0.0007764677861830117 0.003150432031523623
 -0.2210973388928559 0.18983760436160307 -0.4693273483326215 -0.7427755285435382 -0.0014291998204384033 0.005354888099160931 -0.00010231656888584625 0.008244039327636357
 -0.004615201555294966 -0.002930105121298552 0.0029204196881945092 0.0032723826068002683 -0.7271666005155499 0.041711694096517725 0.025834423663856316 0.3528112334058696
 0.013082917766719205 0.0042413269525908 0.002683427728013819 0.006559487929711356 -0.002357580742424204 0.33744842158444094 -0.7700073011986315 -0.02826314619841253
41304100000.0 -0.4275011511045821 -0.715123536052281 -0.20929626480078156 0.19223542331049512 0.0026339414008728513 -0.00017911848026007997 0.0009342442205710214 0.0024561979330107744
 -0.20792203039414858 0.18224837571216518 -0.4403999194761029 -0.7192448648116593 -0.0005559186484930087 0.003115837986421598 -0.003919568401605161 0.0020504250379350135
 -0.004164593824487704 0.002401493752350184 -0.0016598905806721222 0.011046729279251913 -0.7432946616564603 -0.006506095137034983 0.012689441321062284 0.36489175367337345
 0.005615040705581364 0.005390881516967418 -0.004362619977220291 0.009765239458977311 0.015274615728461807 0.3335137926636059 -0.7852571072520359 -0.06324925740756925
41374090000.0 -0.43781183154445547 -0.7079267172325455 -0.21950307475435202 0.19503129321217194 -0.0044777592399404716 -0.0001051723679643256 0.007147690567529521 0.006635189212088138
 -0.21426737741992438 0.19010310742109437 -0.4686468466099663 -0.7306655300982995 0.0022933410528749292 -5.8106116380222736e-05 -0.0004656053856348836 0.0037080187919009667
 -0.00409958394890386 0.0053084148869990255 0.0008995844695436715 0.005125033477473254 -0.7922949296168629 0.006858936302481123 0.03548131134983655 0.37124947713270945
 -0.0002644316347101229 -0.0014932342259956573 4.3204688490151096e-05 0.006011471380638919 0.01162089290771336 0.33465777590555545 -0.797015629894075 -0.0010975428466553211
41444080000.0 -0.4571768970962617 -0.6857619102688912 -0.23344579433477736 0.17574799207386904 0.0021843852732185295 0.00030961355727121705 -0.0005912904236072149 0.002052849313682236
 -0.21754114016331988 0.19247700372616838 -0.39478448501207936 -0.7490574125443645 -0.0026400448842199735 0.003117068397759784 0.00013579947928452586 0.0019452089009298198
 0.002371986334444754 0.004972588597916994 -0.00044764425848246734 0.009769020633337532 -0.7224826808818785 -0.0033466387323093537 0.0025874076551665407 0.36239523695588316
 -0.007597362532756795 -0.00017421255904988994 0.005335448896768492 0.010431054300508289 -0.010317614912366383 0.3154382142078351 -0.889111045845024 0.020058755652693695
41514070000.0 -0.4361293688474854 -0.7195143734491155 -0.23917395772596028 0.17686058275858593 -0.0014313626868007775 0.0062336072117780755 -0.0005808499407469557 0.0010105779275376774
 -0.22625291079631563 0.18588724166798565 -0.40980629301304433 -0.7372937319119715 -0.0006665276852188652 0.005445387158797562 0.0005871737204023761 0.003682964837814035
 -0.0027642346703553354 0.0014821323565827435 -0.005923689119596335 0.0016608801637004373 -0.7562224496101484 0.03051051869768706 0.005805780087120155 0.31573926361573024
 -0.0060073512573645994 -0.0011779748333693044 0.010599183702582851 0.023213868866519553 0.03546015140850932 0.3071986360650806 -0.8288624659834356 0.03786601766125878
41584060000.0 -0.4668659606517026 -0.6920295812487715 -0.2101385158302112 0.19905742268295573 -0.00023725948660439052 0.003409885121779828 -0.0046077504188278915 0.0014832111557970958
 -0.2016316153042768 0.1940703659498694 -0.4735804629425503 -0.7085945704284852 0.0028667731157930015 0.006920794130478554 0.0008979537800107031 0.00587791048204502
 0.002652887982106963 0.0036895207117667033 0.0031317354361581674 0.0049275492576620955 -0.7654504821497368 0.06967761534126195 -0.002279253010287648 0.3535951729608781
 0.004874614634408636 -0.007781528877893235 -0.008049116272681449 0.003956224937887795 0.011189646270743465 0.31349240571941045 -0.8259027003044498 0.03937766250575577
41654050000.0 -0.47121249312432234 -0.720063481299182 -0.19792152222004183 0.18711143006320993 0.0006229062197953734 0.0023466139014776677 -0.0007289683137182787 0.0018739482599991252
 -0.20646389443831617 0.2012666229149063 -0.45982122446434065 -0.7101284222973877 -0.0019575258755560355 0.005293271244176178 -0.002654112378211088 0.005159248883411443
 -0.007304713486389117 0.0025160274474938012 0.0010121065477413484 -0.0011085453536010374 -0.7083610619527801 0.08317945882715745 -0.005436970732026144 0.3567566455555133
 0.013706853614922037 -0.0003017681420684494 -0.004042023094205289 0.0017654376210025234 0.0233350211936037 0.33406328437111854 -0.777748234085435 -0.00021311600408519048
41724040000.0 -0.45805578215835524 -0.7285471605261378 -0.250319185759123 0.19724719901718216 8.114447690063978e-05 0.002285812087516655 0.003342846425562741 0.0019689455729037264
 -0.2305975828452664 0.2002844865783899 -0.4435916004738097 -0.7673022465179795 0.0006680625282246732 0.0061918910243125794 0.0007200415700658138 0.00011945175413805503
 -0.004640539843151247 0.004095420084906048 0.007800961862643548 -0.0030676491335572408 -0.7495295604375202 0.09328710531828865 0.011571714477577372 0.33623126974979006
 0.005885178117704504 0.002687119072362784 -0.0037459232262735506 -0.0017491012986088081 0.05023054178553095 0.3579001786248204 -0.7475621187431333 0.010959313355038094
41794030000.0 -0.5086971651140327 -0.7222021005659545 -0.21404197876778178 0.2101256164139762 -0.0018801498311540711 -0.0020680769941624254 0.0016497814653973404 0.004473842308380139
 -0.22116359401536612 0.2097561344217838 -0.46693675895372977 -0.7141579387587602 -0.0028082163751697916 -0.0002425512764556949 0.0007623276734685597 0.003387745709573438
 -0.003658542535394514 0.003308044096561186 -0.00580849151287898 -0.002049709847087345 -0.7612498078071633 0.058444005322614415 0.04067317392127737 0.34449530945913254
 0.0036034216620433952 -0.006752659122189966 -0.004838620461001479 -0.0016843420465599704 -0.004391630485591479 0.3734531040758454 -0.7977055011181158 -0.023719938166616304
41864020000.0 -0.4557934087653682 -0.6944785994323207 -0.2128226364811371 0.19189354625759064 -0.0027370935686812105 0.0018681688411736888 -0.0024267737113939742 0.0033287916223534936
 -0.20469784718913217 0.1930783458217054 -0.4722022009957698 -0.6915871045999171 0.0012782675990851329 0.004501192286619587 0.0015934060425173864 0.003955688071153048
 -0.004427737976942644 0.0012148395186035222 -0.002335478324021102 0.009845147328584339 -0.7340698805145423 0.05180110978877478 0.07022775416014743 0.33847168392504334
 -0.007631089748601373 0.003122831962705741 0.006312422063842951 0.0019874578018188754 0.031051143193672116 0.3631312512297438 -0.8074623383018841 -0.010167138292835939
41934010000.0 -0.47385115433062663 -0.7150457021367838 -0.21802204701388028 0.2009300605992864 -0.0054845019650109714 0.0021512302419484 -0.0022851872643124237 0.0035980605326799103
 -0.22225472746879166 0.20535809594564852 -0.4724210334503413 -0.7432145232224038 0.0009027208597312973 0.007737519426680494 0.0028812611717384494 0.0017270558153244207
 -0.0011755554255521502 -0.0006458823742531776 0.00033567888003320154 0.004627879496747294 -0.7410430681654027 0.12407456058599277 0.04449572252255 0.35379599339767615
 -0.003852414093971106 0.005184613945865426 0.003045703518566962 0.009908508190988456 0.03254342284348092 0.3281004807124835 -0.7695372900345777 0.034890649412141345
42004000000.0 -0.47495862042829307 -0.7243909281255727 -0.21546130075852693 0.1832241481147949 -0.0010603644551635055 -0.0004195882366631338 0.0031181897830284307 0.002020893197843958
 -0.21552838019241274 0.20277934612006596 -0.4459165743441195 -0.6805812908468384 -0.000566671136436128 0.0015753870849956914 0.0010671681573972015 0.001368216050311075
 0.00944211101147396 0.0006645196095915397 -0.004747434214184512 0.004520114779693324 -0.7056527751857958 0.042384524513026794 0.031911168508531665 0.3605760312186848
 0.0006022655968874537 0.006474325356305817 0.0013370588174143514 0.0030069566907163993 0.029723029571754548 0.33229329145887165 -0.8243663285399748 0.007422921658944881
42073990000.0 -0.4377667305543653 -0.7079173138818633 -0.22936259029293332 0.20162198656534933 0.0012071552515086795 0.000341541125037724 -0.0006928737355977056 -0.0001355936101224998
 -0.21819557424413688 0.1982143669809001 -0.46045939025011534 -0.7345875771820861 0.0020244481842375353 0.007721343763331437 0.0022867415870498065 -0.0009708983220292057
 0.0015011999777057377 0.009527012691155901 0.003724411052366718 0.0012890611080656883 -0.7590333577706078 0.04760936212274771 0.024059181138349324 0.36461487594270614
 -0.0025924471643335896 0.00511669708409784 0.0020762582778441866 0.005710407398957707 0.04012462250948911 0.3434329430144345 -0.7628616622461455 0.010995832354397035
42143980000.0 -0.4803274470112082 -0.7367393019965126 -0.21624957159062239 0.20886698632714498 -0.0036249369332409308 -0.0020562392253789287 -0.005071994793347429 0.002839046663730552
 -0.23262270264522578 0.20687649608234226 -0.46870841638651534 -0.7161687793970837 -0.002721601483861379 -0.0012466612960439728 -0.0013717331889042824 0.003130000014401086
 -0.004901773089196829 0.001825251698513845 -0.007602807304007078 0.01633865625634079 -0.7642980161914433 0.16171219217314245 0.01582815390975538 0.33516650633254796
 0.0017995315477523808 -0.003345177622410852 0.003030329150213523 0.011771922779868535 0.01978780628018638 0.3543291843658231 -0.8033393289969273 0.01926702987160296
42213970000.0 -0.4585427733378668 -0.7102688480999727 -0.22399470117052353 0.20868994402845364 0.001356335479546849 0.001245653414069889 0.002077040516454402 0.001948864255268017
 -0.22171860536984916 0.20660478915416575 -0.47829277320633884 -0.7132177820279001 0.0006250703579476659 -0.0011217886888820127 -0.0001553888760165756 0.005271775673135795
 -0.0036449510389909238 0.0009326440611485329 0.003398926916306896 -0.004701204080809318 -0.7464351859595326 0.13677969171508805 0.04414599566433613 0.3524370753347754
 0.004207810094750551 0.0024845959002355103 -0.005204548423256543 -0.004657409485942198 0.05100407042694601 0.3600946293745569 -0.8264188203473211 0.027237529969731108
42283960000.0 -0.4576280974988255 -0.684366410293902 -0.235328453418283 0.20594992695570918 0.006042293647444329 0.0009687864006738192 0.0020458999802370386 -0.00023082340490166724
 -0.22046135585026663 0.21217026693316593 -0.4711397027102514 -0.738468474336994 -0.0029401260398578878 0.0034418005600053455 0.0030807130014608723 0.004876237335480261
 -0.002690718998799074 0.0071648441138436195 -0.011436078997751141 0.002782846777462788 -0.7498974633726387 0.06708355844081294 0.025990832459075623 0.34198972105905445
 0.008957456961905967 0.0023144160457588803 -0.0013438367183084697 0.014236781624514366 0.012599636615296835 0.341456068497389 -0.7774680091311617 0.046924122930807784
42353950000.0 -0.47487979088295196 -0.6846767161052033 -0.22004804149474735 0.20501725007976515 -0.0007825705003310217 0.001188395931719702 0.0037966763077393988 0.004680547028471047
 -0.221708640555896 0.20751555501723362 -0.4797104464888735 -0.7219785243662017 0.0014964070483218944 0.004853908422656918 0.003110962099632158 0.004219301065644675
 0.002834567018084643 0.0022332194404312607 0.002166638322815805 0.0011928347399145498 -0.7355394807194543 0.08711411166402867 0.0583435043679898 0.34430975483785903
 0.0024308254919620993 0.00038235704474110925 -0.004151543042443731 0.00021672307238912217 0.019969592605788174 0.3717727708803459 -0.7869440313265148 0.04063464676257996
42423940000.0 -0.4499844119450451 -0.6950644908163389 -0.2181916341310462 0.2126152335956778 -0.002688176101570924 0.0031960120630064315 -0.0027267500674244645 0.004618148139144208
 -0.22157890841433983 0.2010310845110435 -0.4783647359542098 -0.6859187446585417 -0.006643804382262083 -0.005990217911929775 0.0028564651821117405 0.0030319408036268334
 0.0020402270475836357 0.0003298072918452567 9.3080247543404e-05 -0.0038963603259732503 -0.7816861620568271 0.12386286686721586 0.014705483681152896 0.36088654790720953
 -0.002200672047844223 0.0012054418682929833 -0.004464327886626262 0.005052540080073689 0.014138684975731956 0.36698175380463666 -0.7758392395239673 0.045142200465236
42493930000.0 -0.46825659527965396 -0.6954907573047506 -0.22289141885487596 0.20752764719221717 -0.003532119512988255 0.002910298538645699 -0.001790390458931825 0.00505680422573926
 -0.22469863089143371 0.20379287571981453 -0.4708225295190621 -0.7177712090064119 -0.00011459284194555925 0.0005141466372035517 -0.0012978577400752731 0.005930925450370788
 -0.002391471631054355 0.0010557220891932624 -0.009200937724842618 -0.006733205351408831 -0.7394305157658987 0.07367333552797968 0.04752520413919767 0.3843380139863475
 -0.0026729548798465974 0.0024508657419427095 -0.00652354654209036 -0.00015947761355408915 0.02875330699885604 0.3151807691788985 -0.8137238263792989 0.05407172714643428
42563920000.0 -0.4638758748815664 -0.6956524773517481 -0.22246432430800223 0.22240298555321006 -0.003151171453463864 0.0024773148988436514 0.0005896208634988712 0.005107170383443091
 -0.22155811951289073 0.2154362958246476 -0.4745373993248906 -0.6954684944929868 -0.005488606986532892 0.00018246903577293945 0.003336038254443543 0.002082048424087023
 0.002220909245835735 0.0024510877395460436 -0.004168784396978331 0.005265603547409084 -0.7504407305214007 0.16080246644281498 0.07601110430715494 0.3024821755559477
 -0.0022076246932886978 -0.004807475868477787 0.004692606334579443 -0.006076582655022092 0.06191381149916147 0.3301289089292687 -0.7951445762137525 0.021915961282170028
42633910000.0 -0.45912506163954236 -0.6825577260038591 -0.22047302256409432 0.2126808854800858 -0.00010757602501719516 0.0028920197224056652 -0.001276776617354259 0.0009455721999044628
 -0.22193366922649674 0.2056783765926232 -0.48665464497703975 -0.679150805696214 0.0014064067675326295 -0.0007139908817912264 -0.004280046999234966 0.0035021675592736713
 -0.006068859781882288 0.008918700525283534 -0.002931393033293443 -0.009450703479646678 -0.7245632895114289 0.09546904554814827 0.028351458684896934 0.34191715966698644
 0.002957058059865643 -0.0012381104606426412 0.010017249904101647 0.006660294681140356 0.005184554594188362 0.37057878365037616 -0.7903805923598467 0.029720977266612113
42703900000.0 -0.49593276959070764 -0.7041064718565913 -0.23186257143683547 0.2259162665988817 0.0020202145851654853 0.002700941404936297 -0.0016896814461738914 0.002923278641519025
 -0.22254511951997816 0.2200945596031417 -0.4988109841020813 -0.7146113998692275 -0.0007043484749502728 -0.0010475372410615393 -0.003291117082770873 0.0018592729003269954
 -0.0019869794928126733 0.004413934082592855 0.0016311251223125494 0.010440788739927728 -0.7214574696498213 0.09305826704287663 0.06387272933506356 0.36692208514100116
 -0.0009886454631361221 0.00045312781787668256 0.007678507610287419 0.0018525160946860244 0.07628647601724298 0.3288215669285709 -0.7895855587111436 0.07811248531673694
42773890000.0 -0.48502661951984943 -0.6726618771848124 -0.21915993640053757 0.22042893390326349 0.001563953520273453 0.0025380908553335074 0.0017577190108743568 0.0007830030755321286
 -0.21974387130600678 0.2181937724017874 -0.4849079225064728 -0.6762942477192639 0.000863585449782873 0.002796264400625752 0.003030719230757088 -0.00010626519523985008
 0.0012048256569785359 -0.00045389740428553526 0.005564113394638507 -0.007714873219684451 -0.7743471155728984 0.14312257870273748 0.037461889855756804 0.37723162432494267
 0.00011587529161297778 0.0009983567726860143 -0.007363407411756876 0.00646916195330141 0.055857712780104665 0.3246439555901034 -0.8058884696424836 0.07474866383069537
42843880000.0 -0.5080420660771684 -0.7000509790554365 -0.21469507531290488 0.21683558234100803 -0.0017487712725099917 0.001123781977473195 0.0022264439098039 0.001783633069440155
 -0.22911994222738613 0.22180558426141178 -0.4558689650897453 -0.6634968669786677 0.0025043245672059736 -0.001031617550476852 -0.00039734987871604217 0.0039301408858316515
 0.0029657359317434503 0.008894795672122426 0.009709456373014179 0.0031184066375989925 -0.7093782799076709 0.17794134423690125 0.05044129542533116 0.3323496876542356
 0.0065816559310565926 -0.0027266256664135015 0.011320163406672567 0.006526693112780607 0.0652029999795775 0.3385727377326243 -0.83079749868195 0.05600589256975361
42913870000.0 -0.47250351574621957 -0.6761176622303964 -0.21111005433818109 0.22500997185781882 -0.0006170863027574662 0.00201036403316441 0.0005253116722934835 0.004646686119734831
 -0.20934291477166098 0.2191023582174598 -0.5198355644817789 -0.6529402234931484 -7.32447928134161e-05 0.002977012059971414 0.0018792879572755664 0.0016465722226085698
 -0.0063391820461096895 0.009287007881529344 0.007477833239009372 0.0012815756403287038 -0.7159792411122495 0.12289136823676997 0.042587040648016536 0.35779043468743094
 -0.00032854549892258035 0.009349362809495162 0.007372418954107237 -0.0016459179762250353 0.06056958485289912 0.35950687665238606 -0.775303407397224 0.10079340415706807
42983860000.0 -0.48052677669315874 -0.6851658106421596 -0.21515137329564746 0.2198396303948016 -0.0004032691846545996 0.003891984520258316 2.097294592611707e-05 -0.0018606252550365879
 -0.22604516155268994 0.22395598211873327 -0.47107256999937636 -0.6865950943206388 -0.0020862224988940814 0.0031355986170470483 -0.005810014412503287 0.0085698485689775
 -0.0005378939242494679 0.00204954269205405 0.0038614311030486345 0.0026862360277274985 -0.7674872929837145 0.14968353478549692 0.008370859397279648 0.35505459245259785
 -0.008685338043911852 0.007750108835272849 0.007063669475152509 0.0003212343609277143 0.07365233243183929 0.367752064230486 -0.7814142226830963 0.041332378532414456
43053850000.0 -0.4641199020369927 -0.6824166130727556 -0.2393289796518047 0.23729754030427205 0.001481166128697197 -0.00045091388905029237 0.0025806506258233605 0.004873009538481141
 -0.22042624023692198 0.22163138261108858 -0.5134364351565707 -0.7172212497833322 -0.00270641115949814 0.004467249791160569 0.0030311286884935665 0.005570510370933993
 0.005891722551643721 0.007567460643876011 0.006743471473370827 0.0164090063612551 -0.7546382634523873 0.14732660967093217 0.08926598372201415 0.34570254145732243
 0.00785094198585942 0.0015786803079728886 -0.0017749695658784384 -0.0025790176160571405 0.0675311856001596 0.3791976448634324 -0.7345040650115979 0.13811294181707362
43123840000.0 -0.4810849409913226 -0.6763071187412399 -0.22289896738090287 0.22162503339531708 -0.0057774071670544614 0.004077506121315131 0.002798903671570194 -0.00046707720149834485
 -0.2107716556032471 0.22392448717096525 -0.5182150850303767 -0.6743537775013481 -0.004443884655637129 -0.0053494735977691246 0.0011211532796668211 0.007421392630659237
 -0.000662156956138571 -0.0037994106844446373 -0.0065983984462399175 0.0017382354878177739 -0.7067301296041675 0.1055597360090312 0.04590727748713885 0.3638582641938133
 -0.0066207818927188815 0.004304828693220366 0.0006691134640630964 0.009410265965132045 0.0427275287943399 0.4160727879075433 -0.7852814244674235 0.13327158440488684
43193830000.0 -0.5530522897546236 -0.674246443933339 -0.21098657556616304 0.2168016989625939 -0.00014860202630433036 0.0013156312117374588 0.0040600968259981015 0.0014007853954850031
 -0.2099079614465019 0.24721830008661866 -0.4868364815595941 -0.6812637673687251 -0.008108026133359631 -0.0005111651068101547 0.002077217605782613 0.005529837811142236
 -0.01299058320120179 0.0008223061105083402 0.00559707106183948 0.004250208347405406 -0.7172523991185875 0.17041067987834574 0.05519965267128697 0.34568413290426747
 -0.0025690993683220487 0.0036580230177644525 -0.01315221318376405 0.011169287896834138 0.073345636788099 0.32536387647447224 -0.8075482098000939 0.1683555547596557
43263820000.0 -0.4777155206797608 -0.6348646755062592 -0.21725348918719375 0.20996126140079316 -0.0037579465046456576 0.007574250503400285 -0.0016896927422457898 0.00043427004241877097
 -0.2144348007342406 0.21767023141656588 -0.49488534923043603 -0.655855792114035 0.0035147703307175375 -0.0015430306870095353 0.004633729654576547 0.010600680506553916
 -0.0032945962132880048 0.014841715879856632 0.004578243590896869 -0.0066107460671500735 -0.7023915757717533 0.1301767797799625 0.09363297723968009 0.36752198624162447
 0.0007081465083878529 0.002699566516904842 -0.006387215479699253 -0.0026780933647132473 0.043789636246997506 0.3676440581028656 -0.8252725823183519 0.13277529220284365
43333810000.0 -0.49033874779743164 -0.6673932413237015 -0.21764452974424373 0.23373437443057404 0.00031443024183156734 0.0031721771692416675 0.0005604044789841459 0.003043029029080599
 -0.2189090523018334 0.23451066878989155 -0.539344008820689 -0.6723331681449441 -0.0007978607967920274 0.0027227018315878065 0.002857505142537573 2.6715297526447653e-05
 -0.0008119822949564199 0.006247819256005958 0.008694182068098797 -0.0035905417256590793 -0.7610984685297616 0.1975195283785402 0.027382673565907758 0.4024813462089601
 0.002868835957774204 0.006220710171732851 0.0047840425040766455 -0.005458215511813291 0.023442191753466443 0.3392317306932713 -0.7739434525460815 0.13929624244766547
43403800000.0 -0.5155774696645805 -0.6517811866124767 -0.23168497187079862 0.20499773354341025 -0.00044857053578878137 0.0032472930642719364 0.00042189249110733627 -0.0007909402666163705
 -0.22269377980843744 0.23238849767196035 -0.45412296428259297 -0.6976261799368173 -0.0056848872566351485 0.0043590312190265644 0.0016563320205892414 0.005953659938865657
 -0.0060938490312014626 0.0023061140013369637 -0.0013058546075261621 -0.005111292131752585 -0.7417055522105298 0.1352213894585408 0.03738846877890217 0.29176528456387724
 0.00823415789344967 -0.001099598170559287 0.0071240588167799474 -0.0005734611008273514 0.054244013441420144 0.36099862651079223 -0.8124121573046816 0.11200464103904013
43473790000.0 -0.49766585555769816 -0.6488286529270206 -0.22786414436331878 0.23080452340916568 0.004530303723232933 -0.0007661071291583438 -0.00020845582340538548 -0.004288852646780714
 -0.22043579883907993 0.2328184562834825 -0.5005073503327722 -0.662428346315024 0.002677690003850498 0.000720266588129957 0.0014545476790682162 0.009016620958837361
 -0.002929789613329431 0.006933892685854805 0.006856015264274539 -0.0010056782802586356 -0.6831597378562743 0.1712277833640148 0.009623301118120764 0.33748755598057073
 0.0016762308871462203 0.008686367552376114 0.0015345995379525336 -0.00042248446595934635 0.08283371654629453 0.3409608791754265 -0.833519056558316 0.14596560890108196
43543780000.0 -0.4696811568641123 -0.6752920901928314 -0.23271459056825305 0.2228138993474758 -0.0019211152445887912 0.0009019245102401806 0.003567600816120109 0.0046653387628528995
 -0.22335860080460052 0.22878498399578792 -0.5060407686360686 -0.6917032257442061 0.0038173864349797947 0.007048019759088449 -0.004209200185779106 0.0033006599364634724
 -4.2012866049076526e-05 0.0010992273450926736 0.012263852839839889 -0.003583497174660243 -0.7809402296835716 0.17050239526741318 0.026024229550840314 0.3240414855504992
 0.0003319083888708577 -0.003289768429483579 0.008708135632818869 0.005474990391434515 0.060158366698632795 0.35735430255514833 -0.7920619235306335 0.20743159582043058
43613770000.0 -0.45749448761518047 -0.6717039060646183 -0.2302201288161183 0.22948759056181067 -0.0003503618371792999 0.004593815518631258 -0.00118471642692233 0.001873355537171037
 -0.2477995818001651 0.21999438952902514 -0.4629300959360183 -0.6604675948545652 -0.0028310094455246924 0.003389826913984413 0.001940800329063601 -0.001027436079920311
 -0.008725551960140234 -0.001042806868910363 0.0076860054225905165 -0.001165938442679892 -0.7686046142636146 0.17988826030234656 0.04559782087747977 0.3189971315758047
 0.00854021993542435 0.008649378895492905 0.0017300614015339107 -0.0046923157097027955 0.09198439235604727 0.3875081210194569 -0.8042599538286931 0.11657488033004706
43683760000.0 -0.4833675760084764 -0.6303377074483035 -0.21786534944410849 0.21513561920702076 0.0006837832976881135 -0.002311721781715343 -0.0001559453137911063 -0.0014418147787983926
 -0.219228898647235 0.2299115214456891 -0.4619372764573406 -0.6492502605496272 -0.0038087322324048037 -0.000770631908890996 0.0049229891386194284 0.0044180777332320335
 -0.00649490277414092 -0.0009898345484029895 -0.005053406402779335 -0.003936803311529661 -0.7138646139208801 0.17981778049703723 0.08251995255745023 0.3825389971521614
 0.003165947411044111 0.003767060789290156 0.016150865080410436 -0.01664311121042616 0.08481852488572478 0.3204513122875484 -0.8309390306948853 0.08837347518211078
43753750000.0 -0.48999176237189956 -0.6990715880305882 -0.23695114977631468 0.23992669252188778 0.0014371920766935809 0.0017701675320083478 -0.0007558839092322443 0.0009393474811297154
 -0.24087349987322912 0.2426804283903396 -0.49509983754329107 -0.6625727354747112 -0.0025358613212666395 0.0038553455492365703 -0.0010640534049543508 0.0013629997801667482
 -0.0008583760911472024 -0.002943061968977465 0.007746556326924096 -0.002494479394528756 -0.7403401567244049 0.19752899347008668 0.05628899941953461 0.34208225001761483
 -0.0013045776766030682 0.01628694937099484 -0.011360111719284784 -0.012662918692111462 0.030930519616856625 0.3625733942034143 -0.777407183631575 0.11615376520763011
43823740000.0 -0.45890982452157125 -0.6183982473544968 -0.22349902800682686 0.24471720233712366 0.0037541340132243727 0.003971959529053736 -0.005054351572864913 -0.0001501509212511103
 -0.21641699067315398 0.21659005511107113 -0.5025129640892158 -0.6790998585452143 -0.002142927749097442 0.00032730162047033137 -0.0019339514534494771 0.007315938138858922
 -0.005452818574281266 0.0020507202972677614 0.003437014555365241 -0.0005809085415636841 -0.7912513546767264 0.1787602935097632 0.06345451162558405 0.35773509319336794
 -0.0013453262891791012 0.0014257697814677843 0.002064302687590751 0.007577131508547156 0.035921554861086016 0.3475214658945171 -0.7653441961298898 0.12371745901639743
43893730000.0 -0.5140620490175215 -0.6392431455625917 -0.2192275662036335 0.2344381203932802 0.0025956691774707188 -0.0008841424167001407 -0.0018424541688074202 0.0031260446887214697
 -0.20859063730464697 0.22893451637456808 -0.5491468854119228 -0.6534025713451183 0.0016585078195249592 0.002871900913995942 -0.0019333966859129473 0.005405474439772519
 -0.003741970584637525 0.004756357856670644 -0.01613485196778773 -0.0043024410314987495 -0.7097048473738755 0.20022700365532978 0.05586814836778152 0.34501094931484405
 -0.006228285619372414 0.004666222940486882 -0.012115322668227778 0.008181798571562754 0.12211709118920888 0.3300175862920171 -0.7477721694838249 0.13902340523753728
43963720000.0 -0.5322918823808175 -0.6735342624525518 -0.2413332856639099 0.22830372913178237 0.0012772267843647277 0.00023210039195329407 0.004252949205630026 4.9407451453764634e-05
 -0.21913801928474996 0.24186212598460358 -0.495747742159051 -0.7050925180564279 0.002975611905304955 -0.0007476290937292113 0.0023740255191757194 0.004148626096728396
 0.0006801963353901101 -0.004770569914047514 0.020999277467872925 -0.0027223405510781165 -0.7065252281947063 0.15525691346324696 0.05650563741168794 0.3519323664285138
 -0.009537727740080479 0.004596124924586735 0.007044014900601707 0.007117157337993332 0.05279998253719103 0.34118214737430647 -0.8578377433334385 0.15161194106826803
44033710000.0 -0.5096594907878128 -0.6002219161399975 -0.23528789888070728 0.22679305878555928 -0.0017390554885512674 -0.002104721116362144 0.0007226588400195734 0.004111917930496247
 -0.2260421380701875 0.2327593905725467 -0.5185850047398545 -0.6831213818004895 0.0037438977648471465 -0.004673857079604658 0.0016885884335665342 0.0008921169407379879
 0.0024571334953843262 -3.527440639749812e-05 -0.014842450190503401 -0.005341357759071712 -0.7291556046890089 0.145839955806716 0.0937256809964489 0.34192286931162374
 0.005287499053592263 0.01594343024437197 0.0016991851614574017 -0.013013393124151973 0.03039069446980037 0.32916197009166787 -0.7745859529284818 0.17335198475732108
44103700000.0 -0.5428548143126614 -0.6721790056217729 -0.21325480539629463 0.2576479907563685 0.0013324870019111705 0.0036319849110328993 -0.0003737705791037995 -0.003216851608097851
 -0.22705364234461037 0.2548779309869593 -0.5380099741873552 -0.647974013379325 0.004612352396616801 0.0035537249550558364 -0.0013097198408906034 0.0018808232351838045
 -0.013866317702796059 0.009862294525559659 -0.0028402116672784977 0.007999738104954203 -0.7049131968534879 0.2132810148902575 0.07899194890743548 0.32821244680416906
 -0.0010527575188995395 -0.0005478300540485991 -0.0050281430893750504 0.0017975839194876914 0.05566836305346571 0.3645206762587584 -0.7848961331225955 0.1469304376420453
44173690000.0 -0.5314250364223776 -0.6921812958896368 -0.22140692384838848 0.25583363737382214 0.003271232891454869 -0.0005532970253089489 0.0002537149603353641 0.004115829884571376
 -0.22308141103125062 0.24761617612197864 -0.5367089977770779 -0.6494895113411179 0.0016763521576563577 0.0009663609280097333 -0.0013236049896987348 0.004017942880188545
 -0.004430135917896987 0.006331780811473357 0.012364054804418958 -0.0032125840833290378 -0.7332644035202692 0.1878297406636449 0.05261503255884251 0.3529440530397463
 0.00393534045204024 0.006679018934220346 0.008230796319991483 -0.00043246290896406536 0.06049945835206975 0.3347876236440882 -0.8003331608123285 0.2076181877090554
44243680000.0 -0.5066827776835706 -0.6710592863779261 -0.2386158255702854 0.23433326417014433 0.0028885954686903364 0.004212380470157742 -0.0025753413000402336 0.00022906837234028135
 -0.22592786695903125 0.24461201348018854 -0.5089811696388997 -0.6502278544470791 0.0067099045370979694 0.0034802893178128265 0.002424286486492042 0.0023755183821266225
 0.003464840703244895 0.003048150305525008 -0.00256698565764398 -0.0020328832204875957 -0.7029792227474151 0.21964566038858838 0.10715508409669211 0.3271857182121922
 0.0013068002404421275 0.0009680038740231628 -0.017862507394124368 -0.0006542079663889517 0.06467158016247888 0.33365179711723575 -0.779929733673525 0.17751637192799202
44313670000.0 -0.5524842488529439 -0.6195328344365453 -0.2242579318446767 0.2572012501387462 0.002826316856558888 -0.001114471015941977 0.0030487218309966538 0.005721101245063864
 -0.21857171770638487 0.2564543080051282 -0.5313405300861326 -0.6538376913334367 -0.0015353759029419873 -0.001716271761127939 -0.0029894190214757497 0.00274552411081587
 -0.009581893638329668 -0.0011089340801422479 -0.010423632667491403 -0.011812729572432972 -0.6407565431243479 0.203477833070896 0.08527853106702774 0.3150174698602933
 0.0006370873585978178 0.002292938894922208 0.003409687344034888 0.005504235824153054 0.097497869644459 0.3627547511780255 -0.8013927436810083 0.16892668558861473
44383660000.0 -0.5633073401819662 -0.700320136750212 -0.22891479346689755 0.25787010180870024 0.0013208478468835578 -0.000988412418352437 0.001694604393686788 0.003222141354044232
 -0.23751755037495254 0.2813428358191398 -0.47954868166018616 -0.6406249237272892 -0.0020530545137270543 0.0031754709868384765 -0.001625509151943269 0.006886748575686209
 -0.008723460717951766 0.01348292080660881 0.0026758144015619624 -0.006900826129975653 -0.7074107075328551 0.250614265882315 0.05849751690411675 0.30298691598223204
 0.0023404367970124374 0.014825599275613738 0.0058143175451828505 -0.0009212162685146871 0.059892103474344725 0.3309276218635281 -0.8822390882986313 0.15768297162420658
44453650000.0 -0.5325073301883573 -0.6499693560583528 -0.23178922966648863 0.25686759344812277 0.00033398277453827057 0.005993482740974253 -0.0044237898573309415 0.000691133392256385
 -0.2246869969914051 0.250435336344047 -0.5650961135711393 -0.6440442914896604 -0.0009768153776919459 -0.003829909217808675 -0.0018347712240024024 0.002295106592828988
 0.010108760702542482 0.002135769381312259 0.005228928814169949 0.01106230418674512 -0.7132063343157886 0.18703034540191762 0.04908552190702046 0.3122490524051647
 0.0013153308398485793 0.003827800755487678 -0.0036215191343506917 -0.0011950459469687077 0.06312567195160095 0.3459938319337525 -0.7465005827428195 0.20012477482476648
44523640000.0 -0.5335121174269895 -0.643212123305396 -0.21590156936363622 0.2718868582760819 0.000976656623061621 -0.0031636134153114675 0.003064756999822019 -0.0005259567938096459
 -0.22169391488578646 0.25962986071996874 -0.6001090062024149 -0.6479113192604444 -0.0008910552504754247 0.0061552672623351665 0.0008335965339568763 0.004997417220969807
 -0.005955454857852508 -0.0007155747229776758 -0.00015727365474535034 0.013626586445522084 -0.7039925686221598 0.19964251627587257 0.0362625347451752 0.3385319603702645
 0.0035753106290046404 0.001862598492632415 0.017876310232435945 0.007896489159876048 0.08432828047732785 0.33702270361448344 -0.748025940300362 0.15523552361260493
44593630000.0 -0.5657555161352051 -0.643714037108614 -0.21660671830632366 0.25580190405062 0.0013895471987537943 0.0037252452842153764 -0.0004320082796926695 0.0003843187317903546
 -0.21585792139492782 0.2621603656119966 -0.5155247874393367 -0.6239846321310292 0.001956547727277982 0.00421554142109463 -0.00014352996170514766 0.001786190981232921
 0.00481923443531176 0.006186813589683392 0.008102844729504944 0.0006160258084750302 -0.7227215055137056 0.20190577063338044 0.09827645742607316 0.3190907377624104
 -0.002588539919566915 0.006280206368212268 -0.010294426219058291 0.0072912340651472025 0.06810650363914923 0.31816227778081946 -0.7525580788674968 0.20586953471081318
44663620000.0 -0.5665162314617213 -0.6118954074880487 -0.2275154588240066 0.2503353687191897 -0.002746921917965409 0.00010972273229206931 0.0018420121235031169 0.0007982624260264307
 -0.21388511429756996 0.251698410976707 -0.5518453780793843 -0.6162047701684684 -0.004231070630915254 0.002360161092090079 0.0021939927136407295 0.006854768846291174
 -0.0024019379286938096 0.0036957785939160993 0.00773866666089848 -0.01523225893346887 -0.724353626957014 0.1783728137849193 0.08105181636451413 0.3561630206084855
 0.005773751835787793 0.002525724962220154 0.0043224664136952565 0.008762904736932498 0.10054511604378452 0.35112491326195133 -0.7872944910766263 0.1408751387203325
44733610000.0 -0.5374115547153907 -0.6210879505221377 -0.2226098365668783 0.23923665162776106 0.005643331063613573 0.0005132809606713016 -0.0003647246271745387 0.003865555613856639
 -0.22755795743416465 0.24067617849575737 -0.5179155551647482 -0.6075876923186783 0.003674236292468952 0.000991330688320152 0.006916239044489835 0.00203678107413184
 0.0036021233913614338 0.003004463391902492 0.022241021564772746 0.010564942878083303 -0.6683785822007071 0.1482934606108555 0.0838358024029372 0.3933603480491343
 0.0010072994656809163 -0.0012354765900618027 -0.0029492818545141775 0.011742884359719602 0.07915351211648038 0.36043853161814166 -0.7690181033071639 0.14408314714662826
44803600000.0 -0.5442486535316435 -0.6298888780988524 -0.21854918824943947 0.28099063603384944 -0.004616241151089957 -0.00047452610122198133 0.0026429115187695798 0.004225570073429002
 -0.21782013924070207 0.2630916985381856 -0.6115157828740727 -0.6357675512258151 0.006480934068709524 0.007091133110965546 0.0051714913079671816 0.0031865925505185706
 0.0031227472243077026 0.007064374951339922 -0.0017565052224162538 0.0031047009728331133 -0.7304101421301871 0.2336782422033655 0.12328149354597336 0.33151803186607226
 0.0008104645567393129 0.011822064851884813 -0.008721614717511627 0.009999536069813892 0.08446366075212705 0.33746370529334546 -0.7358584700233562 0.22262710298149427
44873590000.0 -0.5658740442779004 -0.584320238973582 -0.22468920844021725 0.25251997097998025 0.0023779713398414974 0.0019408287535159024 0.000982932944177932 -0.000576639749562862
 -0.21135842769797822 0.24296785829861156 -0.5380885264122146 -0.604007359786279 0.004239384575819042 -0.003949721201534531 0.002170368687371402 0.0015274769936615116
 0.002261846642088833 0.00588818015622353 -0.005119338866366138 0.010956233123447168 -0.7563496523384966 0.23825554827639514 0.11852284477304881 0.28767311645848204
 -0.007231678546997045 -0.004149368727045204 0.017319154977832325 -0.0036996312698028663 0.08875441317995925 0.3045651214878735 -0.7255978735288541 0.15890784025464214
44943580000.0 -0.5557596358748148 -0.5932913504567422 -0.2197376764240043 0.2573024960215331 -0.0011586179808112116 0.0012329745918199728 0.002365173713390693 0.000801057626433629
 -0.2233590681297323 0.2694016052893595 -0.5422986840398555 -0.6103785785859991 0.0019897948174401403 -0.001943013455915464 -0.001170457475507499 0.0062234614369496444
 -0.01346711786322842 0.001954511095065918 0.00039828093916411945 -0.00501620017972063 -0.701290447065633 0.23254491012355888 0.06453510994621584 0.3103634003476522
 -0.004962605256736731 0.011828391557388714 0.0001693240095910805 0.005635300022199916 0.06699692195632517 0.33202813464069014 -0.8164919245558139 0.1652892323300115
45013570000.0 -0.5355994339336634 -0.62607676323613 -0.22103495987248825 0.24830748161695593 -0.006976200810094672 0.0031054941016781853 0.00377776939943563 0.0028740855863153038
 -0.22275423655141988 0.2688697348405252 -0.5669284273380694 -0.5792315227409371 0.0009027414280683774 0.0010231460278471714 0.0006576431886105698 -0.0008958775354831182
 0.011502069456719255 -0.006063750383419528 -0.0011177184896030048 -0.0016665430519237142 -0.6849876322418943 0.19828409535729194 0.049092312232756695 0.35960222439005485
 -0.00014809444566042337 0.0015196690418496246 0.00944019825467519 0.003488379583689006 0.10444608819711353 0.29320695150305326 -0.7831337256447829 0.16701458089670626
45083560000.0 -0.5800722128483017 -0.5985692742831846 -0.2228520053818485 0.27595086082762504 0.0008009741976338253 -0.0005393712571004826 0.0037866932936856993 0.007124703875221623
 -0.2123659187790335 0.26031954585361183 -0.5539854192639697 -0.6072403562503061 0.0033220732120046803 -0.0040972284371771925 0.002787527900375435 0.005517113479244365
 0.010207231945595521 0.009655077954051489 0.014283384363253621 0.0013546188090510652 -0.7525735416625854 0.23621590822828942 0.10282789532583753 0.3010000025998437
 0.0008596441890321053 0.0016010476267103095 0.011992065836130704 0.006897364705719786 0.03427238333326926 0.3402503201366826 -0.7320276359045541 0.20535293332500082
45153550000.0 -0.5480008120019831 -0.5941186509588628 -0.2282479061997111 0.2743136026889596 0.001158506169102365 0.0037838106655508274 0.003126731358692069 -0.0012739613177011142
 -0.2209131886214424 0.2726104436377612 -0.5812257655509184 -0.6348124833107845 -0.0030944488091258914 0.0033696468870036 -0.0013750503441437155 0.007937612704750456
 0.010962603724896677 -0.007721117342200932 -0.008295162659625507 -0.023894964004497306 -0.6902268288656166 0.2362515171052465 0.1080641120247009 0.3554335211317085
 0.0005503542456590838 0.00665817036417156 -0.007792827351196409 0.0012745603014436234 0.060025127622767134 0.3052813153855861 -0.7537076982232115 0.20761559532604212
45223540000.0 -0.5467548997147545 -0.610389836383291 -0.2237476367668211 0.26820264801897015 -0.0058286335809631116 0.0023701525181528036 0.0006823038058063449 0.0010658150528001624
 -0.2070782993291096 0.2550479921826474 -0.563839906200306 -0.6117982998807568 0.0027356786655667567 -0.003193495411894973 -0.006430090372329921 0.006991274687515402
 0.0016106505354055727 0.008053320265912572 -0.012333103270856976 0.010062792099084169 -0.737761162384963 0.22934354832123735 0.08537847276000607 0.3172049067735538
 0.007509366082777434 0.005617149189676112 -0.0011288422380581339 -0.0008183140844555704 0.07848735888207996 0.350539916013276 -0.7883435806250269 0.1701218893429808
45293530000.0 -0.5549266129615817 -0.6357143247785901 -0.22930603793794158 0.2675907615322265 0.002074861714220799 9.764003263051093e-05 0.0006471590893209153 0.001664589115044869
 -0.23159555916386942 0.27727024573483855 -0.5558612160896321 -0.6108877839715473 0.006553599016773098 0.00034274880345207655 0.0018727422442836644 0.00929598081718727
 -0.0014229229025594864 -0.0074821367169838155 -0.0011722494808098722 0.015107811989315196 -0.7164708555998832 0.2775195675265853 0.08042795541216294 0.3528540063342807
 -0.0026267502673766215 0.004244748018692603 0.013988184658787522 -0.0030624232433204106 0.10651663537204732 0.3764210567845113 -0.7714661800752792 0.17689199782453804
45363520000.0 -0.6259658414492982 -0.6191421655755576 -0.20561902244180652 0.25593875182060133 0.0026366155986051205 -0.0005438024188585183 -0.0006764592621654422 0.0009455515078458578
 -0.24157217081237456 0.2755708534444547 -0.5732243489008546 -0.6042974048562608 -0.0036035136041781667 -0.0006570916356548795 0.006493699565958461 0.007291089064786453
 0.000332561578193912 -0.00020083236914544318 -0.014747569837667982 -0.005336740864659062 -0.6905182058015715 0.3010788221555834 0.08767579680487503 0.3457589412330715
 -0.010351560099888243 -0.0047860085055712156 0.012919473644726962 0.012053815259102412 0.08326483402381028 0.3455959131286194 -0.8221004720296209 0.22706797198851378
45433510000.0 -0.5369846284717967 -0.6365637101411569 -0.21979644943593268 0.26974497682012133 -0.0015393037564867902 0.002833004606725747 0.005398300326904851 0.00238770804866384
 -0.2489759187727217 0.2600736420033883 -0.5595606951078003 -0.5644573328170928 -0.0065678313953987915 0.0010295636917742117 -0.001189251228516223 0.0005394132234654023
 -0.0015721013918794107 -0.004220465494047623 0.0048388970883421105 0.001921145030254715 -0.6919364915012853 0.29347875205407786 0.0567533952688495 0.3234468125928855
 -0.0004682330461121484 -0.0018862527090345255 0.02004060984570935 -0.0031435154246532903 0.1328925834915607 0.34712312445517063 -0.738857670536411 0.21340001372935402
45503500000.0 -0.5874025215366305 -0.5927662335303394 -0.23278885483220058 0.25717468383674474 0.0009126539627668362 -0.0034647709773920547 0.0027901518323734543 0.00048283086344113756
 -0.22660895781545579 0.272749309503835 -0.5111865734481474 -0.6514274612516244 0.0007117233627143115 0.004384014690925835 0.0030814449015065136 0.0022722704805993826
 0.007912180868943654 0.0004690495172789765 0.0005848679997732144 0.00155518776499232 -0.7066536020215599 0.2569480980860206 0.1349443201468822 0.3341244934958878
 0.005064516939719424 -0.0006986452787972181 0.0027485061635354182 0.009139366291497671 0.060291221976070335 0.33783362555565394 -0.8071754485935668 0.2605518882092272
45573490000.0 -0.5774426159516794 -0.6094874409998793 -0.23449955971833905 0.28127338760704973 0.0011371565203408707 0.0049172136063074965 -0.005731826635907269 0.0003926161067921921
 -0.21884371835335473 0.28312004566002397 -0.5704194800715707 -0.6387396498637994 -0.0008751164542205054 0.001878550495135776 -0.0008497119744949628 -0.0010986060485005105
 0.006934173636088235 0.004122178954920145 -0.003366142158653303 0.0039410650133047415 -0.6783490613580567 0.2730879803758049 0.07131270091134749 0.3237320351586942
 -0.0007553465065527337 0.0018801591389650887 0.0008106813580898388 -0.005306156757472946 0.07864416599931678 0.328994532172188 -0.8159765669277476 0.274216491277146
45643480000.0 -0.5664787823608268 -0.6225018508709917 -0.21704708584760948 0.28293181244353083 0.0029370814093762896 0.006649091122115429 0.0012904085508249822 0.0034942178669573093
 -0.235706386076808 0.29270322764810036 -0.549143524770832 -0.5556571984066113 0.004165336476735331 -0.0030743938919395477 0.00935924006105332 -0.004438162052311488
 0.012455393047150012 -0.004979292928420198 0.010259181860418682 -0.0044424507947908465 -0.7136125944164544 0.2465931482826909 0.12600559672338602 0.3476541160826521
 -0.0016549242980544053 -7.840610390589902e-05 0.0054522870868328275 0.005939847827802116 0.1028964211205989 0.3364042566796202 -0.7655646520089924 0.2173763734259883
45713470000.0 -0.5792774250249123 -0.5665637292060667 -0.21579513349344037 0.28209114701289006 0.0034692908819499786 0.00460217289951235 0.00015944378613892492 0.0029247321838599166
 -0.20935601934251832 0.2737569833382403 -0.5436736066044966 -0.6096165331435857 -0.00237577206862542 0.0046652512053593255 0.008429888033497939 0.0061371930139274555
 0.00564594676714624 -0.011500521253264069 0.01576671556473595 -0.012128316315349191 -0.759510667377153 0.18847766541161112 0.10526470873688182 0.3408383479840509
 0.0012255114286250255 -0.006476028125847685 0.011591154612488119 0.017054835185370293 0.08217400004591562 0.30365275999421854 -0.8041555927487746 0.2388400223106112
45783460000.0 -0.5143807057689392 -0.5547441079853035 -0.2217117031071174 0.2860144973467509 -0.0004332409031897637 0.004115923792441438 0.0020704103155831034 0.0014520154506519978
 -0.2068617786197177 0.2743952628603103 -0.5910958225465505 -0.5834758127407282 -4.902810797782281e-05 0.004282570704519056 -0.00055901109614242 -0.0016295538637782824
 0.0009730931360054415 0.009043642328516212 0.00884151021576518 -0.012807305025199035 -0.7259035432687617 0.21780497669435228 0.06969542266860658 0.3840112518731805
 -0.007867964854808441 -0.004342221250695209 0.023421137607671557 0.007512287784115066 0.0902559947546786 0.3025497867338537 -0.695221143104221 0.2696585099074713
45853450000.0 -0.5593557242443528 -0.5930365488260327 -0.2234971562313677 0.25889380026831377 0.0034003538078187594 0.00022656418649073717 0.002419454667504709 -0.00034404307259928036
 -0.22187797819285562 0.2765105791702374 -0.5042869294811442 -0.5618081021450219 0.0005811010979306459 0.004045134229183853 0.0019868275711855082 0.006095706992345962
 -0.0006425378343778135 0.005989572211127828 -0.014879948642562995 8.310531946988853e-06 -0.7064855254880931 0.2736716783032536 0.10441410400421751 0.3130714361974901
 -7.121970948181578e-05 -0.008425719286247847 0.015080455226620808 0.01553179813923289 0.1676265957070413 0.3319748271223022 -0.7925440681874827 0.22212795741609778
45923440000.0 -0.5838823480833976 -0.585071790838139 -0.22385142618124293 0.2805242799171446 0.0012474126838974997 0.0035198024324033326 -0.003646729029220005 0.003661768060548364
 -0.2144017060726518 0.2726429391885363 -0.5867136395677515 -0.5776720381743689 0.003198858131210838 0.0014185401659341501 0.004417292413918256 -0.0008215854453426778
 0.005822866936932645 0.004418536075243175 0.011533789300076503 -0.011831318534177782 -0.729654405664094 0.2518884729883488 0.13774715465586673 0.32852231727201625
 0.002981855355951357 0.003094606091857997 0.002139734354960341 -0.0010697210126107506 0.14531087564928824 0.3366896476067757 -0.7357737691576337 0.2630236260081151
45993430000.0 -0.5462804673749069 -0.6130886669740688 -0.2313792645473586 0.2906253056732201 -0.0023662648545732623 0.006934864660224816 -0.0045308495774792346 0.005588588700970658
 -0.23849870733963197 0.2590630422002384 -0.5972871951161972 -0.6030273858449191 -0.0010222079299187848 0.0031749117827661114 0.0012045385738159446 0.0001094129560836038
 -0.0004615524698362575 -0.006466795795894133 0.017641789704987858 -0.01723398063715772 -0.7144707139424268 0.2747561907157737 0.1350915095884626 0.33824259983137717
 -0.0032506178181117814 -0.011538925270422318 0.012235895820540823 -0.005978595023901654 0.105584024313041 0.3089999284765732 -0.7617434214437674 0.2122154571366381
46063420000.0 -0.6053434631025011 -0.6267551777925457 -0.22063888685799965 0.2824485873323878 -0.0014467191221708788 0.0016061861601701023 -0.0011808490403729809 -0.00037058309116038497
 -0.21679569551920397 0.3039700201540443 -0.5698056103236513 -0.5597665932364387 0.001841737093028621 -0.0016227815551675146 0.0017350905845263675 0.006518262257469067
 -0.008194369634116773 0.010858830470635714 -0.006384605464770184 0.013802491919189506 -0.7105747076169586 0.3183869143629279 0.054307641022453695 0.34033218716925334
 0.0030419124285765743 -0.001984651199490564 -0.018963234038022723 0.007194406677025317 0.09030007787285624 0.32077881882536 -0.7279217038824669 0.249759954262767
46133410000.0 -0.6283060467759944 -0.6110478739610992 -0.21330154826373815 0.2945487086241095 0.0023139817143876884 0.00029602746639922624 0.001049298782106341 -0.004152114650457114
 -0.21503173860517327 0.2921068139485563 -0.6026211868734194 -0.5976250009135247 -0.002924207599701611 0.0005366819740101098 0.0012286463977056494 0.0033659250902988757
 0.006765626534858441 0.015380534124585824 -0.0010075243717242752 -0.004802018256511168 -0.6380051315795127 0.3446141577012279 0.10414110794376173 0.3191937151932519
 0.0037048751276534636 -0.00041285647503784545 0.002827068192384499 0.006953652595231727 0.09031896319624878 0.37926701555737885 -0.7106881992270131 0.2662245093220631
46203400000.0 -0.5732859265138133 -0.620503041730085 -0.21749216407957309 0.28401872654597016 -0.0002622678074515198 0.00025023388954831136 0.006681047866670012 -0.001142262655135268
 -0.2288922951731615 0.296641793635785 -0.5856275580655105 -0.5737211874812574 0.002223946738678218 0.001343119942590707 0.002098181927622298 0.0023784562139535525
 0.0031880304278245745 0.004677941722788241 0.00039440022151533173 0.010353677539601857 -0.7197723586889163 0.32246737476025394 0.14063236327914266 0.3070601060872876
 -0.003863340196536392 0.01716268470894234 0.002453745083658639 -0.006297615938700494 0.10709440620332822 0.28508365527210605 -0.7609743076624663 0.19103622998863506
46273390000.0 -0.561919139512469 -0.5773399857659344 -0.20333261890900312 0.29264665952945945 -0.0017861305627924838 -0.001057105870988337 -0.002756943681242276 0.002575104921202114
 -0.22486804258605295 0.28557268395290275 -0.6145203048833083 -0.5593586975818453 0.0005330851643502074 -4.4758443466728164e-05 0.00205398069669384 0.0031871028553578954
 -0.0015716406913157388 0.006914529977986717 0.006066607054362373 0.007578067383875237 -0.7001895809180099 0.28300015373185783 0.17249581976073586 0.348536684578671
 0.00680445878539344 0.002097211178341883 0.002099468686470746 -0.0014232386320348648 0.13205880137897152 0.3280194643621673 -0.7571769279300653 0.2742152980646409
46343380000.0 -0.580412240683781 -0.574943516390034 -0.22057628909950477 0.27968721968781485 0.00016311555159190347 -0.003014794829714212 0.0013390576630778655 0.002452531367453362
 -0.2221685131248586 0.27609289784693586 -0.5755614262539606 -0.5789324839784582 -0.0008576202723387002 0.0024700628975143288 0.003785515770144682 -0.004867735700828735
 -0.0007733406612163684 0.006820776982074209 -0.007087135028192138 0.015860046775131826 -0.6986788584405339 0.31300842735103596 0.10839927737178756 0.3122348957233198
 0.009663604158310973 0.006512930696298757 -0.005865013949740032 0.004000556267805149 0.14742333790130588 0.32331616319619977 -0.7390165708891456 0.35704772889557984
46413370000.0 -0.5570432212393203 -0.5951132040909519 -0.21559981063896083 0.2908204280779456 0.0008085114459768025 4.189709222533163e-05 0.000164230285858419 0.002593513485464886
 -0.22355264046998113 0.28679613908751905 -0.6265346053997315 -0.5694213684065446 -0.0011950542670221345 0.0007121748351453108 -0.004498616183200257 -0.0011271868112482477
 0.011745361461078248 -0.0070971961796108445 -0.00029406330703764667 0.009620423950156935 -0.6928671354627506 0.309818354428569 0.11077849238586437 0.3159951021956742
 -0.000962450868523678 -0.0008488161537656031 -0.0032272837912454416 0.0033954907026967117 0.148336227184526 0.2931953772578087 -0.7122624475520026 0.1544208497313465
46483360000.0 -0.5697741064125121 -0.5539843726432527 -0.21598864324846848 0.27377678682401535 -0.0013849882044165338 0.0034684571563017652 -0.002860434895999846 0.0035466474533171286
 -0.20284417100347293 0.29436680087534944 -0.5726166224253953 -0.5565401260475343 -0.0008224396987010253 0.0004505935326807043 0.005075768209181515 0.005966969303428538
 -0.004771612158329845 0.004992195051846459 0.0001461918796291717 -0.007494443480448217 -0.6771719341382567 0.2795028893616463 0.14933467048518595 0.32839027743703536
 0.009532943580985054 -0.0022963327692011584 0.0056405521460368485 0.015941336333091544 0.07989715325409844 0.3314443753506724 -0.7551007586331017 0.26176049290526293
46553350000.0 -0.6147538285966305 -0.5654614825849765 -0.21254232922195937 0.2826624273396557 0.0015003158155481092 0.002276648525970747 0.0020775883107277166 0.0007742616376331539
 -0.21147631915051823 0.2894956044855053 -0.5888526624451876 -0.5385771672931323 0.003058505792583383 0.00173305509857085 0.00312997140529763 0.00869308262170048
 8.709531940364893e-05 -0.0006395616404696094 -0.005622237711409707 2.0174907206145222e-05 -0.6827112682121818 0.3236218969080364 0.10157268584841905 0.3206988427503757
 -0.00039685061236328776 3.567700295384384e-05 -0.0027941202426785302 0.013979142547824156 0.09227280973755198 0.3210548990991225 -0.6966565279527938 0.31077482920917915
46623340000.0 -0.6269344953469171 -0.5665185389529682 -0.23113448810102663 0.2857025010214516 -0.0053905596874057144 0.001041619989731059 0.004897773021185949 0.0026895931844336915
 -0.2143663586096124 0.30009272283564287 -0.5994232515835854 -0.6045695228909335 0.002021936610833355 -0.003366948173835135 -0.0014234202131567302 -4.131618310860085e-05
 0.0035929593173172772 -0.0035095953545306344 0.009243706955373207 0.010004062014361081 -0.6392011581003778 0.30496548252325156 0.10795401781200753 0.3586601738914068
 -0.001564647070227438 -0.0003298911306119119 0.017904178536571346 -0.005187652615558198 0.10637112721627608 0.3146684290848184 -0.7632585388612216 0.2723726942296323
46693330000.0 -0.567377081648084 -0.5802204404030876 -0.22701304032993977 0.296591237099554 0.0017667666103171316 0.0001772972587504814 -0.0004132150199690683 0.0025784216504877474
 -0.2197863859247605 0.29236754857105673 -0.5811274398549868 -0.553998107515331 0.0014282728888455457 -0.0012925967043522497 0.004796258487242798 0.0012517643679176144
 -0.0009507098882740364 0.005030671750018174 -0.0013628316119240337 -0.011581972733076113 -0.728058848709985 0.3427459474532974 0.13790892852600295 0.3212812640316154
 0.0030890507015129774 0.004711280465515357 -0.010236549598563714 0.009848856125685939 0.11672515588604974 0.3499146484043365 -0.7780337855231164 0.2808735370260523
46763320000.0 -0.5914890552008014 -0.5447734101628944 -0.22888780438652884 0.2840399097984151 -0.001494665532126506 0.0006273542979611363 0.0030895695603852897 0.003656225427555006
 -0.20584697146061212 0.27522140821296187 -0.5862026182009608 -0.5681889042628974 -0.00042622197399065203 -0.0011548286302597494 0.0044744981753609666 -0.0009279817778921466
 0.002046891656558095 0.0008537611497639279 0.014186272665653364 0.01627050615688984 -0.6242930816464353 0.2776764492825446 0.10687395375295888 0.31060743384762524
 -0.006456168904011641 0.002204877804244721 0.0028373176976975844 -0.006382154624649862 0.1287529318039386 0.2967491751310215 -0.7346284062726791 0.3317838873719216
46833310000.0 -0.5719384620422047 -0.5575742741472117 -0.213970414381066 0.30423572852568287 0.0007660267119259047 0.002514208735173899 0.0021330387819611515 0.005261585220890165
 -0.2158021940848136 0.29353205125045834 -0.6121508327352602 -0.5503710935889821 -0.002184073973552879 -0.00010747244656958959 -0.003971064990792902 0.00024336075843968795
 0.00858229706657998 0.005487054737137526 -0.0040204108881399 -0.0013045421486161473 -0.7066846349180321 0.29851527714316956 0.08838983169989258 0.3032308924493415
 -0.0014540038038923441 -0.0009832692026361517 0.015605069844949472 -0.006409309026769523 0.13520033027909387 0.3154773298739995 -0.6997979450627987 0.31766630421415165
46903300000.0 -0.5861290424048319 -0.577183088050553 -0.22217454688042812 0.2892684808710454 -0.00034244532154981296 0.0008889040873448174 0.0016119669482759565 0.0050515261440651
 -0.23348794132881492 0.3001618484163616 -0.5805159345461257 -0.5472954498339359 0.0011243593697626653 0.0046513948662299425 0.002686014366386821 -7.575729283875154e-05
 0.006743046714785299 0.004615895432250954 -0.0011226306700017163 0.02535641007056405 -0.719151578110181 0.3616452390422577 0.12391522085486857 0.3155807133997828
 0.005265652185209942 -0.006952938920228909 0.0025544410505069755 -0.004136774121899085 0.13216265064253963 0.33082230996905576 -0.8051126220893207 0.26859183716523877
46973290000.0 -0.6155506342391003 -0.5401960472336027 -0.21850578048971642 0.29391488143772865 0.0015162980793620546 -0.0013464065977360047 0.005029811922600877 0.0022037996059252906
 -0.2139755884330172 0.2970602322821636 -0.5403962043161573 -0.5438232069845874 0.00046308670346738084 0.0015690093532464517 5.080426594264041e-05 0.0027649144462843804
 0.0036798084701784146 0.004470833172467241 -0.011147878054793812 -0.009909524710038819 -0.6882406337481395 0.304144515134665 0.14473488708371024 0.37174023646526466
 -0.003657681774954269 0.00043318704711347184 0.005160204241983519 0.00932629569474868 0.11085493409203159 0.3081834500460208 -0.7737645151785459 0.298060530285976
47043280000.0 -0.6026332078561552 -0.5467085554353124 -0.22353751093414662 0.31719245426843434 -0.004529317973929097 0.001712290705143038 -0.0014446125015025498 0.002115651868649038
 -0.22101685164961551 0.3124422742653552 -0.6365629948480122 -0.5647221887766298 -0.0004138897134625656 0.003974507869988363 0.0020792686673393596 -0.0008159074371227637
 0.006497612877419885 -0.00010357250666062729 -0.017953144038551087 -0.007968937486552051 -0.6461544927291119 0.3280213594882071 0.08548826065896407 0.2992693377818043
 0.0025341312520407023 0.0006898477273958299 -0.0020639373687638017 -0.0006529080726559648 0.11469103768813999 0.30289461449314786 -0.7225813267452649 0.3314018985539298
47113270000.0 -0.5856486323143011 -0.5359752968755376 -0.20941464067350196 0.30238691385439065 0.0012415236928668015 -0.00017636805046003062 0.0021678019080371928 0.0019352253525756903
 -0.21646811918990336 0.3038673331787104 -0.6217364157519752 -0.5414796590416752 -7.300516749519207e-05 -0.006480603407772455 -0.0011223022986182158 -0.0024422717769991002
 -0.001566355220185825 -0.004959663151372054 0.00024610508811264965 0.01009205027949593 -0.685024516440053 0.28306453225078615 0.14458797231425302 0.2947638294211005
 -0.001506408159237696 0.003473815614533042 -0.0008728745447296751 -0.0023815961670229885 0.11555534937017754 0.3276262591020191 -0.7477505139796297 0.3264386371793807
47183260000.0 -0.6118707131927197 -0.5513467517595193 -0.21475165029480006 0.3089042924666216 0.000864512349396098 -0.0007252836986106537 0.0007652909860208689 0.0023116575090405106
 -0.2124351424731918 0.2969791568138957 -0.5938803977609697 -0.5355944079106519 0.0007944227549279579 -0.0004178152101535099 0.0022966169881894127 -0.002919538456403813
 -0.005093519458803415 -0.003892472843558789 -0.004095938543906636 0.020912913454102042 -0.7070325527966358 0.3266544736736186 0.14573821706667345 0.32556813739067547
 0.0025544984390189164 0.0050946842499741615 -0.002152261273837784 0.007910886228871067 0.13305323155822862 0.31960149563744533 -0.6908825973915047 0.28887352930604754
47253250000.0 -0.5549624847923289 -0.5885228091294441 -0.23849165378774795 0.3278547243320678 0.00014317578241982375 -1.0451058627413232e-05 0.00039656367175270956 0.00200391993930239
 -0.2583412478795945 0.31153513968977675 -0.6103148522208753 -0.578608676565286 0.0021608792980144426 0.006748804044822607 0.0001569490318437149 0.0035272927368244383
 0.0025720043334857734 -0.0026415909760567693 0.015487474359084834 -0.010715867527870048 -0.7298348545166546 0.36945787917685824 0.13974519399980037 0.31756639459090635
 0.004238722170552573 -0.004837437685823535 0.011774973234450828 -0.0011959452125473232 0.13587970016943682 0.29742725638579315 -0.7434253164266353 0.3088584585404873
47323240000.0 -0.6241853679020245 -0.5208753339502861 -0.20728957294971734 0.2942200326872373 -0.0022253103757609695 0.002076937020813862 0.0026186833764466 -0.004103653049222104
 -0.21479760249900812 0.2995045376425112 -0.6196980940622351 -0.5388016810031289 -0.0005852744299043111 -0.0009532352721659803 0.005224922632877898 -0.000661271609787385
 -0.00310839600816409 0.007687175723253709 0.0052883822205772426 -0.0033232523267401927 -0.6263128244581635 0.3331833118841283 0.11506554707637409 0.3188673227731659
 0.004455119383465203 0.0011738829642917782 0.009941163554446698 -0.0036855853707776615 0.15077640900977987 0.33334494926269975 -0.7338221695697946 0.31076828651209415
47393230000.0 -0.6076393298685102 -0.5567247263049016 -0.23353483604708347 0.3080770021810769 -0.00365896240836493 0.0021459193988514987 0.0036535047976276086 0.004696142688302384
 -0.24203700641267703 0.30186423604955287 -0.610493647224738 -0.5575608721249792 -0.0007828942921210141 0.0008352826815727169 0.0016413238028171397 0.007053442091381892
 -0.008825568300655317 0.0009673675254921744 0.007520466714237953 -0.0025825368464063706 -0.6629884854127727 0.32148245121133134 0.10706223721281015 0.2688142574178528
 0.002794915030588562 0.0018696652229492968 -0.003576800249666436 -0.012418386244428158 0.16102334742001012 0.3292926020833646 -0.7668580393601855 0.29607351230498197
47463220000.0 -0.635176183352254 -0.5552992950855301 -0.21773486990720414 0.3138237528499976 0.005673976258793674 0.0007033096994857527 -0.004741054214092055 0.0018723318892462557
 -0.21299016722885636 0.31127402484936045 -0.6311345549512409 -0.5431373932945733 -0.0007963723931319677 0.0005472845141627113 -0.001702495507173143 0.001393674919470438
 0.0026063056140744885 0.008807613369010384 -0.002333717516610331 0.02328575412546308 -0.6269545974643497 0.3570968309642606 0.13940806841313622 0.32123844738264196
 -0.00029702472065072584 -0.010530592623473249 0.0003962316213648199 0.0006581980595946613 0.1353055379253493 0.3049689416283551 -0.6868486718261375 0.29934616508460465
47533210000.0 -0.6110351868717518 -0.5748748682746188 -0.20526104723123662 0.29571063039803985 0.0054558255220512565 0.0009365680477251188 0.0012755139635619625 0.0007417190816263985
 -0.22651679337024191 0.3214318730360451 -0.5922388850136835 -0.5274616729058029 -0.004897389838682596 -0.00289545459779791 0.0014981394085394506 -0.0017568042755444395
 0.007571273560881759 0.0028959981192204186 -0.0009379337292401101 0.0029692875652368345 -0.6846056972821649 0.3788164385350489 0.13493744785738912 0.31530506110838463
 0.006075079387260754 0.0077250552842787965 -0.009403370599044263 -0.0026484993730878635 0.12940510900735525 0.28250001200790636 -0.7670189409129937 0.2824025872721801
47603200000.0 -0.6356972200570058 -0.5091164768735691 -0.2009372721658624 0.327567360608696 0.0023013486156085445 0.0023963665340435195 -0.0013294389070976542 -0.0024125819402868337
 -0.1917373579706992 0.31914240075326866 -0.6558751496454149 -0.5335362814620143 -0.00037530220628542385 -0.000470378734776012 -0.00150754134374166 0.0053382051050634306
 0.002368998581514678 0.0023355888828934983 0.005635924993722598 0.00429075893532902 -0.6253558611769693 0.3415344123456583 0.16363304922541752 0.3317818612583861
 -0.001773444828631088 -0.0014534146846118927 0.003065018884465524 0.0065174704583135495 0.11970062141585609 0.35155671935559263 -0.6982527223443159 0.364584710015488
47673190000.0 -0.6024058639224842 -0.5246924613594494 -0.2235882009995246 0.32334107727973177 0.004594323781870597 -0.00016426215681550056 0.003375867121004755 0.004289362616150062
 -0.22118155540207407 0.31027292200296186 -0.6439523374659243 -0.5294097205143311 -0.002193211263025575 0.005267892778725352 0.001891744734787173 -0.0033803733203247193
 0.00022178850931979605 0.0022697813584494323 0.003746929393065887 0.007567311889967291 -0.679031065778073 0.3586594466973689 0.12655517725095927 0.28610983520906513
 0.005398417993160122 0.010229570335368334 -0.006380829309583711 0.0021137915649884435 0.1608973625369172 0.32422210500791665 -0.7078423940511638 0.3507772173990648
47743180000.0 -0.6405380175939401 -0.5123477632532754 -0.22923986666265814 0.3258053257664014 0.00010813332177445427 0.0024400991726585457 0.0007362444655592109 -0.0012420234166164328
 -0.2200599467179264 0.3293778285684348 -0.6220428806030127 -0.5380328256558164 0.003754694488627492 -0.0009654695946177352 0.0047563038053692365 0.0029586613469587417
 0.005098738832079803 -0.0038560269869913504 0.001282278310566367 0.012576090523958786 -0.6360615326539201 0.31737811861784754 0.15517279244240575 0.2850142931464171
 0.0042249751221746425 0.001611573507796819 0.014020803023992383 0.004516605817217029 0.13754731368168957 0.3090589848261754 -0.6986869076106327 0.35091869495504496
47813170000.0 -0.6240825500173575 -0.5551079077633271 -0.223849128459474 0.32776946531709095 0.001300965190590535 0.003904976183432234 0.006240700840689113 0.005054258352093067
 -0.23313692350414827 0.3282775221007145 -0.6237769090735708 -0.5244005868977457 0.002663685073304496 -0.0038199551707134745 -0.0007199448697728679 0.001184832546443615
 0.0031295732906357196 1.2335063159766679e-05 0.0002726688995710197 0.004436595492747883 -0.6456219505416129 0.42890472138794516 0.12366129991256992 0.30752253630670084
 -0.0018184015296877948 -0.0017262561983106643 -0.011484990104865636 0.0014017564347971723 0.14841498786664375 0.3295847171209857 -0.6870351842388561 0.3504395973214177
47883160000.0 -0.6358399151242149 -0.5364481413393691 -0.21228226535898956 0.3095434285659393 -0.0005305979966088649 0.0005114841505796123 0.004768566099772831 0.00022796329759597876
 -0.2115685439482645 0.31446175332146925 -0.599000209734021 -0.5036104162804083 0.0024625590102882178 0.00230055458639089 -0.003694523302412413 -0.001959155534457485
 0.007201861327338476 0.002895325344660431 -0.01208481951301829 0.016530086320468085 -0.651797847560678 0.40273773237485955 0.12886517437973785 0.3405840792029908
 -0.0025718981209274846 0.001018135923231505 0.003783891301890946 0.002516331896355008 0.13358729655251952 0.27786586980384376 -0.7431101244432851 0.3513347801732599
47953150000.0 -0.6559824066647437 -0.5240576387415077 -0.18910000944168492 0.3393497220597598 0.0007715877567445865 -4.862476700803144e-05 0.0027613108205753398 0.0007099633329021885
 -0.2027074987664263 0.3334935984462059 -0.6206830140329006 -0.5455751658618401 -0.004568396581811219 0.002336418588932604 0.006712934620298571 0.0011313827528849944
 -0.00026501050265115343 -0.015557130593827939 0.005485862167994722 -0.015794939111608397 -0.6441907223206194 0.4080576643654997 0.16288668409739007 0.3061318119771257
 -0.001092887700256544 0.0019346257822930276 0.01296241084227977 -0.0076913183820597674 0.13936996838809998 0.2615961248734989 -0.7234828695396279 0.33001975692532604
48023140000.0 -0.6151471221270893 -0.517305086476338 -0.2247597713301842 0.3323234987609141 -0.004643306017545156 0.0031853767558866018 0.0046187480748309745 0.001015020158344525
 -0.1974306364134319 0.3264852081643446 -0.6192061669853184 -0.5478851417495683 0.0015880795304970912 0.000610900650087844 -0.0004970634233141336 8.157186441900165e-05
 -0.0017701620151997564 -0.002013231746215448 0.000355884134900686 -0.016701132507086602 -0.620157430252374 0.36532688702494936 0.13688442312833496 0.31035691960262984
 0.0005619892670797858 0.0022837616406342232 0.01824492630370094 -0.010759834384483826 0.09610131459812214 0.2854798317209732 -0.7370673911978072 0.4125139902393045
48093130000.0 -0.6148273487089437 -0.5023063841669145 -0.21208307714977495 0.3311155448551695 -0.0028191202886867087 0.002400990713772853 -0.001292529164424618 0.003612138512443424
 -0.22270419697873683 0.3046859658602144 -0.6613751377530389 -0.47573651678428863 -0.0034071303869472017 0.0032904918966402933 0.0010452115427973326 0.003895000937839095
 -0.005347161225738856 0.004236816318626163 -0.0064965770485197576 0.015821254236495847 -0.6229908091767018 0.35636868804373983 0.1281607568883495 0.2785234011142889
 0.004396336744388836 0.008682220361336842 -0.0029580013323384047 0.008618209193932323 0.14301316926960986 0.2971738843130897 -0.6711839091901489 0.32583122637097084
48163120000.0 -0.6188383680533533 -0.4541663863028765 -0.22153951596071733 0.310152779161701 0.002119960931016255 0.003974047547102442 -0.0007090865911196319 0.003817039451068033
 -0.20389549494079118 0.31622870468348796 -0.592387152780868 -0.5147855062498783 -0.0011621610758538886 0.0005851339992455546 -0.0011617243274092773 -0.002763146962645335
 0.017319461504637652 -0.008243178216884969 0.003065881143526098 0.0011433630498953805 -0.6057837145157293 0.3668366420873674 0.13561143181098775 0.34564353391170644
 -0.002206797052118165 0.0017971084576350568 3.965687909590611e-05 0.005063457634525142 0.1499722200554227 0.3061745353876257 -0.7143310986916925 0.34730745853273143
48233110000.0 -0.596151649690673 -0.506389610905934 -0.196470448844574 0.3249883173177972 -0.0013861191929009332 -0.00032170837485192704 -0.004696471728471559 -0.000322858031448692
 -0.19954475392731436 0.3129946341331671 -0.6640928723675217 -0.49053168629661353 -0.0032195828082008005 0.005389473537778334 0.00433521608000385 -0.000577134270738257
 0.0059068758336451605 -0.00708457976152955 -0.019764480092650805 -0.00553574838039533 -0.6618051464878 0.3917273036156665 0.15908683452775216 0.32162781455845246
 -0.00031583148325580346 5.536569862081472e-05 -0.005754446842383475 0.027953218497833353 0.1738370026301319 0.31111099054611063 -0.6855810801905718 0.35867827466454544
48303100000.0 -0.6200380489247913 -0.5059267990910595 -0.22393086109812504 0.3296465595637687 -0.00024972965900445536 0.003139335469843197 -0.00318234497548843 0.0011998364879088
 -0.22575192245950956 0.32720938577195446 -0.5891680919290152 -0.5384541177952233 -0.000252347718065697 -0.0006270167309899098 0.00723037747507013 -0.0009178723502221254
 0.0019091779568580797 0.005739267561006465 0.004650998663130203 0.005566293776821928 -0.6790272165905117 0.4350763610917932 0.1541766600898535 0.3252920313748955
 0.0019464862204629342 -0.0015532622426463944 0.002303338551909095 0.01396538636132867 0.11320365923844497 0.3163464785745469 -0.7047934294826806 0.3495145256819687
48373090000.0 -0.6375217354301037 -0.5151265516886884 -0.22851294190210553 0.3310221210100967 -0.0004849218526966109 -0.00112403675908725 -0.0018011703584215203 0.003906717723072079
 -0.2335100438500981 0.3408260549976099 -0.6140120033764478 -0.5400059177301255 -0.0025690285222393938 -0.00030058695222442495 -0.0026389623425467352 -0.0029932309585295608
 -0.005832394142033988 0.011150036305088746 -0.02622051422887305 -0.008764204421185187 -0.6501260514310253 0.38504116592512655 0.12112281435969723 0.28044026697219515
 0.001436976274438333 -0.003663198340460229 0.004822179352343789 0.03558659724247061 0.15178134354168074 0.35579389651903987 -0.7093265631585084 0.3404751383535075
48443080000.0 -0.6186397324339004 -0.5336884418876445 -0.21603081183592057 0.3292322482497335 0.00015913870492516655 -0.0034606150126972467 0.0034895982848944388 0.00502413644682249
 -0.21699833732192964 0.3343346199798423 -0.6728695336222187 -0.5013752697967558 -4.031848907470514e-05 1.1175092800806221e-05 0.008809431340326955 0.004603587958166101
 0.0015658452038761661 -0.0023867388663928 -0.010428454726310273 0.01986336344059356 -0.6906395085641439 0.4005558830952138 0.1776003090424633 0.3344985600346071
 0.0003232285891353749 -0.008248220994375005 0.010991700175514114 0.00953517941451489 0.16922408671239733 0.32205706406240564 -0.7021961881494754 0.3909738409728701
48513070000.0 -0.6516573808099396 -0.43779818919089597 -0.22105319556680303 0.3269069898245125 -0.0006788490369560394 9.304935509168208e-06 0.003010195758724637 -0.0017259415792197507
 -0.1956000428177274 0.32963242882780563 -0.5954178160517737 -0.5342491069732804 -0.00016016850054673647 0.0022969455319256397 0.0012625860863193145 0.003987863334379831
 -0.013132068478749223 0.004490453696510077 0.006670079668019892 0.003355122136805334 -0.6136628829332468 0.3725820373284234 0.1322514566669283 0.31512464748800784
 -0.013176386967405244 0.005163981820954908 -0.009181445830700678 0.007193481943027084 0.16514443547377144 0.30571066552197235 -0.73534945914284 0.35742185191445774
48583060000.0 -0.6133722219224882 -0.4822795050500329 -0.21182795292932602 0.31642362360529297 0.0005715825987807693 0.006345056117880447 -0.0017627417959180415 0.00043403126789084853
 -0.22148853087715586 0.3317479260676351 -0.6205551376089823 -0.5315006920380564 0.0013075322022169452 0.00231162389518862 0.002012274899526948 0.004055144401729146
 0.0019468630561745351 0.005828541772452146 0.003854084934847399 -0.011509245652704347 -0.6632084487033227 0.4415044407024911 0.10999629111124103 0.28565834217908986
 0.008215755939906042 0.004170352076174402 -0.0046641838674244445 -0.005652798714134457 0.21577679028500624 0.3344850594893856 -0.7804674011936723 0.3135117271993882
48653050000.0 -0.6218313722228866 -0.4827817960525004 -0.20052721839816867 0.3135713472561111 0.003011306686310382 0.0027410208819485206 0.004591967393338887 0.002419770148662821
 -0.20285389385324717 0.3176980976437329 -0.5826679603386743 -0.4815266056002938 0.002027333732234102 0.0024519862310722093 -0.004302642659252679 8.915836600538392e-05
 0.003748132928137026 0.007998365127546017 0.028970222077259078 -0.006288590502764506 -0.6508978099470448 0.37907799002924547 0.16451672042033416 0.29865840089012324
 0.002896318355549297 0.007837016417057302 0.02159543246917125 0.015104624783116265 0.12437951650819765 0.30807238560515643 -0.6497655621061337 0.3907087705844775
48723040000.0 -0.602683691168585 -0.48580792425403224 -0.2225746779155506 0.34279257716145983 0.000864079109185582 0.0036114975164940745 -0.0002314064136064853 0.00092283526373151
 -0.22513639835551108 0.33137269109569734 -0.609699420191685 -0.5305942681323219 4.068709192295171e-05 0.0002549050484129039 0.0021036618222761596 0.0007685055896171518
 -0.008461235555062998 0.007451502698259957 -0.007941881616986508 -0.0023417312038016462 -0.676206120409856 0.3671576078782264 0.14156724473932544 0.30234405902566636
 0.0030280554770786804 -0.008549622805778399 0.01705295562055456 0.023177942848838087 0.09239422226540478 0.285656186443411 -0.6885356365048303 0.3848931499194466
48793030000.0 -0.6361011514502749 -0.5142209708113401 -0.20982578144602937 0.33960165029455464 -0.0010762853630322815 -8.861536504767956e-05 0.005342366751160177 -0.0011495814646505982
 -0.21389606050146184 0.34219360653779124 -0.6417062364486271 -0.5304469014219141 0.0008427080277954937 0.005633317146600218 -0.000809315018508332 -0.001448520181668979
 0.005230563755261384 -0.007733977313929148 0.011385429666525849 0.0013688984270955127 -0.615453895267591 0.5113807856093904 0.14112918763305965 0.2893913011000734
 -0.0015117424143133293 0.002738279443458763 0.001676197989746234 0.007320649233916375 0.1587974057192562 0.3114373174302922 -0.7602775714154244 0.42952447391376664
48863020000.0 -0.6426734969459604 -0.4561370513922861 -0.18682361993485233 0.3429364117519369 0.0013658939547047332 0.004433436712447097 -0.003274692478329142 0.0007036893412027395
 -0.18703450500116814 0.3421427750604353 -0.6392756583827308 -0.4600042935113023 -0.0013994329649118615 0.0017059728198767932 0.00811368414825924 0.0016384757325611824
 -0.0006395667995086299 0.011205047322716554 0.011017429528577122 -0.0008226213781678214 -0.59519378915715 0.4005178226986276 0.11845778764003946 0.35383515374241364
 -0.0016229436059579064 -0.002549219234534093 0.007772954210960286 0.023755223903124463 0.1871099828379323 0.28451279337441626 -0.7300185551976378 0.4130145343549095
48933010000.0 -0.644669438882804 -0.456858630684105 -0.2156665407724607 0.3335930852057543 -0.0027461607621727243 0.00045880080961181854 0.0006507442012806579 0.002371486906571821
 -0.20860809478216058 0.35048135567020733 -0.6245858208229416 -0.5116163632773463 0.0031756837147368156 0.0016677357753930625 0.004701833570794851 -0.0002540934920493352
 0.005982673308506444 -0.01056031513773205 -0.003268234341673763 -0.002179171638726333 -0.6288390203130682 0.40053286590012804 0.1276252602352424 0.31448087079748976
 -0.00024448329330257996 0.003053273308703735 -0.00824047178081482 0.01137201915944869 0.17296187922901418 0.2897886161016589 -0.7615732745527305 0.34912736541834327
49003000000.0 -0.6454479916180261 -0.48532105973787587 -0.21035363083012404 0.334596407952645 0.0007939237860332292 0.003159839757214141 -0.003886596735825579 -0.0004888206313734125
 -0.21502988657271918 0.3404579896495711 -0.6465364914921521 -0.4703761884231677 0.005747551379947352 -0.003123021023369075 0.00392799177776284 0.0034887965773620555
 0.0004336718514621593 -0.002074135705729039 0.01949501485111387 -0.010542216834424554 -0.6516784625958466 0.37543128738073667 0.1515371822684338 0.3181684978789208
 0.0030122907094480697 0.008170194556891502 0.007406845519153802 0.010387035873097816 0.17320600050012458 0.2636526556992652 -0.6473824016183557 0.3910486382687098
49072990000.0 -0.6297218314531814 -0.4715225143668985 -0.19340383532003771 0.335397464354853 -0.005190929036257907 0.003257905126662747 -0.00489943654827626 0.003285809438554227
 -0.2088692608579794 0.3052698262335091 -0.653625079988842 -0.4277235258195448 0.002335214548020301 0.0024273862576421976 -0.0008275705779241364 0.0007553474066488698
 -0.005242018391686 0.01173642497480476 0.01327998743808703 0.01140653905899518 -0.6766010462483599 0.4174940559566948 0.13280000259403107 0.3022311309997316
 -0.0005444203348974135 -0.005454417254929339 0.010131734843027488 -0.0006776332194466074 0.1601769373335858 0.2448853302769699 -0.6815308717933849 0.40419056134761444
49142980000.0 -0.614438768562418 -0.4744607175230028 -0.18670337681414426 0.3231192050003261 -0.006817333729979386 0.0024533831608631574 0.005030871048877694 0.001244031681647012
 -0.19410200665837402 0.3362704351400534 -0.6330343395998949 -0.4443957958638585 0.005472168073645414 0.00033598594500233053 0.0016869553719401932 0.003498164687933811
 0.002969929457888488 0.0050709370819681104 0.00971725877157981 -0.012656938747421239 -0.6338365302900544 0.4311398592788879 0.12070872104612805 0.309074000819528
 0.0038529523375685 -0.006187578405384369 0.0184905392562742 0.01021331022078728 0.1984253614820202 0.29876276815140634 -0.725506108276375 0.35422453658191266
49212970000.0 -0.6689040142090066 -0.4935425109526016 -0.19991333501673605 0.36950381534344073 0.001971443382157484 -0.00013120574851827602 0.004156261716250241 0.0028953866748400855
 -0.18971373282233078 0.3635763884869976 -0.6823568397287139 -0.5112022032936407 0.00045126912521551067 0.00011728771043923225 0.0025228554966389228 -0.0002885465370984633
 0.007288871216669638 -0.007757085786679472 -0.017314099979785353 -0.015769373899933676 -0.6381159633165527 0.42012266482893634 0.126319370954987 0.31394158531800415
 0.004295180510452764 0.001736289110397055 -0.011639918741338998 0.0037496775702235124 0.17940041760621425 0.3121676598485293 -0.7275395070207921 0.39203781896962936
49282960000.0 -0.6371382496003957 -0.4319915715749163 -0.21067822445859263 0.361155967337056 -0.0006012975177238631 0.00016515983933231728 0.004065042001188311 -0.0004329614060823437
 -0.2003194130245545 0.3553762502917655 -0.6395055000117594 -0.5091340960559075 0.006227957383765361 0.002270567262915907 -0.007055981095820522 0.0059964307856676495
 0.0020834813283923414 0.0033396823677402892 -0.022147839755091218 0.03251552706673664 -0.6537579497076174 0.4854526911651901 0.19540948766488497 0.3192211159797259
 0.009298237664037338 -0.009789017651144222 -0.004429370098179164 0.010576511202822242 0.11499992265391 0.29736506421584347 -0.6586125475061855 0.4524826367005239
49352950000.0 -0.6390223675688425 -0.4490907817223557 -0.21089736146568605 0.3655560068291047 0.00327517371196213 -0.0006816539755918231 -0.0019036363182789954 0.003914106044357271
 -0.20388724864350216 0.3320135626600516 -0.6682904181693728 -0.5036990246574664 -0.0024427647320169623 -0.00127019803413146 -0.000544518864080852 0.005315030362177985
 0.0106484462437976 -0.007499459736930411 0.007110333531317088 0.006606955024830465 -0.626682487357003 0.42434698855603215 0.20026697390568876 0.30859146388030567
 2.1932408773750854e-05 -0.0020605867401680615 -0.004037893935323405 -0.006752979494700606 0.11301446621915266 0.2750766687534338 -0.7056073796540108 0.3982710667359609
49422940000.0 -0.6566711966338461 -0.48858033052622823 -0.1816500176705515 0.36513916796881385 0.0024792160016974102 0.0035499854881357513 0.0045749925312788655 -0.0010211657588123525
 -0.1916873161035919 0.3507356205865584 -0.6974936016766192 -0.47890103254252087 0.006140804785292254 0.004602707503497206 0.0022415435475150146 0.003744581000936349
 -0.008164383874797914 0.006155343461661733 0.009952452073937003 0.006845536224245082 -0.6430265838174678 0.41002556855106465 0.14430960652016486 0.2794005219158573
 -0.0011421199922233807 -0.004750441362363261 0.006469906685882594 -0.006956848792492347 0.14573968363175135 0.22770769094242316 -0.6187746947919115 0.5203188036656777
49492930000.0 -0.6692240128744129 -0.44513831412968974 -0.21490259780259502 0.34965137646427064 -0.005321707550448191 0.0070701771490563475 0.004301211588482972 0.0034987955787854582
 -0.1957190060158345 0.36494863467794686 -0.6405527923743217 -0.509944139228594 0.0048678466611578675 0.008545499618552539 0.0008691346859694307 0.004901290418565817
 0.0028441468910574905 0.007562281466728626 -0.006984305371089638 0.005463827579782505 -0.5758681592123945 0.43483877739004106 0.16134662168110658 0.28669641750244584
 0.007821134979098332 -0.0015176087224749127 0.00246762153886713 0.014551857200680857 0.1732550403509126 0.24931225150277042 -0.69712291490543 0.3983159041893395
49562920000.0 -0.6592726773977792 -0.45957123929709437 -0.20765740312767847 0.3622090358252384 0.0005137341186300272 0.002981086365268975 -0.0008516083190739843 0.0030890909454747433
 -0.2073830153529521 0.3499124387489425 -0.6779581240771311 -0.502793340366487 -0.0009624383297449827 -0.0034585299957907846 -1.0266523542369048e-06 -0.001395559580391463
 0.0046127252629075115 0.011139546156100822 -0.019946176453249982 0.01158757014232471 -0.6301292016854758 0.3986944946317736 0.12992591910400045 0.3000548554145741
 0.013224879838100875 -0.003222359677288324 0.01834827456890499 0.003851713600780617 0.15013406238529733 0.24853051409590932 -0.7015005303759378 0.4153043075563136
49632910000.0 -0.6592544231427686 -0.42584639376022704 -0.19566188006241525 0.35078401490994243 -0.002598298781565623 -0.00012016028581763895 0.001287862323471163 0.00353029937822252
 -0.1965864937282437 0.3472094810481947 -0.694360147226756 -0.47249812224296045 -0.001158264643874977 -0.007394851412421784 0.003052206114661402 0.00396165231422493
 0.00557489851627149 0.012717199086200783 0.013587725419183225 0.01704303180397612 -0.6044822493475784 0.4488282928724275 0.1777375057338903 0.3110227568870834
 -0.005052034520807347 -0.001994960422895447 0.010580834318605159 -0.0037961060165760917 0.1445064110586788 0.3280051181991976 -0.7057099868594476 0.4686294033453459
49702900000.0 -0.6519258723933317 -0.4528607078520348 -0.20740782608350525 0.3316886983551166 0.00041066427833815383 0.0042869402134454 -0.00039189273152364317 0.005928580748968899
 -0.19810501473481557 0.3496651232065186 -0.655860716680995 -0.4632488160942998 0.0005486408573415084 -1.4148061434999422e-05 -0.00014788856867560147 0.005398499960138343
 -0.00820186439018476 0.0011737104176005313 0.019792024032752025 0.004468275190909994 -0.5986750630670885 0.5223348312182327 0.19922816562281861 0.23067412565198286
 -0.005233857516492449 0.0004704795003858299 -0.005678228558360094 -0.0012586562090170128 0.21006934806797029 0.27760503701429756 -0.6797993994043234 0.40097440996692874
49772890000.0 -0.6751786280706005 -0.43894376537867297 -0.2028384559623759 0.37311439087186876 0.0005531979362861102 0.0008109727456690128 0.0019287092792400816 0.002108072057945025
 -0.19382536156711636 0.3676862832623773 -0.6607149257735104 -0.5017826120916219 -0.00141811987279736 0.008523232975963843 -0.0022679511325457953 -6.543123516683949e-06
 0.0019321381271202316 -0.007889519386497812 -0.01550391668907254 0.013857233015809555 -0.6097431528450772 0.4227180726260309 0.16052003635398604 0.28298941721767584
 -0.0021808884623573995 -0.0016976958770297884 0.0014667791677693063 0.002773294537640374 0.20579624033161842 0.30127569843827434 -0.6851451063962406 0.45540756789053777
49842880000.0 -0.6527580011478494 -0.3855081367989168 -0.20494493454854149 0.32132028249993716 0.005976053539951771 0.002502303471967231 0.005156016009163273 0.0010834239862197292
 -0.1909106871136298 0.3292296113595833 -0.6215356191021888 -0.4200807429709347 -0.0023733092103251246 -0.00034101819163248625 0.0070727822762677054 0.00043827432287504403
 -0.0037892212440933572 0.0024364302307292277 -0.01910543727849218 0.006252038743102309 -0.6119374348233817 0.4033926673230814 0.22034539596864305 0.30173068727377883
 -0.00043465325266449947 -0.0005515292331067112 -0.00771402299072982 -0.00887825493671147 0.2223156765199461 0.2495033208324965 -0.6636859125110113 0.3738182464615321
49912870000.0 -0.6583355558401386 -0.46315819152828097 -0.21746969129701282 0.37108200198448626 0.004040895199017562 -0.00021909356922153578 -0.001690966776390892 0.0007153776897417672
 -0.20692017165873125 0.36530012072637463 -0.6382998538111447 -0.49341605266260874 0.0007708416296555566 0.001153474306926777 0.0023800051401889075 -0.0015542579132351853
 0.004399063884944542 0.0024321776768892345 -0.00046562632327406167 -0.002600130486820463 -0.6028085750202671 0.4801160217769636 0.16356784846020975 0.2209068277518074
 0.010151108794723146 0.0028012836965499105 -0.008530247334230835 -0.0012225869499907487 0.11403891166689852 0.2610438805336796 -0.6936603676419433 0.4502239330853319
49982860000.0 -0.6591144761429563 -0.4856712533028739 -0.19841305683911228 0.37532611768450796 0.004645381383437139 -0.0068207139759492675 -0.0019531806189256678 0.00039668332688190636
 -0.18227376204690085 0.3769053221319217 -0.6885089683350462 -0.46706222346798726 0.002161340174471941 0.004543132971065906 0.007251546650303634 0.0038730665052830893
 -0.003888093685671723 0.005305680652164842 0.02142338329592873 0.007425890663348618 -0.6339316897988677 0.4935343416998394 0.12367514487369613 0.30601399668677115
 -0.0009054942282625195 0.0031181534570584738 -0.0014754655115340855 -0.002901909165156227 0.17613086709720285 0.2602986953103785 -0.7042010852786799 0.4996990252239632
50052850000.0 -0.6922583994078827 -0.41793320560546315 -0.1901980220034248 0.34836884534942597 5.8103619968325154e-05 -0.001485119401695265 0.0010549323725655535 -9.610882537574209e-05
 -0.17455086407929082 0.3667933670278957 -0.6994196901581529 -0.46618339293716243 -0.005088313508265548 0.0033142085439398184 0.0032273300756856605 0.001310194151796351
 0.005833535255003612 0.0011111033737676362 0.018338927086567314 0.005400844896758592 -0.597092740884191 0.5208937135579674 0.1861082542340611 0.3077565032120693
 -0.01518399651940305 -0.0002032488689620613 -0.00625093014713648 0.00595268033120621 0.17510058018291783 0.2800203400601849 -0.6610491460743835 0.43757870685785627
50122840000.0 -0.659666634619251 -0.4469990676868176 -0.19494747437806131 0.3805397653997824 0.003717276393389238 -0.0023516112479799976 -0.004964601461733705 -0.0044585033710822786
 -0.15598321071124424 0.3614489781586526 -0.6865974669887598 -0.4679138911514822 0.004966014525665812 -0.0006316521194815215 0.0020572300794443393 0.011843248363333229
 -0.0034632988560752984 -0.0011107102213180713 0.005212227699368911 -0.010204753691489911 -0.5670269741763566 0.46383027551326883 0.16449678204123086 0.2838509621628612
 -0.002306283261462722 0.002517060557016527 0.02251642793374956 0.013359572625252492 0.21302521369815403 0.30118808902342153 -0.6759973913068281 0.4507114961269978
50192830000.0 -0.695849959181359 -0.46065687955252693 -0.1787449861356647 0.3831173321844835 0.004614713193460237 -0.0005615863080007424 -0.003277875231517585 0.0017213900622438715
 -0.18346720157389312 0.3937803823000527 -0.716415932656677 -0.4383703768807484 -0.0041267487099428445 0.005819710730868281 -0.0002808602461797635 0.0028839935049057843
 -0.0010084892702044573 0.006619347664821385 -0.005320895056554187 -0.010075261001937591 -0.6280298954295881 0.5313523899427797 0.14948422999925712 0.23572793107130638
 0.014988959569005415 0.0008638219982925207 -0.006073481992557563 -0.008077690760832137 0.16755859491871097 0.30359999752048183 -0.6913796591281344 0.5104036172763592
50262820000.0 -0.679411677678409 -0.40589027347237966 -0.18886045913475016 0.3656755121628766 0.0006913049571265186 -0.0006927195203336234 8.241337401708741e-05 0.0011420976671696768
 -0.19062714066874217 0.37520599425110246 -0.6355356464159498 -0.4166532242922059 -0.009308840474425034 0.013156790542117896 0.0031821729415265343 0.0017130797293729418
 0.002614916652303722 0.007442336374446416 -0.005105651479151848 0.009831775580880072 -0.5904455214826468 0.48744270261845923 0.21123767604218183 0.2872664931669741
 0.00017465271351313767 -0.006903050362492195 -0.006567863289109478 -0.0029983268702340215 0.15939397364744734 0.29912890849987306 -0.6690149135406754 0.43360726134397587
50332810000.0 -0.6455205691014714 -0.4416679204198759 -0.20757248911250484 0.3762233010297397 0.0025686162225496993 0.0027684225962704445 -0.0013658542448506698 -0.004622925381087845
 -0.20361338888951372 0.36558828506092694 -0.6830615888636272 -0.4829529610432363 0.0032061450547329422 -0.0010672398746563658 -0.0013916021152946658 0.002150381557785845
 -0.0018188711945151656 -0.008581416612200759 -0.0003802058668289556 0.002534990970505432 -0.6011757369332354 0.4542715565469679 0.22003965835670658 0.24844341043266607
 -0.0010299482329942124 0.001899188794764562 0.005206313080985895 -0.023350334623008537 0.1628636907576967 0.2564308505972122 -0.633819981162085 0.46813473414870654
50402800000.0 -0.6950442450020706 -0.45652574012046104 -0.1825973412267015 0.3881639484813606 -0.0006293664796558815 -0.002185013553179506 -0.006471308297264999 0.0009340516629625948
 -0.18608994853422942 0.3978359590475137 -0.7196474794838263 -0.45161956313860013 -0.005211163027581469 0.0019482081542760924 -0.0046521420469310135 0.00039521429645413567
 0.005036068453582399 0.01270296788088798 0.016764255573907167 0.005734905604094336 -0.5378402845866926 0.5157883091286547 0.11909036432502586 0.2645813967535587
 0.0003104791814698959 0.008762742758685447 0.010367495120212664 0.009103002731358698 0.26762063616845744 0.2784570178916886 -0.646836788909556 0.4975453407984451
50472790000.0 -0.6428268433075377 -0.36299222651553653 -0.2056380139890594 0.34894668266181617 0.0011010446392424784 -0.0015149235330935307 0.0034879620476194217 0.003925594741416377
 -0.18092646137870175 0.3535810890225335 -0.7060442118737901 -0.45871547990633843 0.006292515959872053 -0.00781626074419345 -0.0076740558217585865 -0.005276816215068352
 -0.004316657951176941 -0.013508699207814369 -0.004511442811678359 -0.001126317832636487 -0.5242807055112613 0.4625019169737183 0.18391493467352463 0.28624117900281754
 0.003300489035789542 0.0061229820524294305 -0.007116871825988676 -0.007051612404418148 0.17757078025391856 0.2667784398926716 -0.6209673373598319 0.45039626076050715
50542780000.0 -0.6575054578813524 -0.42081897254275663 -0.18384704095627655 0.372850852560915 0.005191334167976011 0.001919007269766498 0.0002542114044929748 -0.0018359215634214691
 -0.18334448875232243 0.35666251110641456 -0.7101758928630756 -0.41665438931985194 0.003605610658148291 -0.004364462868467918 -0.005158357489417371 -0.003680453094633978
 -0.0018951249500813476 -0.0033727957220215936 -0.013739192063499356 0.019866276912371136 -0.5674143668088953 0.4706500476436872 0.18388902941816643 0.2496896986408038
 0.004594784879669355 0.011997516880769022 -0.02142286003379106 -0.016870664591820527 0.17275909640711878 0.34320636756717665 -0.6307779901444707 0.4765917350116663
50612770000.0 -0.6893145056308846 -0.4405214825987144 -0.17731178665130679 0.3671794780972065 -0.0029430175317681096 0.0020694234849863513 -0.0020800999943710393 0.0027659362381076556
 -0.19603134333629008 0.3822296014853171 -0.6671508206778932 -0.4182401074402843 0.001552035501645887 -7.906820006181538e-05 0.00418723574534046 0.0006359207120326425
 0.00023205564429538451 -0.0023464647460607548 0.0010660612040786627 0.007329065553120527 -0.6414919926041937 0.48567246686916854 0.16786330767725374 0.271769879343263
 0.001701790612960988 -0.001127322462203296 0.00488283065164455 0.014808988211956094 0.1531493065589037 0.2549841446788389 -0.6488758802882572 0.4407090995648974
50682760000.0 -0.6848410860297128 -0.42909215953514607 -0.18758602505896324 0.3759090560674307 0.0010906018268427406 0.0019791742557106118 0.0018717343296282016 0.0025080725549438206
 -0.19481992077560376 0.3731540797819194 -0.6744011391281922 -0.40792846973924196 0.0031821284547577326 0.006002405513752502 0.0026209444578110213 0.002966601159521088
 0.003398585833640401 0.0055687630257997625 0.0161094816873288 0.0011984245389721508 -0.581698350818578 0.5081383375189917 0.1686720225110162 0.2547085947688327
 -0.003960365667685257 0.0038448505968325004 0.0017612152708440475 0.001351186277646096 0.18107605383251665 0.2904349417736616 -0.7066037365618848 0.4639806759217513
50752750000.0 -0.6897194743902996 -0.42533114490023705 -0.17924564510137903 0.36781592623978226 -6.697435492909364e-05 -0.00250847491240939 0.002466915406001151 0.0021276131900962126
 -0.18133271726445305 0.38027955096755645 -0.6975041781231102 -0.4224118983652284 -0.00110070025515077 -0.001168430995765148 -0.006170876233283438 -0.004442853086368624
 0.004056807160762064 0.011026423423187826 -0.0016667787621948474 -0.014635897320327895 -0.5445702786314259 0.5239711466604098 0.18247312125026974 0.2851884988113616
 0.0007776490836442544 0.002130195921514195 0.013791299065919194 -0.000973743523163764 0.16006007364357167 0.23089003641115594 -0.6247621572385536 0.4730080531837961
50822740000.0 -0.7024594291703515 -0.4024195434256 -0.17684812628779079 0.3721814052914693 0.004192350401018602 0.0023947163711744517 0.0046715297618873525 0.004603919641702886
 -0.18413546088214833 0.37254687553971616 -0.685075347105171 -0.37169622718435397 -0.0021083033597923293 0.0007984028341822975 -0.008646424729368744 0.002904350859284333
 -0.002305388618621595 -0.004850788310430026 0.01588455972144847 0.002614233264892576 -0.5668240314929737 0.453400686274628 0.14888641331169267 0.2734376439804551
 0.0018105598049482855 -0.007992210387936172 -0.005919382740552781 0.002882204872428818 0.15849484904432076 0.28023409395121174 -0.638161762606364 0.40192790973127634
50892730000.0 -0.6642201986839055 -0.3941248526532849 -0.18235753820105932 0.37637605427081783 0.00013652054826488738 -0.0006997275958631816 0.002342746163794148 0.0037910282358046134
 -0.17359657602736384 0.38227113872087054 -0.6762456393283874 -0.4032960933664766 -0.0015609241442161113 0.004681451149199999 0.007816320639134268 -0.0013093104286708737
 -0.007911525108390943 0.003931067833369009 -0.002491890603725102 0.004090314249541468 -0.6300479219832982 0.44290038534590315 0.2350679596131652 0.28809816813931916
 -0.0012822555260890466 0.0101243467762416 0.0038318517183250633 0.0029262250188121885 0.15423958952342268 0.2533913496805485 -0.6820352331846004 0.450758523335002
50962720000.0 -0.67709434925444 -0.39946965775803334 -0.19245413128636146 0.38526039075721474 0.003628365792988778 0.003978964362684942 0.0008828577499182268 0.0012016634104859542
 -0.16464630400604224 0.37565177512812803 -0.6767050678377343 -0.4319975286988065 0.008126489169311194 0.002625642845391346 -0.0024741388503179995 -0.006927063581019424
 0.0029056246970295004 -0.002800708211879923 0.00742124066461147 0.0032315072519638216 -0.5614256205780419 0.5049175999286716 0.17567838226117255 0.25757456510509585
 0.006629564760486214 0.010614929390104413 -0.0013324750372340688 -0.008386285175464312 0.1552317906291773 0.27641730219308797 -0.6224825871431259 0.5168684159360364
51032710000.0 -0.6748119195807485 -0.429281948096547 -0.19188751258674003 0.3538781273517495 -0.0033828620663989254 0.0007575480035147355 0.0023247687044502365 0.006118423731257968
 -0.1978277747047933 0.3820237294929168 -0.6459446531536132 -0.4037846567532584 0.005043320204582869 -0.001435755879709239 -0.007212017869786841 -0.00020195378736679695
 0.009723438373305167 0.007857617853170821 -0.0067881165738478 -0.004624240017829216 -0.547304549032919 0.5178841705713876 0.1859395855697538 0.29258536170340327
 -0.004980127805353222 0.009454330433503851 -0.0022289926015947176 -0.004337802287432128 0.2043629088260577 0.30929052497384707 -0.6971974277701952 0.38428008843730066
51102700000.0 -0.696437919523086 -0.4100171960712923 -0.18064955649772124 0.35243601227401083 0.0027970253322146567 -0.0008606595729281449 0.0016686945400099836 0.00047129217870258664
 -0.15981654718228352 0.3888839963288814 -0.6480130822115 -0.3882488423307199 0.0026880344921932564 0.0028056038629622002 0.004227168429867553 -0.004068786141426099
 -0.0029065068151994332 -0.0009507396796270605 -0.0036781584098085247 -0.0010765653625430583 -0.5491596309774384 0.48935387992808277 0.2836919896814856 0.24771258697530088
 -0.014187484752409189 -0.004659532052304027 -0.00529719965500325 0.007600960103140211 0.2549593263845148 0.32000963626307743 -0.7076014262523247 0.5061446787383512
51172690000.0 -0.7019195828034446 -0.42846195094963824 -0.18523240723018783 0.37257825846842746 -0.004816805455552097 0.007622849258990895 -0.002154233449027446 0.005429424276288036
 -0.18447983894535697 0.3948910894422923 -0.6640071453922751 -0.35343653529140423 -0.005580478553920287 0.0032835069798984417 0.003498729236359926 0.00015045124672333766
 0.0014359298938891837 0.004315347381255387 0.008940508418141912 -0.008889960004813985 -0.5515455403140678 0.5092189883382785 0.23214300280421543 0.2698174988609576
 -0.0013866661413973562 -0.000586121511587123 -0.005551053972104484 0.019042081745853607 0.20322240770089361 0.26619950522058144 -0.5952323237017891 0.46367111091166185
51242680000.0 -0.6818060656540837 -0.34942801837874227 -0.16507759231106237 0.369222281604065 -8.768062871195454e-05 2.1737905287569147e-05 0.0007521842493799373 -0.002763440069736757
 -0.17286311278639888 0.39128191441905963 -0.6822525214290717 -0.36460114925108866 -0.0030761452533989604 0.0006482623013429129 0.0005490559137274351 0.009477831541368463
 0.006753497070320536 -0.006443035876068111 -0.016072017032519172 0.007970772752894794 -0.5387881095964201 0.48138201491855204 0.15695727091969308 0.30566493748221146
 0.0020456103650494154 -0.004988581428081015 0.0015451376293448957 0.003384702662474964 0.18227018287184085 0.27386576494986464 -0.6186390988118717 0.4770874220854461
51312670000.0 -0.6772955045767372 -0.3750370705128832 -0.19755322421734736 0.40826197830522665 0.000542222245620422 0.005713822739586545 0.0016517110555948017 0.0034431757415143496
 -0.19822099248006786 0.37740649871729126 -0.7063946805518084 -0.4446820805730578 5.6011854635495514e-05 -0.00423956795182225 -0.0006234151873690131 -0.005467911538302188
 -0.00580070321050408 0.005631312921210361 -0.00603516848357996 -0.011990680338353533 -0.5551660173524321 0.515781965224369 0.22766168228797534 0.2545097626592571
 -0.003528919665480239 0.0013102905753409567 -0.00202910234988323 0.025400259270150993 0.20016306842524187 0.2909223145056141 -0.5736388397149835 0.5450102471332684
51382660000.0 -0.7052024354449158 -0.38558329191502794 -0.17699073929307602 0.3733687494136478 0.0037679981130692617 0.0021977779185432793 -0.0005848370271468408 -0.0007957922843018886
 -0.17722643460503099 0.40480570458515913 -0.7182087884282249 -0.4170414614426735 -2.613264767161547e-05 0.001983813414032883 -0.0018719542995736147 -0.002611818144525859
 -0.001354183516182298 -0.00754550230296927 0.004995349094040888 0.0011724662984133093 -0.557278915618525 0.566523224699717 0.1524468902459185 0.279077395142121
 0.003107808966568942 0.00439651828946117 -0.009544741695121066 0.0007475167166876468 0.1658220613911912 0.21836553677095916 -0.676239926419888 0.48540528505152375
51452650000.0 -0.6731605325790565 -0.43094293407179457 -0.19041470027398794 0.3978073704520212 0.008450684493582866 0.0015680039120266511 0.0032338136533433494 -0.0019922223563158953
 -0.20059531446492643 0.39534365927783444 -0.6895340356372252 -0.41563843815607765 0.001000527038591975 0.007579832198545823 0.006969904995390983 -0.0019882549905812616
 -0.008376878370825727 0.012260774520322797 0.010343274395750581 0.0021038948519844307 -0.5352164165827527 0.5146563881471967 0.2225329040752665 0.25832787829844467
 -0.006903541665449963 0.008472636505000066 0.0011554123313488314 -0.008778986697241397 0.18541281459130382 0.24604780957037004 -0.595929187020355 0.4947394014170672
51522640000.0 -0.6690382767448435 -0.4136050039918474 -0.1750154504440836 0.3906499779011136 0.0006428833005832841 0.003210102260543187 0.0012788334620788958 0.00015107448072137312
 -0.18880386619759845 0.3861332816379892 -0.7160867742394461 -0.3875647132919198 0.0012507514303166044 0.0013695925294044235 0.0013919968240125775 0.002229750486146282
 0.0022969593060350145 0.00015524682355510464 0.008429809088426183 -0.02048664590688399 -0.5980673591133512 0.4851372822369605 0.2056842961909932 0.24827640124522166
 -0.006762292261963603 0.0011077313964647456 -0.013434731470602201 -0.010035294614315897 0.17944761826775477 0.26905977238086964 -0.600479384536887 0.5299174124744622
51592630000.0 -0.6919627276981511 -0.38524117573699584 -0.18410310893409496 0.3996219842907782 0.0028074942840336735 0.0004969454847370427 -0.0027808638187199514 -0.0018744384362272281
 -0.17647545867588152 0.40458292212998254 -0.7107798477125391 -0.3818246672845087 -0.004455254288044095 0.00403653434898334 0.0032211098784884176 -0.003427730302868967
 0.000561518051345418 0.007037875710652887 -0.003189052651295235 0.015752642970483517 -0.5836957157564993 0.5297253654841924 0.22357940118925274 0.243761930464217
 0.001299265089815088 0.006000895878681044 -0.0015768561716850654 0.004944369459679815 0.1621059546840657 0.23440116564347532 -0.612976879348266 0.4920363209326088
51662620000.0 -0.6606624809730571 -0.3672444235615889 -0.18472227944361913 0.39822486351005865 0.0010431217333745943 -0.0021704290064274425 0.005224806517210347 0.005791769179035188
 -0.1591782645123197 0.3833910196917134 -0.7101611897339363 -0.371732156152087 0.006797784553950673 -0.0026156110994208213 0.0057729279439327815 0.001829395568149457
 0.00011633435673928518 0.00594428803285272 0.0092802057119797 -0.0015008980952859296 -0.5282162775312319 0.4853693835202954 0.18536497584602898 0.2804137172431265
 0.0022054805260683452 -0.0013517203558859488 -0.0027603615233874213 -0.00011628705440654185 0.20711622310085762 0.23148535701949388 -0.5937223312603257 0.5567219800876969
51732610000.0 -0.7224120687484397 -0.38433652747696173 -0.17154085087679552 0.39256492040980323 0.0008061356481176834 0.0019851405029744375 0.004692591384401184 0.0016987184518061698
 -0.1774832219722891 0.400051733313943 -0.683263250074781 -0.35693267395898626 0.0024373064129053546 0.004797662611756316 -0.0027530015914958433 0.004743813284459295
 0.005479005748425339 0.003089192765303594 0.00754098959290652 0.003855814153143564 -0.5424901055723937 0.5172928511908518 0.20588699218376275 0.2769423005805388
 -0.0052574221749585376 0.00034879207545179656 0.03260186694501781 0.007605126964880125 0.18243834263310407 0.24896017669899845 -0.5849168374920808 0.5197243697903491
51802600000.0 -0.7518428327460609 -0.36870645812728864 -0.17959113899164544 0.3916324416169745 0.0017294851426434942 -0.0018337313942333535 0.0034781428699823484 -0.0012323527388933282
 -0.16873092637720846 0.4103106716133775 -0.7094397716898342 -0.41973868550947196 -0.0013785147135279689 0.007495315180136158 0.003250111503012325 0.000528383918388758
 0.008677052068510615 -0.00317045517615941 -0.009909371741563458 0.002318986008687535 -0.5153457074616219 0.5612417394121171 0.1534034949969319 0.2536235396240929
 0.010447707217344634 0.0034531815141518487 0.002069047611826955 -0.0001633643792130212 0.19752496766422958 0.26994473179414447 -0.6379527992150975 0.5398987282623346
51872590000.0 -0.6778941020530197 -0.37407872847752505 -0.17749690018890815 0.39688477331861494 -0.0009436215448133505 0.00013895824108118817 0.0006111248245672963 0.0003105827975050301
 -0.17956972568787521 0.3765180376712826 -0.6715283651930058 -0.3956393762041439 0.0007020258054160221 -0.0018715218746243468 0.00022529933084559236 -0.000825238940396171
 -0.0028506861361718193 -0.0008478060904507267 0.007002656435829824 -0.0032890337289888235 -0.5767191874637104 0.5055021092353882 0.21323498110228173 0.22965241076352494
 0.002135002404838442 0.006175385548318916 -0.002775967156957851 0.0013475181389800924 0.14981352710962037 0.280605388932661 -0.6180771550471102 0.5192333992159182
51942580000.0 -0.7007566500690421 -0.39267236150927404 -0.18413693600487263 0.410092663861335 -0.0017260632451756286 0.006845646961049904 0.001304969426485201 -0.0012405683890413112
 -0.18328473281763186 0.4040095896415684 -0.6965310256539925 -0.3729024317374995 0.0014582414357666076 0.008507049007855674 0.0025001342187737363 -0.0019150920929919208
 0.008627495032729745 -0.0025858681072545944 -0.0034795095497536345 -0.0025457021983094326 -0.5912034257708244 0.5392698537640995 0.19918777296306436 0.2720356162102028
 -0.00014653475916020817 -0.003989166791837233 0.005935419437389995 0.0020185507483974937 0.19173094230294188 0.24566449656198136 -0.6059688881210066 0.48075875503375415
52012570000.0 -0.7385762828617972 -0.3777582845253098 -0.15337740672577244 0.40054775653971697 -0.001720561113975357 -0.0025237240355194604 0.0044270895126195765 0.0015992578013068828
 -0.16819333384075894 0.39374091810798706 -0.7416083630184813 -0.39384876503151 0.0002122569960582127 0.004307734543262769 0.0005607313839245231 0.007992031581503276
 -0.00210085786120588 -0.012941747175686849 0.015521536582801079 -0.011856074081937925 -0.5528230817326213 0.5121205515292134 0.18249602750032082 0.2265965289353979
 0.012248927270832672 0.0025884799689561287 0.0007179225436964756 0.011030637464924352 0.1667642069428116 0.21490769412513727 -0.5727890827225399 0.6187660388535398
52082560000.0 -0.6960056232078761 -0.35978312498946424 -0.18316527018878012 0.4414741799140569 0.0036208362521116333 0.009076319093497957 0.005007287942571406 0.0005399533386725374
 -0.16594921957566955 0.3959861940273539 -0.7344373809352439 -0.4196227102598447 0.0067577511782512326 0.0050286487407694615 0.007349841919922782 -0.0048623121420947844
 -0.001971172653550011 -0.005410169494978296 0.0008988789941713291 -0.0016046178573192477 -0.5106771386274596 0.49010174140155194 0.16950270703286566 0.27220659880538245
 0.004812304742168884 -0.002390563840957693 0.027576664863169894 -0.006969043389766321 0.16866197558535923 0.26364968876168876 -0.595953778621495 0.571912578200169
52152550000.0 -0.735542993008487 -0.3626498677585331 -0.17816177484259416 0.4136611771861359 0.003991001728162813 0.0022243099772186778 0.0009851888644374978 -0.003936761464629707
 -0.15863160956461902 0.3950268293229106 -0.7103238745299965 -0.38200956082664106 -0.00523801017179119 0.000625345946165943 -0.00031101482485274755 -0.0020922960312358776
 0.009987319347015224 0.0045222902031269805 0.0019419532946805035 -0.004191667282639934 -0.5314483005158618 0.5149966418399752 0.17737213545284006 0.26438667784764536
 0.000622133433618484 0.008424116966827381 0.022458384254425354 0.0046027654128378385 0.16976489203181944 0.22913532116207083 -0.5695675395962734 0.5651234781234343
52222540000.0 -0.6930409703563782 -0.35758870815437593 -0.1782337264825681 0.4147424549244447 -0.001868940178969055 0.0007341422946420548 -0.00022792855936768755 -7.164435710131737e-05
 -0.17089133536513915 0.40339709603785207 -0.7354353363621811 -0.3717045867867401 0.0010601233600817635 0.003588733289903705 -0.0025535653803144434 0.004550660529600513
 0.011633888598834987 -0.01633998835161534 -0.0004629924189168526 0.006910331896694194 -0.5501879163557708 0.5212973084994204 0.14902770066668752 0.28960433086349546
 -0.004619436188979062 -0.002556549553730578 -0.009117318732750831 0.009456243467226122 0.1361919659737403 0.22290588117329077 -0.5891920760764685 0.560331450374239
52292530000.0 -0.6931478220843791 -0.3744913151667987 -0.15789435330045626 0.4055677695346469 0.003651199997080304 0.00074473989779951 -0.0036034240848388903 0.0011418898974968
 -0.1598057178487988 0.3965050067407474 -0.7154117291344052 -0.34264352079814014 0.0018672411625610544 0.008002627689034609 -0.0015681617399772422 -0.0038593270803891997
 -0.0018526664374416565 0.0015026436806054415 0.013081295816799413 -0.0020946916704974033 -0.5304345281237657 0.5246632315549059 0.1707898145076431 0.20791803996158875
 0.002467205714097734 -0.0013430645917564881 0.00307863779468946 0.02341840141976231 0.17094639401477388 0.23034535350140722 -0.6402095087303667 0.5128568365626993
52362520000.0 -0.6920254921701325 -0.3788493429289248 -0.15085269808890714 0.40312207234699976 -0.002766252316292535 -0.003438655540347649 -0.00024427383780263774 0.0026614104882765363
 -0.17870336246663765 0.41528369462654874 -0.723212449489738 -0.37806222366343195 -0.0027471028660019862 0.00292137997330627 0.0010647290081118967 0.0018358705770489207
 0.01061676045480959 -0.004570232506558918 -0.00199350980238107 -0.010240069273293665 -0.5760463991813 0.6124860041055374 0.19426898064071507 0.2134756176642566
 0.012349196303916525 0.010825257779893743 -0.00807642766509199 -0.01938577546636117 0.19160668014378504 0.25594009493531855 -0.5657554065072826 0.5496872337485601
52432510000.0 -0.6966383166368197 -0.3831511732404061 -0.18370612283984808 0.41941078598309117 -0.008902953742336434 0.0009580053865445508 -0.00046105847747580995 1.6262460514003055e-05
 -0.18100573024097344 0.42320509369136905 -0.7150182640289663 -0.3892547697536495 0.006826365181491382 0.004840078968466029 0.0011001079005838982 0.003139946255859622
 -0.0034342771602308008 0.0015953187789323156 0.0025428760401302137 -0.0019060749204300243 -0.5297958745677139 0.6026487003473787 0.21148184234834513 0.2517877365115294
 0.0020686470811845993 0.00397999699172063 -0.0119684881180925 -0.02039286198005662 0.16210833813532383 0.2468055085864489 -0.5941578048864756 0.5474441706728088
52502500000.0 -0.6899569886127492 -0.3859595802251823 -0.18054329315679907 0.407467096548892 0.0014433841475237172 -0.002017068850195709 0.00020057195706502435 -0.0002761097226927836
 -0.1750611835000556 0.40645627632599096 -0.694860358234009 -0.36781490916627246 0.0007588113728850981 -0.0021784609779635657 -0.00013296389818258348 0.001075852663348485
 0.002229726491395707 -0.002191243273998009 8.558664931523517e-05 0.005589797812102289 -0.46338330935522165 0.5280991326128298 0.1666704947062495 0.20822156174105433
 0.007894339063395346 -0.007998924843269993 0.008258149984225773 -0.0055953739770588365 0.2099604096803335 0.23755557255586096 -0.6101414977851811 0.5862996374343732
52572490000.0 -0.6723435685341048 -0.3344902656390282 -0.14649964234763715 0.4014250498286056 -0.0021133717057443993 0.00012551669755134917 -0.002228427086492881 0.0009582833363125858
 -0.1606450407559287 0.4027804778380747 -0.722728004899903 -0.3312233986238605 -0.0020304899542546344 0.002039276480845098 -0.00016265964104815388 0.004670138239436211
 0.010340248790998909 0.003586276095658768 -0.0068469492844803635 -0.0034872048315304324 -0.5320536552819014 0.5865306341585761 0.24032195707867327 0.204845919763235
 -0.00689080384607492 -0.0003288915967994625 -0.011892432979570785 -0.006529219588300234 0.1792538666772419 0.2494581521019803 -0.5549697765241083 0.5245685236550119
52642480000.0 -0.7333476914927795 -0.3646401881872847 -0.13882583765494536 0.4001482912056196 0.0015226641635893608 0.0017255346253837824 0.003697218259033832 -0.0061502110087636695
 -0.14594824340486628 0.41891792177254406 -0.6975161770230134 -0.3783059243120705 -0.0027641870878693364 0.00030699555115422985 0.0028513337044719076 0.0022092161864800037
 0.006274997500302883 0.006563331371857051 -0.021328874597886398 -0.008295674252657632 -0.521622412926966 0.5784650379472246 0.18669817758365817 0.2558064639440237
 -0.005446718271832594 0.003606457760155598 -0.004365851799610793 0.006641750294217456 0.2738562507235042 0.23491254293204203 -0.6690470878275477 0.5344279283737887
52712470000.0 -0.7369013866597831 -0.37997839838533554 -0.18186898528815357 0.42643536501360835 0.005918065585381954 0.00013213653932545182 0.004218782421043615 -0.004010090948521903
 -0.17171171374168617 0.43408602448286865 -0.6834289001645855 -0.3834973172644066 0.0009134993615086386 0.001232425051016909 0.007658148533955387 0.0037069526755995914
 0.0038046105970452808 0.0018772665777993314 -0.01435795147104403 -0.0017955033050333113 -0.5239489847642005 0.5776062553351557 0.18745417274843898 0.23007164486482964
 -0.006445966809997099 0.01056441750024886 0.0049024735938983325 0.00043503861468637743 0.22002847847185059 0.22530314571733193 -0.6228884028414325 0.6414837831939901
52782460000.0 -0.7156289908231455 -0.33726522995706626 -0.16237972560067299 0.41817227075302815 -0.002008151879637972 0.0019326565065085934 0.005609486779513169 0.0002717092276993008
 -0.14805122860192663 0.4178890576323734 -0.7153307462009522 -0.3717351927579872 0.00018562147260057978 0.002784940791151214 0.0019757105249183947 0.0021437603066329874
 -0.007230797967079669 -0.006340235020254784 0.0011805511333848944 -0.001172440689659485 -0.5289606647319302 0.6161362939987352 0.1843900739290885 0.2272911635335523
 -0.0020000572943002126 -0.00010725495844646255 0.010567870934072104 0.0001674301002701319 0.21110823514801308 0.23909979875059797 -0.5800004418124367 0.5573733664363892
52852450000.0 -0.7112939630492098 -0.3533416441179853 -0.1588686082205656 0.434413121636826 0.0006604805276681662 0.007100347974226782 0.006752151833164851 0.002642729054642609
 -0.16176831463171254 0.4309370448080998 -0.6828104401290751 -0.3559122366230014 0.0038385193077482512 0.0009535009753250432 -0.0016191290899933502 0.002710152862459645
 0.008868580843968712 -0.008973152263556808 -0.005068985276404177 -0.014304850747381137 -0.5700270469835003 0.5212967397367984 0.20125280618436012 0.23256058892208917
 0.010979186088400891 -0.004005697898993699 -0.0018785331199617215 0.005255729032293932 0.16542553387201805 0.21605148471960625 -0.6278849794737061 0.6078278260333514
52922440000.0 -0.7201704961078961 -0.35183895427797685 -0.15327124222514532 0.4239873765224922 6.939719189761771e-05 0.007637303890745948 -0.0016192821918328327 0.002864754199794521
 -0.150560734395321 0.413758832825208 -0.7124441439745649 -0.34419114885158614 0.005231298573585006 -0.0031690593866687674 0.0007210776894970913 6.371727950804625e-05
 -0.0023470019074038743 0.00440783078160736 -0.00021292257462749735 0.0027079938237378545 -0.5400488642392718 0.5444971805353671 0.19826315197782862 0.25848122420773384
 -0.008217601917629384 -0.004898557266016431 0.01026733347302125 0.020022007447017768 0.2264635723118107 0.2628145446073963 -0.5972552072762346 0.5379541209732539
52992430000.0 -0.7682488426129873 -0.2982586988879166 -0.14700359562186965 0.41456878723502255 -0.0008835490725319475 0.0022268423888779387 0.005739654057718494 0.0009116524400725464
 -0.13850685513984037 0.42741967528747 -0.6914431626960198 -0.33470940131865273 -0.00105690415066708 -0.003402906802384665 0.001527242719448549 0.002957558639430684
 0.006032564184746127 -0.004698553663844052 0.004301760814301342 -0.003154353544487518 -0.4610104060820398 0.5877032821884968 0.21621062252620485 0.19198817260654713
 0.007277562947163613 -0.007699569385359575 0.012130877259980796 -0.005673951393042287 0.20101372703395995 0.22323410031075944 -0.5558484248650646 0.5241165249212285
53062420000.0 -0.7219108312786393 -0.28583492039529945 -0.17497074558306752 0.4239206171351142 -0.0014059555882387556 0.001453714546676755 0.004453749153330621 0.0007691606921032892
 -0.15856162789647868 0.4156715303396467 -0.6977260529296776 -0.3470177676329834 -0.0029018879431131593 0.003885363656433222 0.0012088407744684894 -0.0033692428853671487
 0.002341767243192413 0.0009752679863572972 0.005881441186912337 0.00744711605976373 -0.49029783634084123 0.5812521959103449 0.2139374246675471 0.20073730740699966
 -0.0015886089786071598 0.009575637248298881 0.007156287864330305 1.283124630088833e-05 0.18131498802944893 0.24079712912771906 -0.5522940836621739 0.5539758163016556
53132410000.0 -0.7063660798201676 -0.3324222696063675 -0.15186831570375492 0.42118224022228845 -3.2531319578163856e-05 0.003021978274007759 -0.0018029392088780294 0.0010194018505780371
 -0.16308279596403616 0.3850095690359364 -0.7061937862079136 -0.3584569987120608 0.00028108192900288696 -0.0007531310706783453 0.0021841851884710065 0.0033410928844971595
 -0.004374400981745161 0.0013836597331199152 0.005522092740236777 -0.015326501647520566 -0.5745137011355197 0.5491093087244184 0.20867669923117446 0.21191156727185326
 -0.0037138015710214147 -0.0020587463499156526 0.012973273598625473 0.004558939296621843 0.19455693225316548 0.18801805486365272 -0.6192904142265517 0.5770047818868895
53202400000.0 -0.7419587058668331 -0.31516288213025956 -0.13607002164837773 0.4191164536474107 0.005706197743154167 0.004263234012332427 0.002279027058440778 -5.556007501363809e-05
 -0.13304413082210173 0.4195403469738604 -0.7388712975599387 -0.32130871898018093 -0.003160637438581423 0.0006015118317103634 0.0022251880650256566 0.006407129613067767
 0.0013481674619494162 0.002242532185601762 0.0029220352435643617 -0.01607249516664371 -0.5203116728019872 0.5677529083951777 0.15358967999673914 0.23714858460178492
 -0.0021824421637041663 -0.00897608711595543 0.006731241192823164 0.0016726639403677676 0.2460179197944759 0.2070171033406438 -0.4976979022619948 0.59819154289918
53272390000.0 -0.7326620000712578 -0.28922973216290854 -0.15853267925160455 0.41848835420360714 0.0027789674978159072 0.005426906524823533 0.0005467677336502971 -0.00034733789885337815
 -0.15487396076696414 0.42755711664940993 -0.7130872969114757 -0.3499770004975803 0.0013183576393591767 0.004030530437352069 0.0027487443943004742 0.0021435522229027886
 0.0027039811657403484 0.003988630016308867 0.008384195601822814 -0.0049846749591252616 -0.5020110528935694 0.6177508965794021 0.2121244573916082 0.2275472012667181
 0.0022896528615732135 0.000780013519098548 0.010938313709237165 -0.0014776688450979828 0.22002580654004752 0.24280466869352832 -0.5677033148294994 0.5407601702741887
53342380000.0 -0.7110324111600272 -0.33165202367161845 -0.1305161101609526 0.3986523550263569 0.002821516242304649 -0.00036413608382993907 0.0031519272497519957 0.0025603081533532193
 -0.14382855163856245 0.4037413328460194 -0.7541872478368844 -0.2824382443374112 -0.0006051773655949891 0.0037401630923648154 -0.0024784548369413766 0.004811206569713863
 0.002956943947621042 -0.011762320781645307 -0.0010486802643482427 -0.003466791521265075 -0.4763199987204643 0.6339330750955662 0.22986210418525035 0.25586396787047394
 0.008614285498812218 0.005293036249631031 0.022298984359444694 0.013707817187902196 0.19929787573466276 0.20327527113739965 -0.5579052797365701 0.5961864112274695
53412370000.0 -0.7068945325988234 -0.3686856587651712 -0.16719968740181945 0.4269745158029532 0.002361713945784007 0.006200978661629015 -0.001624707618119786 -0.00036247152464931006
 -0.1776046833177098 0.4042343276046965 -0.7048529314449521 -0.3001975190942705 -0.0018296619452025577 -0.0027384067661859867 0.0013253094016690834 0.00029259479708833406
 -0.006957969405441776 -0.003396034002926412 -0.002541615177448955 0.001307289619328896 -0.5056000719097271 0.5724445608143387 0.19048578368336458 0.17916262129239577
 0.006358749665057778 0.004892375490308315 -0.0014011064045130945 0.021424479472108956 0.18203100342724352 0.2668315653587772 -0.5381404327247281 0.6024738315146987
53482360000.0 -0.7565855258601707 -0.3030844976659623 -0.12036849849175295 0.4152794287383803 0.00568205051694637 0.003318992031710158 0.005563906937612835 0.0010697044711423236
 -0.12883893152445908 0.40123094856754626 -0.7524878436777988 -0.3041989981015678 -0.0041924382916790825 -0.00011196490657944685 0.0028007443058957614 -0.0006962726632404754
 -0.00758911237973468 -0.002490271907342304 -0.0001812008710158508 0.002073728270181934 -0.49668257042667474 0.5689288211134225 0.16709866364524864 0.20615169097475636
 0.011140170836381389 0.0021290913622777734 -0.001141600130582121 -0.011868302884745455 0.2609176852498809 0.23226568902596112 -0.5266981380810616 0.5995279095973445
53552350000.0 -0.6907249864059692 -0.3326670223698436 -0.16320413455720065 0.44149409447940363 -0.0014714510343330565 0.007465214274424553 -0.0014862439512070458 0.00014009623543926922
 -0.15194104336885292 0.427743917886712 -0.7088672264045736 -0.32240713847915725 -0.0032143658302762053 -0.009174270608366973 0.00690773408361314 0.0037587587933045944
 0.004045331763834096 0.004905394442885389 0.011484164763869173 -0.005073962329162783 -0.5259341043087762 0.6091887399594695 0.23541334512914885 0.21508107582733346
 -0.002386023628968292 0.014321509210634867 -0.010449157729771882 -0.003968490544425458 0.2149689670468482 0.2250679892208593 -0.6021959332153434 0.6090730546879624
53622340000.0 -0.7178627884461684 -0.33999615144559153 -0.15266594553151347 0.421319115414722 0.004000086534155625 0.0028239636270246666 0.005849863009866334 0.0022822707646765737
 -0.1619491081870732 0.44696507018639914 -0.6924544436409027 -0.3262444596646081 -0.00031865673436850015 0.0018119202954676615 -0.001480418370842768 0.0016130535240031663
 0.010675671784963463 -0.0013020400688779383 -0.009756183138962076 -0.0037403988045541926 -0.48725875215819753 0.6611335850328909 0.14791510469225302 0.1740421239709637
 0.0037572118579281997 0.004157920317655068 0.0034435814715128824 0.006451927030287208 0.18249276074090162 0.26418500709296605 -0.5680101280282623 0.5336862538026796
53692330000.0 -0.6764512850592502 -0.40949759165170035 -0.1469948907145343 0.5096730225063836 0.0020222786192813165 -0.00223609002678463 -0.0018208145263387148 0.0006881628506915095
 -0.19508926048123396 0.4609272706880191 -0.7186189177043681 -0.3884990695184876 -0.001243601750181729 -0.0023532124407592385 0.0020122375566530887 0.0012776182126479723
 0.004175268977047625 -0.00639951860805343 0.007197958390546588 -0.0011117227340354482 -0.6079363025664782 0.5632982205605859 0.24670701294366273 0.22256572962806337
 -0.0027007333486013477 -2.2291446488314552e-05 -0.005804136953578949 -0.005173787439117123 0.19441322197164854 0.21573285446314577 -0.5338159016029723 0.6030318291076765
53762320000.0 -0.7202561181808492 -0.2947041805823165 -0.13687895083627075 0.43698438231171133 0.002309412933178035 0.005647412298137203 0.004742770261146701 0.0003828542844777946
 -0.14665173690045627 0.4254781230089885 -0.7284598264978704 -0.26986735816170787 -0.0013036770023786997 0.0027914184435112108 0.0027288964441019854 -0.00263921345079193
 -0.007688988404921167 -0.014031605821094889 -0.011403620599570107 0.018207294465738537 -0.49463144407387166 0.5320093131561121 0.21953908722038995 0.2364574434645639
 0.00420391901722944 -0.0014538264667747823 0.006598597625338169 0.011035530183164104 0.2177258453609923 0.18619248659248183 -0.5069358320093125 0.6045581960008682
53832310000.0 -0.7214168550188708 -0.3346272514696486 -0.14774425042994987 0.4320521537212144 0.0024748377420146708 -0.0005987788422450262 0.0002096945386620472 -0.00224427982589317
 -0.14710758421402687 0.4177788462060792 -0.7404290832049745 -0.2879058811948153 0.0001271141768411909 -0.005949101583656179 -0.0019411193241447768 0.003541842563539919
 -0.003314266104687283 0.004388705784489071 -0.005200620481917388 0.001591408657945917 -0.5022617309879457 0.5810470179285716 0.17210927472619242 0.19345191989506635
 0.0015858136624215151 0.0026208778266547405 0.0036074999090065156 0.008321019837722076 0.1966553819873707 0.2309335372464397 -0.5555584982270417 0.6070489008502202
53902300000.0 -0.7742636842749201 -0.3458584738639122 -0.13910747269265872 0.4480213643336329 0.0014518398845836272 0.0005284534775021723 0.00041749910070446234 -0.0003511898320597268
 -0.13426334594859193 0.46906297333374214 -0.755722642526117 -0.3064431625987229 -0.003480106137836802 0.0014211049454219097 0.0018262969044859011 -0.003968802120404948
 0.00978129668832625 0.004344918933021803 -0.002188832828901904 0.021664600420504738 -0.43904473252649834 0.5970489998110202 0.19777905264284298 0.22988579232459058
 0.0001930183931127344 0.005898337067081899 0.013382354395305773 0.01894239672893846 0.160900605994039 0.2567039173439039 -0.5858839082614654 0.5891837828791445
53972290000.0 -0.7185352941907961 -0.2878708661583356 -0.16333500768328613 0.44521636015947336 -0.00170841695096423 -0.0004192607186158459 -0.00013808942660246729 0.0031778754357651303
 -0.1408765513507506 0.47018906962948076 -0.776723051436655 -0.33245952465289025 -0.00042469215730743233 -0.0031084946355391377 -0.0008954616220994202 -0.0010740534242865338
 0.006673002296846698 -0.013759156130060672 -0.0023766761688406215 0.0067268577726959135 -0.45407818847099857 0.6114167994561869 0.1937005899281879 0.2348113952332373
 0.003192992987861342 0.0060843895691643805 0.007069856179704623 0.014046087821804205 0.18860414951938062 0.18180468711697595 -0.570272156110909 0.6102894101523678
54042280000.0 -0.7317529708105627 -0.3208957429637774 -0.13830938932408998 0.4133368200280347 -0.0005040083043876663 0.002763780575561337 -0.0015787599120209242 0.004639912616678094
 -0.14371931201466928 0.4245247818982929 -0.7077297591060583 -0.295601401040103 0.004390677488576456 -0.0003257480951232368 0.0037608798459008866 0.0019316507496327867
 0.0016593695461735055 0.01047832652122594 0.017302236595615084 -7.193690818855585e-05 -0.4595217077974582 0.5574741420076861 0.1614563403098179 0.21387231294640915
 -0.002028875274991381 0.009750608974049708 0.0035142634803901045 0.003137127958303992 0.2177993733821801 0.21187275995802532 -0.5330370023140569 0.5942734737342503
54112270000.0 -0.7196649920466724 -0.3003563547392568 -0.14909690571057352 0.42139659323639633 0.0013560314660873724 0.0009555460318766597 6.862322566035257e-05 -0.0026533546491828712
 -0.15414607337958353 0.4442118323807131 -0.6919129831401942 -0.3050993055585151 -0.004092250260762014 -0.0023747334522331532 -0.008220217320370564 -0.007307954173560453
 0.00761951024898749 -0.0013322365137228497 -0.005108404132020554 -0.021384551336195178 -0.5195950833967745 0.654563138567561 0.20165169417916065 0.21323062357813957
 0.004819533798561174 -0.0016563791755435974 -0.0040327738688875426 -0.0053710333581904355 0.19400911513301505 0.2593156340092587 -0.5190975741352147 0.5833557941279889
54182260000.0 -0.7184549070358001 -0.2511123622818637 -0.15182232930082917 0.4589205359607908 -0.0006117708243947276 -0.0015885277166253356 -0.0016906229731768118 -0.0026426896243155673
 -0.11882376113043179 0.4499492820040494 -0.7384863402262759 -0.27917152172789594 0.0016010211365381601 0.0036726497424031655 0.005406168613890151 -0.001874759291673097
 0.0009063348311704444 0.00034851131369437237 -0.02053715496886588 0.002843628240994427 -0.4458050182687055 0.5944109628110962 0.21025671612814237 0.17053789266765515
 0.0074377336098044155 0.01379419855475401 0.013401099682657451 0.006443232132506591 0.21427451220630941 0.2049978357487739 -0.5628095690877195 0.6187821098523899
54252250000.0 -0.715123615506363 -0.3250207264541648 -0.15325589469692116 0.44149478199574804 -0.0036073331722232364 0.0001766741574128909 0.003114816702354386 0.0043657658530547455
 -0.15118357697458484 0.45230438830062014 -0.7477536580745441 -0.342582019925711 0.0038150125187453848 0.001371065333947136 0.0028565803903169867 -0.001955648503769796
 -0.002651505361787209 0.001180947698973973 -0.003531685768075424 -0.00213680981768031 -0.4564409255636458 0.6507767565562927 0.2044762454406621 0.19206265606703912
 0.0022896884052736742 8.849340778513058e-05 0.008810709800275877 0.016947821666583224 0.16037995519455467 0.16938657670828042 -0.5550347594942988 0.6410434952377476
54322240000.0 -0.723536646396405 -0.245947050204901 -0.14053214770727052 0.4593789049827075 0.0032109340868274826 0.0008773424735613646 -0.0022132273193338514 -0.004095738324937074
 -0.142123848773135 0.4479470462003764 -0.7685335942150949 -0.33381708885007166 0.003566152338019577 0.0029789288349154623 -0.003498640094934934 -0.0026877844893702313
 5.8014845095806774e-05 -0.008548167002587426 0.009323255473859095 0.0035589074410594212 -0.5136784262506134 0.5785089225489406 0.1705195055560698 0.189671952930805
 0.0012639532349115565 0.0025040979295245405 0.009843363729258951 -0.001024351304882519 0.18852847257626304 0.20902283157541313 -0.5130843229766036 0.6170175990067955
54392230000.0 -0.6861215762693512 -0.32381848061306673 -0.15950111128834715 0.44656433229398934 0.0005750036701322861 0.0014765790581413663 0.004265308368569854 -0.00026340575141599147
 -0.16440127402935545 0.4379185029711183 -0.7020927819070185 -0.3444973625896302 -5.5300930214300494e-05 0.004642625924478606 -0.0006657945732847855 0.006374809010161387
 0.004435408485173317 0.0020422710017149017 0.0009975842770964204 0.015794868571554096 -0.5089909962268606 0.6746279181505352 0.17604126901282136 0.1898490953552777
 0.006791620659636724 0.006440271326795043 0.0030118289674732355 -0.00725055170622378 0.19102751729918566 0.2372216192230527 -0.5970746738921004 0.5831370267577423
54462220000.0 -0.7416255293074517 -0.2722597486691576 -0.12816979807236784 0.4368626454985446 0.0045516359102257134 0.0014947281742554203 -0.0009583679347132489 0.002228548791697325
 -0.1344086484466235 0.4213991741865174 -0.753339408355554 -0.26862105736482056 -0.00320310636045298 0.0027812001695163777 -0.003468772323623466 0.002481904744648088
 -0.0018234066570419188 -0.0014168733933660918 0.017975828446538 -0.010588948276452141 -0.3835008310071212 0.5683215547796895 0.18226271107265296 0.185689707766649
 0.006793996739433962 -0.0014711893774247552 0.0014805676879854717 0.006827436934465108 0.231905744185659 0.16733225159486545 -0.4653621628599733 0.5757851938815186
54532210000.0 -0.7058214294241428 -0.29738444313371093 -0.160124732901552 0.4432894760745238 0.000595542071785997 -0.001787152177329668 0.002210093880008503 0.004117822112221998
 -0.17187533635152688 0.4649261742846499 -0.7113484495897464 -0.28222458268144396 0.0020637734941672536 0.002169997357703261 0.003686991890280976 -0.0074756806557833904
 0.005931167475846118 -0.006863514405927306 0.0053598090607214054 -0.005386594577818935 -0.5272481466443953 0.6313829712418312 0.17258164433749448 0.177726047026825
 -0.0032666214566224477 -0.009364352878465754 -0.0050486677044341505 -0.015975861144177598 0.15376002974365496 0.18760705866500524 -0.557357470273796 0.5801135876545064
54602200000.0 -0.718367469040843 -0.3123968094670001 -0.1359546498395972 0.4426503688145089 0.00472534825603303 -0.0039292047713572345 0.001727527209999514 -0.0026310314824975443
 -0.15538569917208056 0.41845877715671936 -0.715042023525951 -0.281054353008646 0.0012104649379650334 -0.005356612071826746 0.007339121993405672 0.0003890635417226868
 -0.0022361588831263006 0.004336823346065907 -0.005951746735693524 -0.010089961483995552 -0.46847298338381094 0.643389268031417 0.15780067103677103 0.18288764895901596
 0.0026182523494045957 0.003965393037838248 0.009911502459504062 0.008493960833048155 0.18975076698553492 0.21280447921129192 -0.4613447138414584 0.6411290218671605
54672190000.0 -0.7535311220876207 -0.26923357369129375 -0.11106062778999963 0.44825512255465355 0.0009949410844165396 -0.0023587162578276445 0.003219019563979434 0.001539608056806381
 -0.11682264275791375 0.4414321371757244 -0.7692700803961476 -0.27857818605854306 0.0026651865861586272 0.008932212503268007 -0.0014606240717060764 5.470758827510553e-06
 -0.009661089780104324 0.0021766536398909997 0.0002529062073643645 -0.003121282145485895 -0.4807654377293458 0.6265570380035288 0.17519633170636673 0.16130173633079967
 0.0058872839922254885 0.00015084745125069584 0.0015000695348720175 -0.013891287007038873 0.19624833283036322 0.18203631411833046 -0.44268473486780324 0.6841816765763795
54742180000.0 -0.6913071269347043 -0.2586658188358307 -0.1175965475311058 0.4086431630086486 -0.004819486431481908 0.003764054594508529 -0.0033401272170804053 -0.0006218663332095169
 -0.12991776061178856 0.42442780827256577 -0.699874532279412 -0.21778699683572234 0.003623782691313875 0.0038573429893594136 -2.2370495042041005e-05 -0.0006066503105179882
 0.005281357052414637 0.010509696069051475 0.005956966327119746 0.016238917286560538 -0.4354281224033555 0.6011028068146683 0.19080755531879293 0.16204067977327502
 0.004037499066243935 -0.0012929590328513848 0.0035667840341619037 -0.012553593077161867 0.16809494478218404 0.21176487604880714 -0.46731819782763157 0.5967691085114675
54812170000.0 -0.7189769643307439 -0.30085189610544344 -0.1190657169599235 0.44223142894783596 -0.00017261243518939675 -0.008090244983712764 6.409338495268174e-05 0.0015967241727576698
 -0.12586843682741425 0.45507881469805017 -0.721356444736184 -0.2603971198544487 0.0015694062732867669 0.005509224562699809 0.007788164781914738 -0.0024884892740175105
 0.0007206185910651018 0.006601533368524285 -0.0029759508509063478 -0.0015239198008071375 -0.5243791990421558 0.617349704654894 0.21658655076849806 0.1695896838049212
 0.00484141667255405 -0.006678746168406006 0.0030036386570492903 0.011463510316424298 0.21554475032328263 0.1816967678617199 -0.5605502799964595 0.5890247246460886
54882160000.0 -0.7842251795833528 -0.269831368616137 -0.131764334817474 0.4731732506976966 -0.0017575752557237488 -0.004739315492173009 0.0034547284515380598 -0.0022986463326426557
 -0.13257576627546513 0.4643156939085662 -0.7584701775584226 -0.2993108117742104 0.0009473883294366494 -0.001449124194694442 0.0008438834101045178 0.0009989197507837566
 -0.0035714773180757805 0.008897339017082789 0.014531913474438624 -0.019371001389342585 -0.4381756057366656 0.6801891689518023 0.21071938510353563 0.15777766912453176
 -0.0034525241857998414 0.010293544411396247 0.008412995605187042 -0.016464115810057155 0.16208561460498805 0.21496214409548364 -0.4658945827518416 0.6529527847957871
54952150000.0 -0.7404288334433362 -0.28322065730335755 -0.12603513650746387 0.45220843172597525 0.0028561350661627264 -0.0008695105169011397 0.004310060311975229 -0.005065269088896084
 -0.11748485413571502 0.451221778736989 -0.7149869718247265 -0.28969541563824186 -0.001121158759577542 0.0021050551741302703 0.0034565622540723346 0.0024145344738294044
 0.005363851130933828 -0.00032439454499635304 0.004595448827548096 -0.004941867768130358 -0.4563793776099279 0.5803339665469057 0.172132933485964 0.18364083309773435
 0.0016513192718867413 -0.00012103468641964708 0.006722153483792984 0.010080728370640153 0.20013371296121796 0.1694332497549033 -0.5449071839964759 0.6858428422577311
55022140000.0 -0.7373225601680389 -0.2718343014433886 -0.15715019642083913 0.4554519772287931 -0.0017635553037848436 -0.0015714471523859787 0.0009503498112012917 0.0021488831085575847
 -0.14988500575230804 0.45975820464475065 -0.726466743051114 -0.30168362348801564 -0.0025270318297109557 -0.005715952242131903 -0.00717305395651511 -0.0016324692074310713
 0.007063943088059564 -0.0049365238238655495 -0.002040998539269499 0.021988194554774864 -0.4609115802685066 0.6269412176626856 0.22429313749212787 0.1606767221759835
 0.005085778991284294 -0.0010915017056804556 0.021757794824654904 0.015568528851503003 0.16107903361601045 0.2046181356926787 -0.4379411865593338 0.6358831891975248
55092130000.0 -0.7595855142485172 -0.27130110889850717 -0.14074978928633128 0.46069964180522804 -0.0026974734682877737 0.002719340977521471 0.004804209485629461 0.003421990285931189
 -0.12297769208726632 0.4414440110609352 -0.7277822285041153 -0.292388060922223 0.002610931343244914 0.0063082904995344635 0.0018772827079960044 0.00755877335025121
 -0.004706982765642127 0.0043920671467606535 0.0073805184778813916 -0.011362374991843728 -0.38883944135340454 0.6064267403530809 0.17964040303606812 0.15988067442887924
 0.003976544650995932 0.0013267319661162233 0.005249984415280149 -0.013400036723704462 0.21242200038341916 0.16485703845477928 -0.4636723493526179 0.6253334843295778
55162120000.0 -0.7217959378606351 -0.26221586894653476 -0.1484973407699217 0.4484997654248543 0.00299974079696812 0.00029601268894902664 -0.0007210833662401095 -0.0018954545507107105
 -0.13600391360218825 0.45853018633353465 -0.7233072561971745 -0.3233085997276568 0.006021705747029727 -0.0034978663408598188 -0.0024582021830898988 0.0030932416849013197
 -0.0021324994418537545 -0.003911930443103838 0.015819802344524955 6.302946721185888e-05 -0.45087568346421936 0.6364082314605882 0.18769958939117554 0.1856986469335757
 -0.004984146240451751 0.0036072573545712825 -0.011588476753554285 0.007003725910954073 0.18136772684352467 0.14064769195621668 -0.5352377586815344 0.6069692407307402
55232110000.0 -0.7477662627552216 -0.2636865913463706 -0.1322133652490398 0.43899705054305 -0.002188862522879298 -0.005832335948428136 -0.0023978041308808716 -0.0012632668607690516
 -0.11313229762519735 0.4617087188759234 -0.7098812008112482 -0.2546496262987754 -0.0025493333474364997 0.0009278209898203355 -0.001897507851324219 -0.0015545915057407593
 0.005243456243805818 0.005561087009841741 0.0030193986358535963 -0.007794366364275027 -0.45989809103387747 0.6930863474132339 0.21285917286402153 0.13979224368131543
 -0.003291000442881999 -0.005797071381473644 0.0032079192518047798 -0.004320426249287961 0.22292377148922213 0.16161349068175956 -0.5452483349567286 0.664223886176586
55302100000.0 -0.7412909157617664 -0.28021103974816475 -0.14025408030889436 0.4343568095271686 0.0019442628461563498 -0.005043764330698558 0.0006179376312290963 -0.002336476708933185
 -0.11581798521176614 0.4538954100270818 -0.6769247538145514 -0.25717474306392446 -0.0011758861030081677 0.004336414173999606 -0.005549677724212106 0.0006629968272807323
 -0.009098736932580332 0.004699889199613797 0.004814873588804536 0.0018117296016940598 -0.4597256792106199 0.6619564305608275 0.16827021978942844 0.18848740809875694
 0.005405104777659342 -0.006995434593864082 0.016012931743249307 0.01253197114762707 0.1818892499796676 0.1477328003791451 -0.5646781517928643 0.5906500874905058
55372090000.0 -0.7994637531872597 -0.23477349979685852 -0.1123013442422257 0.44539234473727984 0.004010584836147964 -0.000530662976666262 -0.0010343166130488996 0.004070517108286228
 -0.10436633511680682 0.4819152276781852 -0.7002609401836564 -0.2522350932619529 -6.047927622366019e-05 0.001426831565666827 -0.002791237038635967 -0.0021758229089018726
 0.009925830964245522 -0.004487940606184729 -0.0051543317950252295 0.0033302134635705177 -0.4206839421096796 0.7215670165360242 0.19427545880504948 0.17630180992420982
 0.00787569715854253 -0.0072585459955505135 -7.826519906394172e-05 0.000984473224341456 0.18401148980681623 0.1981853206258069 -0.5031123483344534 0.6337784663300773
55442080000.0 -0.7123828097934134 -0.2892150748629903 -0.11758884682131687 0.45740822466324016 -0.00019859180843535872 -0.006091058815101506 -1.1750037274879912e-06 -0.008731874719955027
 -0.13845421326098753 0.45048324829811376 -0.7353560646338894 -0.24981442422242334 0.002180171011137485 0.007096234805504119 0.002893077626340842 0.0011819698167549444
 0.006065382997050913 0.013954580685759945 0.0063486744124291485 -0.002953681154318533 -0.5324879897960768 0.6402881318266694 0.20484243078907904 0.24047254699251758
 -0.01814140033753038 -0.0016055458139074942 0.013046109846573641 -0.006165589261363568 0.20246730953732606 0.16803185422229608 -0.48991963352198487 0.6780324000900634
55512070000.0 -0.7132353766436685 -0.26665926715622573 -0.1346142924245164 0.4473988205794784 0.004839474177465822 -0.006544448997932188 -0.0027482585728610875 -0.002641975056522543
 -0.14461556765300715 0.43561108688180955 -0.727795428709662 -0.2391180668706447 0.001100817417112614 0.0010948694503477448 0.006527452145791503 -0.0024165272490967887
 -0.006925863796561276 -0.001981904751736182 -0.005708266401060804 0.001983439527858014 -0.39056895268695196 0.6237417962899613 0.22912709998952369 0.19829503900258377
 0.0053409737480611605 0.004553218440733713 0.039624363811201456 0.001477480947218358 0.18987070605300035 0.15825169453544574 -0.46733639666424887 0.641425919334214
55582060000.0 -0.6937799856779521 -0.25608790190359326 -0.13275765961054178 0.4577419971430504 -2.25021765533049e-05 0.0033261785759712992 0.0019832321579572555 0.0027112768280197494
 -0.1258782207121075 0.4609866742403601 -0.7445073093225467 -0.28585219861644706 -0.0035713485365827225 0.0013006340385632587 0.005740824388432435 -0.004651336871656697
 3.1013793106697595e-05 -0.0014646864474898006 -0.022951979956280295 0.007797357640477234 -0.45099795810071436 0.5894095281876552 0.22753402014194185 0.19172581097221794
 0.0016918215878201166 -0.016138630907749935 0.0016077676449360347 -0.008539206464014602 0.17664487943953555 0.19784427853978512 -0.5222063936259614 0.7005374856033497
55652050000.0 -0.7362235567201701 -0.2561251777290839 -0.13885337355055244 0.46421734281067684 -0.001941947694351106 0.000984976175099866 0.004802088580668523 -0.0031201765022904776
 -0.13347036970470763 0.46078854120290735 -0.7098316554843207 -0.2658824563136285 0.0002696646717148163 0.0033088033180404507 0.0002617857386622306 -0.0016206616315327963
 0.006761885382496475 -0.0068430900504321945 -0.012253248887538256 -0.02428384304175853 -0.4295237692028851 0.6672958321513647 0.23314407182418287 0.21728259172344927
 0.0026729620384370466 0.00587312309662112 -0.0018861883351397766 -0.00031152255342138826 0.18737633656195862 0.1964322112847142 -0.4810820885011014 0.6733553343364652
55722040000.0 -0.7429921706137598 -0.2660501942168821 -0.13532757809764542 0.4715705712962394 0.0048485161209991705 0.005266879409284655 0.00023584066298760787 -0.005439195098837947
 -0.12212260127134288 0.471300128868777 -0.7063465032373598 -0.28416859800500566 -0.0013684328971199828 0.0011249316986701866 -0.0003907123803161071 -0.003037384730774586
 -0.006232306543281086 -0.007668906177025265 0.002361776088408665 -0.008980896606580656 -0.4143516343245944 0.6596044061361523 0.20576496787254997 0.17134931339600123
 -0.005142995239848097 -0.019661661525927798 -0.010779244509914753 -0.005172670356775701 0.23998439120037338 0.19683839339354997 -0.4943355748335608 0.6398678063247868
55792030000.0 -0.7430637061853497 -0.23421579762885747 -0.1385611212602702 0.5057415142832953 0.0005396277669021976 0.0010896739282352408 0.00333571351286372 0.00653644854305453
 -0.1059787012348886 0.444924360354387 -0.7727624154859137 -0.2657455501321083 0.0016319330047463063 0.0003725331119501212 0.004409926513969393 -0.0012450366726360503
 0.005715474974754976 -0.003740743170223752 -0.023669072159829288 0.013776558524814991 -0.46305551073285 0.6679994739937987 0.17066409514719524 0.1644485445304675
 -0.007765997572432415 -0.0011187514558902768 -0.007042292758203326 -0.004551227139316874 0.2040768280093979 0.15034859476880333 -0.4529673270470218 0.7481501153566587
55862020000.0 -0.7246004595836999 -0.23340009339626494 -0.11221996363233445 0.5024922719756334 0.007714856241464478 -0.00168722307660593 -0.0030458422321964426 0.00044030724218292657
 -0.11171590469827364 0.46525153208946607 -0.7757133534166385 -0.2572292382558488 -0.006385881017324363 -0.0016582687895287124 -1.1339224432792386e-05 -0.001902603481531574
 0.0061766121384420865 0.003387726149619549 -0.025165267925302846 -0.0325355167830265 -0.40531311522147984 0.665863509851445 0.21671296609146634 0.1716931540848414
 0.005241927364312345 -0.007512436045905106 0.009403160814754397 0.00311252205874356 0.19644161415729336 0.19204013899512568 -0.5198285255280616 0.6332708863667231
55932010000.0 -0.7189614218604519 -0.251465425938513 -0.12015226394186056 0.4743844949927548 0.0019473755010374668 0.0010394330658293441 0.000135644871748181 0.0035863823518515396
 -0.11045356824621207 0.45052131406783685 -0.7840201066496431 -0.23029920394463355 0.00566619367431084 0.0006197147790971895 -0.007300932006063379 0.005896939552415582
 0.003710812742398886 -0.0012403719319154056 -0.01449221703070363 -0.005463322309497784 -0.39223447423662966 0.665337529047084 0.18793793628365624 0.18018614792533083
 -0.01078604432092689 0.00304813776495169 -0.00925831427953709 0.016363015543537873 0.21216414255184682 0.16933621912109406 -0.4787401113897608 0.6722205680678416
56002000000.0 -0.71653873870434 -0.2145385109743799 -0.11987247710944503 0.44177687445008695 0.0012351377708751097 0.0002066613043783253 0.0028006884940642344 -0.0009977512652971081
 -0.1163085194738356 0.4542983576197231 -0.7382953163413628 -0.2413791404027413 -0.005546729271199021 -0.00022610563566764766 0.0044435970762510615 0.008974351680309323
 -0.004575579161793689 0.0013912751430069192 -0.006217302359858782 -0.005143344989380593 -0.3878638941047462 0.6353781764056229 0.20244150256172236 0.1945462670696974
 0.0031748038629975522 -0.0011494240236844069 -0.0033940847128463764 -0.02608509609816551 0.20883952882460505 0.14312174169665096 -0.401504116995387 0.6627793395567645
56071990000.0 -0.7175610121138047 -0.23678832987383147 -0.12044241913823095 0.4519669438866745 -0.0010983105622677611 -0.0023579772611091103 0.002705920314641483 0.003772585098168166
 -0.1374977468738755 0.4628079700221703 -0.719825985503709 -0.22886227728618802 -0.0009030408757185909 0.00026879634686695814 -0.004063864409749946 -0.0017687983429994782
 -0.0002707241437758384 0.017575410749152195 -0.014276997843436917 -0.008476083624381483 -0.41318166680196444 0.6919402257505497 0.19559973243234396 0.17487946495322249
 0.012621868539358646 -0.0040273947742870105 0.0014622922436279286 -0.015833033369620438 0.1847157855219416 0.2028527213485273 -0.5085788146993879 0.6570921030808375
56141980000.0 -0.6972032892062313 -0.2550242748630064 -0.14638544439940243 0.4669108976121574 0.002494024664042188 0.0006997702743524119 0.002015374949897872 -0.0005139059328215527
 -0.1230019304103465 0.44956075864807227 -0.7814859027794583 -0.2496474522380643 -0.0016508645219116959 0.001993702568676152 -0.004839013828284626 -0.00019173254703818205
 0.005951227117378617 -0.0003671660193298413 -0.0018297641242066359 -0.0065159664582306745 -0.338255295024198 0.6824902502540977 0.2039205533228839 0.13630097429892243
 0.00015190227345146832 0.004931199184938118 -0.00813713453124791 -0.017539894556564798 0.20053955903813947 0.20998447481583182 -0.46687421558566217 0.6743852732471969
56211970000.0 -0.7619903047358894 -0.24114682309703495 -0.07386255010052595 0.4563267769235211 0.007747748865444827 0.0018475347345532328 0.002978330403817175 -0.00594513126356591
 -0.0924049298033292 0.4781842640110444 -0.7655761418106624 -0.1895857309670745 0.0006789447380265735 -0.0015124852478204589 0.001073878402092106 -0.0031183220216475767
 0.0002409874844624479 -0.004508826913814206 -0.007244218094373376 0.006037283093653345 -0.3489794420119239 0.6446895815020786 0.23787511659727714 0.20672454532099005
 -0.014777774595075734 -0.001754348090608317 0.005927697087945014 -0.0012910901735270954 0.2324989615730373 0.18282693548857734 -0.42473046668785774 0.6850521519441878
56281960000.0 -0.7179212387385022 -0.22200858236833712 -0.1139759470684189 0.4803655390750467 0.00043642347601229807 0.001669111297037165 0.008253264268836921 0.003196099026957987
 -0.0994783496436375 0.451529024355068 -0.7381979017866132 -0.24865768458456475 -0.0006245181795359401 0.003223137890713266 0.00022723263499100892 -0.009173938330149865
 0.00046472418907832767 0.011793809295156396 -0.016406178405423584 0.01262355952448592 -0.38697211490634875 0.724725236982336 0.18762297345901377 0.1281372896606275
 -0.006995126483753029 -0.0007723803721408153 -0.031122984138401477 0.0163120866690791 0.24136182714502577 0.14942786612062314 -0.49549637744999714 0.7272808740358774
56351950000.0 -0.7410927806334764 -0.21180101177266838 -0.11448715328574374 0.46858232366529023 -0.002671428272389119 -0.002577885747367246 0.0004661566930081045 -0.0065679812514695705
 -0.12104169165774857 0.46079365744927064 -0.7482249549293082 -0.23629781640691033 0.0004819728582928157 -0.003909872731614039 -0.004282236581325331 -0.005511404165817411
 -0.007441920858154818 0.016572560906569733 -0.024283552911846692 -0.011682761298781215 -0.3526351296131914 0.6467194946437347 0.20900967048990612 0.1789852616016762
 0.01018689690239085 -0.004083669150482517 0.00020243348038128617 -0.011553494078357497 0.20909839622279205 0.15318181150403598 -0.44650063175933885 0.6747423797582351
56421940000.0 -0.700916293537866 -0.20431306886094097 -0.13847617481027671 0.4499757311404722 0.001886463650807043 -0.0013304736615187942 0.0007826335709559526 0.0013392857168393103
 -0.11239062262910862 0.42584786341183617 -0.6981262089647268 -0.22976582184623695 2.9111776883011613e-05 -0.002287227292821293 -0.0021596120731411346 0.002037885525942294
 -0.007136230158347843 -0.0006459944584048424 0.0040306089221596895 -0.0058171198083403625 -0.35860292982542324 0.6635017730583189 0.2185169207734646 0.20821182523389076
 0.0014314316709294593 0.00630081616306125 -0.005789508170751041 0.017425224668104602 0.19650310060361523 0.1786643089434904 -0.4955531743897666 0.613376514511508
56491930000.0 -0.7256221582715201 -0.2198703094464739 -0.11730351961896825 0.47393413430220765 -0.003585522839431504 0.0014148044891893303 -0.0015674890846353656 -0.0029200620507666775
 -0.1147145720092891 0.4712965652205558 -0.7508657508259932 -0.22243509986058077 0.007864315705239863 -0.004356050102902394 0.0012316795375784176 -0.0028998678582284796
 -0.002607715862838124 0.009380736450881774 0.019886468724476757 -0.002806831800749367 -0.3927376183674013 0.6277067968066219 0.18713158932371585 0.10951619869778818
 0.004155107667916904 -0.0025097210405145972 -0.027764559656102673 0.00794248340230185 0.24656003095035836 0.14630695528845303 -0.49725139679710684 0.6750768146959432
56561920000.0 -0.7334615478439246 -0.26690018420689804 -0.12579667165327615 0.4945874084622088 0.0011579889226666668 -0.007892157037152427 -0.0025236765305357177 -0.0002781171604304773
 -0.08257917199736252 0.4766973427782181 -0.7709741338461209 -0.24375309428374087 -0.0003255567829510796 0.0015317556998839577 0.006862533769374572 1.0469963799628962e-05
 -0.00016287072353032565 -0.0014043037647025309 0.022700445320538738 -0.002582158602830418 -0.3989380006777518 0.6816732288656382 0.24669484477162126 0.20060052289958524
 -0.003171141319677305 -0.001671988514262003 0.0059353753151419756 -0.03165904227393005 0.19410229414923888 0.13624501846036866 -0.4437076405473468 0.6741231406055993
56631910000.0 -0.7874422760166967 -0.20994608052145597 -0.08900730594904792 0.4873335583626512 -0.0003940893779670469 0.0022267867124887183 -0.004971452994916293 -0.0006404916673506043
 -0.07718332288433827 0.45256922171193686 -0.7566226270335231 -0.1787813225089196 0.0022832638603029446 -0.004031500530860521 0.0033322826260875444 0.0061043507801053195
 0.00042692970817343254 0.005216604654161097 0.004178628229547773 -0.03579144093474673 -0.427988977177583 0.6438045880413841 0.19504586418606026 0.12264188752308426
 -0.010338919160470198 0.0010605271305466693 0.012844281021727641 -0.0011810257206172543 0.17962829789205967 0.1332590419888582 -0.3812345376162358 0.722119169831438
56701900000.0 -0.7151982699810323 -0.22755038136815023 -0.11127543143657065 0.4704311311995465 -0.005197935415562228 0.00041610679841801407 0.0018431355381240567 -0.0032809555166353897
 -0.12065303550115261 0.4430560009258225 -0.7366418085958173 -0.19747628404822398 0.0002762856768986528 -0.0006848491348615271 -0.0003481645844373674 0.0002201141220597234
 0.0033689024451013763 0.010517600864034773 -0.006063908031065511 -0.012134672611501224 -0.4181647515079725 0.6702260181174008 0.21142031651990922 0.1932796087748392
 0.00406076687127113 -0.004060401179177185 -0.004181995167295503 0.014497313736651928 0.25400987183477 0.12636556940227536 -0.3624099795604341 0.6694447581776745
56771890000.0 -0.7542594471933953 -0.2213856730312319 -0.0695963889510995 0.4662581207350056 -0.0038579549778061267 -0.005522973654119314 0.0009233165403605565 -0.00039786053561856034
 -0.07438163874724943 0.47846758106239007 -0.847273702751722 -0.20514144709529608 -0.006458922415005343 0.0038707162263324443 0.0025397269752615455 -0.0011696576146616676
 -0.0005904519595464437 -0.007349715659980942 0.018806883327861314 -0.0015188414144371868 -0.334205962819615 0.7008379087384023 0.17460974311112568 0.15098002841041597
 -0.002423975512822502 0.005629003111231104 -0.0026732961231216235 0.006469583427896877 0.2036015826376603 0.07260859262744765 -0.4595806189654766 0.7054823039414252
56841880000.0 -0.7255468702796791 -0.1956127082417864 -0.10138595769887027 0.45406978028089423 0.0023666270967814627 -0.004192279874611254 -0.0020810028975949456 -0.001336559763985672
 -0.08608046797676408 0.4303372123324086 -0.7098402104108766 -0.20180019357524787 0.0005473374139256516 0.0011755173101524537 -0.0015828379238587607 -0.005965667394529675
 -0.00609503372383673 0.003475615397068506 0.009899507618600365 0.014792616647807033 -0.40127239904304823 0.6396383750535098 0.23423474674960754 0.17978024359392455
 -0.001502162604470612 0.006829499223222486 0.008138176024702345 -0.017303283158358152 0.11526578717012305 0.11060977737324955 -0.4473901100907774 0.6405917090978873
56911870000.0 -0.7647280667067019 -0.19321626267471667 -0.11591552322145761 0.46604819552034216 0.0014092512809029628 -0.0008612606131845576 0.0007091685978238289 -0.0035850702918153346
 -0.09775468174507475 0.4754610758253028 -0.7203122930069861 -0.21057810416548775 -0.001696781099081361 -0.0077814883067470406 -0.0004917466688490533 0.005482613278782553
 0.013386106905893097 -0.0021967646702853267 0.019631918781337646 -0.013318549555615466 -0.3510558804796896 0.6470788135397174 0.1939375942576904 0.18259809737937324
 0.008540988837607032 -0.0007979966777309479 0.012535599044956465 0.02389267245477535 0.2132877243012931 0.13928879628919805 -0.4704476914727702 0.6743007239990368
56981860000.0 -0.7238883599897511 -0.21022954848470954 -0.11129607241279162 0.48807710699287715 0.00017774173812062924 -0.001003593961721228 0.0008740237982965077 0.0019419966176443917
 -0.12101589785172187 0.48939812848734693 -0.7758697053141123 -0.23291377320899764 -0.005670603821067337 0.00032831545418572546 0.0033835380349144617 -0.007139789294009751
 -0.007698552416577855 0.002865788781634004 0.010842858916410904 -0.01838680704592471 -0.3606080474389213 0.7332399403460923 0.2100362722277788 0.1439350508925804
 -0.019876208223390573 0.010337553531765038 0.0014845925388478674 -0.007285055584300892 0.2594975732361431 0.16917337522259623 -0.4439556034356561 0.6834358068781622
57051850000.0 -0.7457043803106604 -0.21622945157601156 -0.1289745848329589 0.4685075516698083 -0.00011527702049915671 -0.001886475484810738 -0.0004191073877028422 -0.0013212498920593604
 -0.07010957146913016 0.470286966186141 -0.7598792005150801 -0.25951450331155496 -0.0020912468574665415 0.002234716033997946 -0.0031154954970131305 0.0010556886791186488
 -0.008664776720153386 -0.009557392176200472 0.008347278414717909 -0.008642277969401127 -0.3318801399419525 0.716923102272456 0.1885455305672472 0.10320064314264761
 0.004935388275598436 -0.005132349695466584 0.002210742242180727 -0.0007271847267280395 0.24172052184782686 0.16913309022261555 -0.4585438213602366 0.776010436585809
57121840000.0 -0.7245062887688191 -0.16473677275971343 -0.1254679041871997 0.4782858129895478 -0.00013399685069455828 0.004196794926624417 -0.00031260317009614615 -0.00019885117101192936
 -0.07930264484981187 0.4529673312526757 -0.7437037301793753 -0.17410413868604702 -0.002720689214138192 -0.0002749567370954351 0.004419363387321655 0.003769553279851313
 0.0014230406741925776 -0.00879854325527806 -0.018209180951346132 -0.009644072852849083 -0.3074625390116955 0.6700172031272237 0.24298535545468555 0.08708442233680745
 0.0013575906907375788 0.0016045479339460444 0.012081934033189341 0.014166857628435144 0.22260742066812184 0.16519775008243442 -0.40105655242466876 0.6617277498398199
57191830000.0 -0.7524873444322763 -0.22314692922818813 -0.07311314054735508 0.4727241860816177 -0.000350341859794134 0.0016532651180216867 0.003047529027508152 -0.002514136246145615
 -0.08208039572584952 0.475290261262387 -0.7245544924742574 -0.19249523024611354 -0.002746012636294173 0.002575919052042196 -0.004982747792510946 0.0034241251512115304
 -0.005069982758188498 -0.004473393705874442 0.004903902481900699 0.00852651884030905 -0.3828653137546312 0.7575469272732375 0.19575031193252754 0.19779174824434045
 0.005341614869630613 -0.008748195545173724 0.0015458105829276106 0.005382998823661578 0.19503767662286145 0.1731596912854688 -0.45584282689577904 0.627275677776671
57261820000.0 -0.7566718115201894 -0.213282343451465 -0.09657833504144754 0.47350466658069723 -0.0013102089374055935 -0.0011514883809111676 -0.008182772103208065 0.002846244354239539
 -0.08319621791731097 0.4535769703505165 -0.7278179810246502 -0.201595575147865 -0.005347189593455806 -0.0006214527113899552 0.004105014102898937 -0.008246594068310254
 -0.0004868115083466482 -0.007400214896940341 0.010264515061470771 0.01896400160369474 -0.36880432627180804 0.648696228879287 0.1611727493969515 0.15714416757589825
 0.003090020370709591 -0.003680623398214731 -0.0010649131330604197 -0.00159385750382544 0.1664036397113581 0.1344926386234667 -0.46322947241385426 0.7431622542045331
57331810000.0 -0.772080011891267 -0.2025513993517123 -0.12357564981970055 0.49026918486695287 -0.00645880334300195 -0.0002011142501830933 -0.0024663951372096613 -0.0017888647689568308
 -0.12399643377720723 0.48115231605059455 -0.7377837317979546 -0.2577164061111125 0.0028384009500605177 -0.0003498851633927811 0.00443501205163346 -0.0065699084952198505
 0.007428223474180199 0.008222878892869216 -0.00762021355449356 0.006892061885299275 -0.34594312377194 0.6756540713582101 0.16506185232540865 0.1634444714567574
 0.013585153607258212 -0.013457678559881694 0.029244814243557942 -0.01298703723292398 0.16617584614101918 0.17015263087438723 -0.3760435476188022 0.7573024878026904
57401800000.0 -0.7727059252266387 -0.1603024241650761 -0.10614366971388392 0.4640504911057931 -0.005766797997298582 -0.0002634623277771258 -0.0012744373128084538 -0.0030708348862006924
 -0.07612882703962305 0.5207719279308916 -0.8011968123708881 -0.18811966497329127 0.006538630603430043 -0.005212603317536338 -0.005866865107000355 0.003686001901724872
 0.0034371831095974924 0.0032585399145290254 0.0015183572358947756 -0.002545016369720219 -0.26735930698726246 0.6868744261044913 0.18763235436034506 0.1181385516760444
 0.00460310890949418 -0.0006173997849874694 0.008888256267514659 -0.0033432927914191376 0.20605977303246564 0.16214157993143674 -0.4002736922381755 0.7271388892125382
57471790000.0 -0.7251460889504017 -0.18735865529160864 -0.0698597871306092 0.46912008229375046 0.0001391860975489533 0.0029902192309867286 0.0024578760908120405 -0.004596791749193607
 -0.07265949245923492 0.48258077629427987 -0.7393228570048214 -0.17278322990102357 -0.006271384471540498 0.0010324640637310732 -0.0036978013854476023 0.0036603526195599233
 0.01659894900465229 0.00838885280561619 0.013137387868891967 0.008090771442207224 -0.35763404854920333 0.6579349381053798 0.22403518842774872 0.16605450333870692
 -0.005265626662064386 -0.009130708362676177 -0.024069072512707537 0.025376368921113737 0.19779827632413627 0.12231155032790972 -0.33655049207691023 0.6904221954516111
57541780000.0 -0.6946716323604565 -0.1393273693182181 -0.09397559919650998 0.4226709938238509 -0.003605782474252651 -0.001024413122662733 0.00310135999911557 0.004027020656473218
 -0.12396857546715105 0.4706854539497906 -0.7688686436252959 -0.1743200296417315 -0.0027348546633555364 -0.003775153578603471 0.0032860676798697245 0.0076627851002278174
 0.00429438908524135 0.004079635510251182 -0.021789153349307335 0.004603730714465583 -0.39132957413417296 0.7076365696253181 0.21936947315181907 0.14188215453738628
 0.004080836456203121 0.005399571446302137 -0.02134055442329219 -0.007435033835111833 0.19227456248104746 0.10503549809788394 -0.4211061995193647 0.5723344270312553
57611770000.0 -0.7115912832826516 -0.19136399757069222 -0.05855436274647934 0.5075500788412267 0.001675099169474838 -0.005096383911380574 -0.0024799493344571564 5.8716082018460835e-05
 -0.047788116112558024 0.4697647130591519 -0.7243037929065492 -0.1883700534146777 0.00550053798937794 -0.007785900630391232 -0.006268525376150201 -0.0002166014227526018
 -0.00901640817285337 0.009687948339650173 -0.003595999088193777 0.009152061204923356 -0.3978317793367862 0.6879829480354939 0.14456831440626433 0.1621610276881279
 0.0067960033460500386 0.012943825673888012 -0.02575573797233308 0.00021761898631188605 0.15447279317062804 0.12064752068946877 -0.43154472524844584 0.7261486483230627
57681760000.0 -0.8146962078356179 -0.18331137507660253 -0.023882562582047195 0.501640878510104 0.002445306337348576 -0.0005696898509179142 -0.009932814319632074 0.0013315494711314824
 -0.0209013265552862 0.5113697480832254 -0.7717124396018523 -0.1300183788206462 0.00796146321977721 -0.004472642662684239 0.003745744028033135 0.004979878305722374
 -0.0016667353252113257 -0.0007684883840790806 0.0020589178659461303 0.010037015827506943 -0.34673336948472366 0.6301454293502641 0.2752114484432355 0.20413916393133089
 0.00013081527315923186 -0.02188662227338982 -0.032382668378346226 -0.010203940621754717 0.19322700448278893 0.15804096742406687 -0.2801242844918241 0.8184510883034071
57751750000.0 -0.7517817137481846 -0.2249905152153266 -0.07527027255214606 0.5245904760912911 -0.0010409975381553787 0.0013129035572369465 -0.0019995021095575508 0.0024878658985519313
 -0.09120404899832174 0.5135427584890635 -0.79981042382349 -0.1996108645796374 -0.0024436190606423806 0.0032718905583647255 -0.0024976243803862637 0.0009965521506491517
 -0.01498423171674696 -0.0051402438122012195 -0.023418453776614057 0.0071607230971770216 -0.44973225390290816 0.7653315231048903 0.16902250750147207 0.08316887147248016
 -0.012512888906733025 -0.01700156098202404 0.021878332099880334 0.00818103515683016 0.1852692080185173 0.13762787804581533 -0.36694543209357405 0.6966663976709103
57821740000.0 -0.723147081198923 -0.18938496708250885 -0.042779492961282084 0.529902342766155 0.006085047947638305 0.002749599046629163 0.006477118703031168 0.005558462425742138
 -0.08942095918837106 0.48997094147875053 -0.9015030758377034 -0.14756701315017887 -0.004931083945163689 -0.002871538080246921 -0.0037708211621303965 0.007516781665532913
 0.010616585456618956 0.012448521796085897 0.02948072622996474 0.06226072559161877 -0.2801155719612851 0.7165076073407189 0.17143289751457919 0.21283351000619652
 -0.008526820943044456 -0.0002488399572889934 -0.03389476435513606 0.01173022481489658 0.1686672378583084 0.16509494228894145 -0.3621898766413145 0.831403843951363
57891730000.0 -0.7322437870655774 -0.14751990391026173 -0.09937869366429208 0.4349565741195354 0.00408544100207382 -0.003575678116376864 0.001085182311345594 0.005707931298955887
 -0.09691669336770165 0.4346063981644606 -0.6393563811978479 -0.22372029483566683 0.009407951288866963 0.0014712238426474956 -0.006929637936095359 0.007988150562608527
 0.012070855557763717 -0.00841563500477135 -0.01775836831089461 0.0007406945439835848 -0.2572034340114243 0.8192437105117297 0.23914590210126505 0.13719232716930732
 0.0047483466789264945 0.01342500703194889 0.029906852861799955 0.005362772484879375 0.2337164430511022 0.06380493079739354 -0.398828044247626 0.6857589015306353
57961720000.0 -0.774606136670457 -0.22191576694368065 -0.10534769980172745 0.5135643633178656 0.002749544711606823 0.0037307779709892827 0.0002252206876476472 -0.0026252712598398243
 -0.1015950665633877 0.5347295589240705 -0.7219240867101222 -0.22945443452499953 0.003068540870038473 -0.00610617393779328 -0.0012573598729477846 0.0019236668241826758
 0.00499233790723602 0.002333850143109156 0.01086333560130052 0.01338184636330851 -0.32753381042584856 0.7625060297825768 0.21503429244585295 0.11247843487197229
 -0.012660020313716658 0.010751681996807984 0.0012336471210793749 0.02903948890541596 0.1718490088066831 0.20234232782735384 -0.42435540167965463 0.7877346939947676
58031710000.0 -0.6832011704907398 -0.16954348371108824 -0.058987022851721777 0.49649749424314193 -0.004752516070585701 -0.001544231930130019 -0.0022231698167602446 0.006433783103675891
 -0.06735039143930807 0.49080148677229885 -0.7663336809876519 -0.05744202821916173 -0.0070121361066887745 -0.0009611790468489646 0.002649527052065108 0.004669801177078784
 -0.007461969087917455 0.006523148993622843 0.015988263980215398 0.006430009253407169 -0.298366589076804 0.650608808786174 0.22568221316324846 0.15678973460815776
 -0.006969402480496921 -0.004291697391872104 0.003525573634484876 0.026026302856840444 0.103554323928101 0.15717960757344612 -0.3380560495987139 0.713608720560919
58101700000.0 -0.7923634450678263 -0.15162873935088686 -0.07737926611599273 0.5422952354912771 0.011995810823184912 0.0023301220525312385 -0.0012390623762827508 -0.005808191901090389
 -0.055773889638680706 0.5074296266959308 -0.7967115435014798 -0.21611983690253297 -0.008295081797560121 0.0021542922918482916 -0.0011771093460251143 0.007483660652745966
 -0.004923329275921789 0.006299987454527991 0.0004999116558700716 0.0034118983830496935 -0.26126974613917997 0.6982403606001572 0.23638408034275862 0.07406405380247408
 0.02457636015952347 -0.019882801371481417 -0.02575301506713271 0.0002239340414802496 0.14183301417025893 0.18682396836972415 -0.3584239637033981 0.7665284461338479
58171690000.0 -0.7041669541712876 -0.08833148546872686 -0.09841765221011542 0.4620114365737526 0.0050499267211071485 0.0027370850588226874 -0.0004493532620176161 -0.0008720806187885957
 -0.05922647319690432 0.45649016254059643 -0.7366012085023823 -0.1829890704090405 0.004736463680600157 -0.005590572600088429 -0.004143744716570448 0.0011195269021688583
 0.0015473805116937426 -0.01859292279800378 0.0035281865913082138 -0.0069424791288858045 -0.2525618125391555 0.7829040458919332 0.14339501339343788 0.17539011746423552
 -0.011174210142197055 -0.00045241650303118737 0.013087173750178774 0.0015149978263738673 0.18891375748963085 0.11692453872346863 -0.34278447003191664 0.7476372261411789
58241680000.0 -0.6768927728128575 -0.15907041007029657 -0.10982733607607932 0.5047632357881554 0.0026015081599374073 0.004386968003935764 0.007687621004190649 -0.005950784868299487
 -0.07981455417524103 0.5189833830520052 -0.768580823635857 -0.21495895075938085 -0.002363876101500702 -0.0012437217201966715 0.005290951301548089 -0.0007168796057809699
 0.01568120902708405 0.0076845784893761595 -0.0029939727236576426 0.016915434018944502 -0.27373397804173594 0.7668702433769293 0.2431554185481268 0.06327502454698065
 -0.014637523134930499 -0.006031328623099499 -0.03542693110936511 -0.01480858246230709 0.24385815979868164 0.13839963138176023 -0.46848450076821607 0.7791746253592828
58311670000.0 -0.8049733678104621 -0.20555474704436189 -0.03982443376627287 0.5139899740713659 0.002316327446667594 0.005539091410657377 -0.006949440205256774 -0.0011385500188686522
 -0.03207915668969968 0.47558986439125883 -0.8168832493167869 -0.06837306158980055 0.009056735602478425 -0.0027136898038740854 0.0016459365392010753 0.003181875298014023
 0.01825999013639018 0.00753057994909296 -0.0029035629603417373 0.024492635399409615 -0.2630715815956529 0.6700846947221879 0.21186447144313755 0.12095692778097072
 -0.0016779783237812448 0.0017032721762879263 -0.022805883785500365 0.028591150815683173 0.20612814465958224 0.0827930764549699 -0.32805496243408455 0.7613290698753986
58381660000.0 -0.6722300301307651 -0.1314209115998061 -0.04941784320717827 0.5217296875469363 -0.005193773354107086 0.00010032404465120874 -0.004279979114841425 0.0009367630501138063
 -0.0766441344822032 0.4723495935826461 -0.7703447006198818 -0.11013015653530676 0.011298927712841167 0.005530771782304562 -0.007124427473452717 0.010706333842179516
 -0.00034543905192319205 -0.00522679648248797 -0.0459126149452055 0.01032100764958468 -0.25868864743743525 0.6683919624660226 0.16061758944734408 0.17634372014590569
 -0.0009751733658654374 -0.011374182004615695 0.03221399519794541 0.01693241808484266 0.15987905289455273 0.1551326624584738 -0.38765993744025234 0.8162996211607789
58451650000.0 -0.7635953983026772 -0.15920212127031874 -0.06231875895600806 0.48667957253631133 -0.009343216152480075 -0.006835120819286019 0.004048074702626263 0.0007358102057493134
 -0.07037775137509308 0.5255785211752216 -0.7138190953153883 -0.08856929036380494 -0.007686895039263453 0.0042399462939006856 -0.001979054924229669 -0.0038272819479068508
 0.007272409783634881 0.009028775178912318 0.007637485094442281 0.004859571267289573 -0.22150821626988537 0.6833632411126024 0.16396482992052855 0.14804358467363202
 0.008343817906931977 0.0012040221155160589 0.006930998182940139 -0.004133050338333339 0.1824191205003623 0.10571684838124053 -0.2752666210982172 0.6229583030757818
58521640000.0 -0.7755668139762127 -0.18461016596962837 -0.07390430762651334 0.5145524222158158 -0.007537250436322646 -0.005404423040821599 -0.0004628471394863218 -0.0009285956020063209
 -0.03343237839497264 0.501665723887633 -0.8203543022817593 -0.16491037213261434 0.004392188209844053 -0.004116054966896357 -0.0005711722409791776 0.0027020613487279623
 0.01329694387084928 -0.007176808166625588 -0.011390500155516601 -0.023974621281026443 -0.2792463173686326 0.6914750629748171 0.20846941502448935 0.11681220256478911
 0.016177990564907412 0.011040809526737215 0.013883578826078406 -0.03497245514928852 0.22573328633155793 0.2071764661956408 -0.39055273404256746 0.79423627523313
58591630000.0 -0.7955748851118953 -0.11278510805517242 -0.012779406039491977 0.5008910228192786 -0.003858913527498815 -0.006833150857765933 0.0083785167599005 0.0006313119493311569
 -0.07092197981529627 0.5102782906672624 -0.8272967628835607 0.009960539593639168 -0.00034523784556591083 -0.014485089478165016 0.009184528289412982 0.002426082563927589
 0.009127247158370027 0.007525324003062018 -0.007935862709653253 0.012665232249670956 -0.2816437655734582 0.6836745844015117 0.2329420100564763 0.18875749011960039
 0.007969296059539941 -0.020981129016220904 -0.013945434096403756 -0.006425156010402541 0.15883020816424126 0.1658347718037012 -0.2253816347856903 0.8465172565536183
58661620000.0 -0.7352178442969091 -0.20577179314638566 -0.05303312941326935 0.5073027097103335 -0.0008785781854065988 -0.0018434925353340921 0.004498460724975002 0.00376062202160734
 -0.06547127658478792 0.4784438248059192 -0.7099924377832664 -0.08883317187848541 0.0029650347822382547 -0.006823079281025199 0.01278309290783372 -0.002040109266531633
 0.0037643042538433855 -0.005769222065267335 -0.017992292066150304 0.017547094322752 -0.3018470534799339 0.7806480372837575 0.24452346096308528 0.08582723959828256
 -0.010373792099925581 -0.004173708301019078 0.003452865954302696 0.01121356904594452 0.20111071064420644 0.14595910702815557 -0.26341402895028665 0.7462249967963469
58731610000.0 -0.7291167012866129 -0.16143034937872816 -0.07951441051645881 0.5043956386144592 -0.004536419018205404 0.003733913726631676 -0.003957184792972728 -0.002934751914764039
 -0.05797838900469224 0.47436566323019086 -0.7143600169198536 -0.12466550324050119 -0.0011591895227628217 -0.002156038752576462 0.014514207715808821 -0.007487806297473246
 -0.0014643098241561609 -0.001000544328759817 -0.020182228732445424 -0.012437710647133346 -0.3267915229416086 0.6822804270624795 0.21365896953681177 0.06715062389809275
 -0.0057384212537719675 0.0073742469917104465 0.02265700900133864 0.009654196433135092 0.18613171869681558 0.14513994748794887 -0.3561442707988884 0.5595688645997743
58801600000.0 -0.7607923504137508 -0.18335522391170422 -0.04181938629786265 0.46837299695624907 -0.0027374549527863765 -0.0037847182640018003 0.0017193765707721434 -0.0005078682605503004
 -0.06396291872369979 0.49672485452271004 -0.7283040875282131 -0.11397644876439195 -0.002520140047454508 0.005879558838653243 -0.004746255314851594 -0.006884432287299738
 -0.004075102052528282 0.001586513952332717 0.020743926533051963 -0.031175351593465326 -0.28778603857534846 0.7974650149742117 0.19095119682164013 0.1549763553658109
 0.0027936026451882167 -0.020503034551810472 0.013684428261245883 -0.022326356321393733 0.17990652888700698 0.1333999377735332 -0.30450830640951926 0.7364237790496825
58871590000.0 -0.7038814455115078 -0.12005747281753887 -0.07882770611433733 0.48718829760017285 -0.0036736176214357086 0.0010043609560874427 0.0045900609356261555 -0.0004121859963715991
 -0.036824791378683545 0.47343219523903113 -0.7414947711212675 -0.18867114976617275 0.013991675143772643 -0.007447369795200621 0.0009248706762472543 0.003714847593344449
 0.013527118419288536 0.004264237892725576 -0.016832715628105437 -0.008102450147609928 -0.29983949364203333 0.7211197163803104 0.21985206282935685 0.060973265671507786
 -0.012288365479970796 0.0032561122494641254 -0.0011616682970116185 0.04884371692939066 0.22703480192697545 0.15347706541200168 -0.3852018870694739 0.7814869118855868
58941580000.0 -0.7628096552103513 -0.20201451738604184 -0.035193698571379016 0.5436880280172897 -0.006592696600185758 -0.0033206553637522953 0.006908056378248695 -0.005676851761698893
 -0.035230266055457524 0.49709319406160163 -0.7763628149903459 -0.16024998705696897 0.0017933829322270586 -0.008096997898281671 0.0036889375042464 -0.0021115724558040936
 0.0033274170188155147 -0.006730641609425579 -0.016342458467948785 0.0204106926914225 -0.32096290942857736 0.7544821533976029 0.25353841089683143 0.1291584666704754
 -0.008750962866317089 0.0022454490542378846 -0.04808441214822469 -0.034901915191805175 0.21914669321520355 0.11780273770072357 -0.3550582709929692 0.7800348880916367
59011570000.0 -0.7377831126891112 -0.13235733812466396 -0.046783688268310544 0.5042142962281277 -0.0039630219103833145 -0.0009585509000204329 6.229561490891514e-05 0.008526138991343694
 -0.06209536921209718 0.4847879228041727 -0.8031124290603301 -0.13540235813521592 -0.0017776513846747017 -0.0014489855021706448 -0.005849551645904957 -0.011968483347957325
 -0.045606529788758274 -0.005147673220934076 -0.0038080356989825073 0.00027395879498081315 -0.22263118644321292 0.7130677943186502 0.2703887625435048 0.1377464764227336
 -0.001243618459117415 -0.012265808471204048 0.011148682336254908 0.032008934456066576 0.17268505960518662 0.03846689122477716 -0.296735910272435 0.800643600595814
59081560000.0 -0.7808686439602142 -0.1113412543263059 -0.04437905891389457 0.5164434290328926 -0.007764925900040042 -0.007183706968768558 -0.003741430450614938 0.0033747631813595487
 -0.01946665893316068 0.5239497743180871 -0.7640151296085158 -0.14908110357453894 0.004637908810509884 0.002443800386550837 -0.0034812148128191053 -0.006581063222144197
 -0.007212817559495786 0.010986816003883995 0.0075446362453016474 -0.030011337289867636 -0.3511195536893794 0.7664662494007355 0.24988958087725688 0.06662471517923126
 0.007528403604482041 0.004130403142854667 -0.014603370551865573 -0.012173764123742152 0.1939886021898013 0.0970889460129451 -0.3588044351351767 0.7976982857317356
59151550000.0 -0.8175013272430001 -0.10032585069647346 -0.058118711078066966 0.49841999395685993 -0.0018248744952952612 0.009156639066327974 -0.006242515030221212 0.0011423375543498085
 -0.034515414585013296 0.4857875865281768 -0.7677450254355886 -0.22923516485101122 0.007974885452590043 0.0014850282951755869 0.005689314690166463 0.0060451009446295945
 0.015764099940777425 0.00983723674040022 -0.004565650392278783 -0.02412701288610213 -0.2317356105968014 0.7648140261193159 0.175602186725988 0.16415215269877656
 -0.0019241939100083272 5.5972638961903765e-05 0.014306599077651173 -0.0017277499772190299 0.11270263772139608 0.08289969575572378 -0.38392080394652045 0.7544665833753066
59221540000.0 -0.8196061170023369 -0.08733165374207126 -0.0888365177043912 0.49558851639994855 7.250327344916829e-05 0.002934438272197605 -0.0032092096016695013 -0.002078141533164433
 -0.06492947686496627 0.5328719606249661 -0.7157833261438484 -0.12492032661864585 0.006063621228508033 -0.0005936454321871255 -0.005899543653183905 0.009957646556432156
 -0.008138024382951496 -0.000959209393970987 0.004366537220719716 -0.04399403732834081 -0.19444701177649365 0.7493022241475312 0.14459205054979593 0.18120645505737804
 0.005895013669931963 -0.026592225774350407 -0.008266340432662448 0.0208358821767439 0.17296905668226395 0.13861781900220982 -0.28075950971365266 0.7251848578059684
59291530000.0 -0.750350686612916 -0.09121037447989666 -0.09466074699239183 0.49743641912377595 0.0018192234329858776 0.0013423129695528976 -0.0042186995401087566 0.0024774524903774507
 -0.04406665640735056 0.4824347919281407 -0.7438019710036919 -0.14819839303199192 0.0010020760885568213 0.0022699308699511175 0.010208965664089966 -0.009274469107338236
 -0.002311955416197489 -0.01269302910145566 -0.0006806761020242643 0.022815253939872594 -0.2288164159150469 0.7415085532364493 0.16944901926404873 0.11585474137387236
 -0.007478133525958176 -0.004147756785465023 -0.013240661221278028 0.007793712450792161 0.17233083342490363 0.1675129736873316 -0.36131696819168185 0.7279289220711773
59361520000.0 -0.8324591118561868 -0.08669740930897087 -0.024661509132755315 0.4997221366107733 0.0008015579525365909 0.004463735378368776 0.00575682249285163 -0.006025810654202188
 -0.06452033548009788 0.48190779970887054 -0.8136930249923456 -0.17179835190028725 -0.0038941885484684476 -0.0024953721749708863 0.0052293926358328935 -0.0003334757006108463
 -0.013170276870081965 0.008176423044057957 0.011705154976491695 0.0012483270986507838 -0.2394773311586958 0.7996949376358905 0.20500558119157297 -0.011584751978640262
 0.0015404642725177586 0.0053045139763591796 0.004727353641774084 -0.02509931455350725 0.1750201921860718 0.1197273175943731 -0.270864293241451 0.8401056815313956
59431510000.0 -0.7684877911291063 -0.0855125663770508 -0.03205758968499344 0.5232901082733069 0.00608195107988353 0.00867480751655026 -0.00550660950957688 -0.0007803631903405983
 -0.01148883537760753 0.5212904290017548 -0.8064481725525146 -0.06881798850231449 -0.0003771735586575311 0.0025373212825297834 -0.0015155395431688894 -0.009223986371362267
 -0.010014940733079201 -0.012301608080108526 0.0037716837645516933 0.02728441526050681 -0.2985171342548524 0.8113239637658584 0.17483343833268017 0.08805941174421908
 -0.006658193638913776 -0.021064137142585326 -0.01045387901987505 0.006159452055207065 0.08063948120462615 0.09988151763514817 -0.3274471081982495 0.8322013308448359
59501500000.0 -0.7981452264548984 -0.10089146230959975 -0.02930935858399855 0.47971491395585814 0.008210929909098873 0.007725787051755178 0.0026688906771284637 0.010090748276119695
 -0.021776060337316078 0.4985441258332985 -0.7580192822917493 -0.1517877905661805 0.0030669983634941623 -0.004095500047312642 -0.0016639058510032245 0.003218588116452947
 -0.010010567676762047 -0.0010652974319538405 0.00902476129808873 0.030687255796234842 -0.32239319553516066 0.7939547225692888 0.1936432301646334 0.0567902630390379
 0.006195097693954035 -0.00061563001091224 0.004870143140515885 -0.04383157923565559 0.17362847371647397 0.05308050305360442 -0.3050280954535082 0.7114472325177291
59571490000.0 -0.7477185458402812 -0.05546535834628456 -0.007660333027272331 0.43453136064666803 -0.0018815851627807048 0.0018357133125113255 0.0028838691490365768 -0.005064556870627101
 -0.04261717890797368 0.4718016215638678 -0.8117360946440624 -0.07602701244481755 -0.0056204662371965985 -0.009163831368822853 -0.0020647962602518507 0.004379896474147211
 -0.010462476736894866 -3.546196212450604e-05 -0.017527265194886673 0.02361460091269719 -0.3200384373452067 0.7064218761977824 0.2116418764025204 0.07912300306170107
 0.003797366739106972 0.006206400248269899 0.016222709391090964 0.018768737696362843 0.18379461415394052 0.046920304954614016 -0.22966309199680948 0.7618244021927086
59641480000.0 -0.7831323997512155 -0.09008658902311491 -0.04233894552861113 0.5100315686771513 0.0027057572263429618 0.004032635189773712 -0.002385507305889998 -0.007378451191210188
 -0.06910776931677814 0.45615633122675325 -0.8413924331593284 -0.09385241412912691 0.0007855282758929013 0.0021456030425584098 0.003697293979948267 -0.003228367721165157
 0.013944963811487467 0.003738902673148916 0.021804099883977954 0.006233342217514366 -0.186938969292975 0.6774536465109005 0.11626509305341294 0.0882387513160796
 -0.003380180320675156 -0.007003964975883145 -0.019468967597906336 -0.011150027999492872 0.17224661298513952 0.07845653560659431 -0.2422567472390674 0.8621504072179481
59711470000.0 -0.7617246861242855 -0.11259311072949721 -0.018637275492800687 0.5180712114041481 0.0037571880151803494 0.0011113892579419948 0.0003481685456508798 0.007292174410037693
 -0.05917856997116829 0.4841740365473444 -0.7119736218706242 -0.09474336037606958 -0.008759576535992934 -0.002012792851788078 0.008260611202755362 0.0028471596783318912
 -0.01812270796790984 -0.002503225167805389 -0.006991326749572143 -0.00442291059065355 -0.1924516070563848 0.677630592160087 0.11140288261816605 0.1194857435350529
 0.007994635221096098 -0.0052037908914591546 0.005019892902142658 -0.0016466111921891863 0.2257062140402829 0.07573169760135808 -0.20830771033081175 0.7994081798684043
59781460000.0 -0.7709202383784071 -0.11148825926993726 -0.033685059970677576 0.517328306358508 0.0012504591544528858 -0.005823146212327578 0.0030730294519727953 0.005949342186813216
 -0.06470200461059808 0.4999697861661023 -0.8106236320814869 -0.13168442753981385 0.002997053950208978 -0.006354117495565002 -0.0004198901898646413 -0.0010263432235888114
 -0.019217488618210394 -0.000926712974537919 0.03441556397709821 -0.02048208744191154 -0.21964003476554578 0.7755507396889108 0.15984583093456659 0.09008823591038922
 -0.010388095715257924 -0.00019120926567478698 0.02112044159303682 -0.009079800506195595 0.08101339222725916 0.10553827481226431 -0.19719793724295645 0.8225204740790136
59851450000.0 -0.7767712643015716 -0.14709823597260335 -0.06567768384261183 0.5583322644222202 -0.000697201906939703 -0.0027497647070738097 0.004801870287072358 -0.01130093017813256
 -0.022615597222019897 0.4950861836863628 -0.8666532017055695 -0.14729143160085473 -0.0013192144743011543 -0.0022780180536008054 -0.01615193134622603 0.0019741945424261195
 -0.011943503667037716 -0.0033970812360741348 0.025552386677128506 -0.019845890059192458 -0.2526606763362713 0.7112894922645883 0.24342520758600508 0.10071550892143503
 0.0019570821097355836 -0.0004990475037311855 0.02011122660182539 -0.01741855643325021 0.13572079314540803 0.10262502115483498 -0.36002325386304374 0.922783676634972
59921440000.0 -0.8199875461176567 -0.07687202717181078 -0.0752786920874462 0.49336853595567437 -0.0028552018986887037 -0.0030156203010050994 -0.006476848037769491 -0.00460241398515997
 -0.04594281890563467 0.49072258713351385 -0.7139499098637906 -0.11499408212946 -0.005207369071629394 -0.005262169675994176 0.0007652798664749944 -0.004419542489222741
 0.0019003760088644153 -0.0033741468382129185 -0.02317126089451541 0.007991218503967671 -0.2228698660686471 0.8294969754782986 0.19250056620562642 0.022270116719489995
 0.00938437645962829 0.011727553317515368 0.009852736276817079 0.013539846961997242 0.16739940610363724 0.09425471147286375 -0.2247778454931799 0.6554209962563778
59991430000.0 -0.7204488016329503 -0.046218118854273224 -0.02294414215779036 0.4843197219238735 -0.0003248406356143478 0.0024639169813799474 0.0035591639951866342 0.0009632963216752008
 -0.03819791755045079 0.4922367552041369 -0.7832101903554161 -0.1034203182756978 0.00037555428932359514 0.0053510811498677984 -0.0037446166357788593 -0.0034823441399286733
 -0.011007692688394575 -0.00805310928622002 0.006207671193580428 -0.0020059600424079775 -0.25908198445960695 0.7352157459240547 0.15035830393613156 0.09550003388002458
 0.00959968977035243 0.008730847553594153 0.03230776930175325 0.03859696978575072 0.15449636050243853 0.0958393306500661 -0.26075090951983054 0.7070052613055556
60061420000.0 -0.782494400713272 -0.061126067345008306 0.007890840400108328 0.544156965895684 -0.0007406739617017967 -0.0013299090196778364 -0.0028589285624702463 -0.002862413546285588
 -0.05930869651239872 0.5517145439837147 -0.7904785256227027 -0.029828280108237057 0.008606629952883582 -0.00608451322312801 0.003772334321606085 -0.011425861153058317
 0.003118081726897124 0.001026910140347755 -0.00859830476173599 -0.0037066092367283574 -0.24854710232034422 0.870777583431065 0.1988425247922033 0.07528858196960538
 -9.102529145476186e-05 -0.0077278267049695525 -0.014174421234396972 0.002796714350792747 0.10547034123733172 0.060207023582689125 -0.2449772737854086 0.8198571181629694
60131410000.0 -0.7502790350862064 -0.04580491172092362 -0.02484859559994683 0.5032062708761774 0.002165570887300883 -0.005552268826891983 0.0006971128621098268 0.003599346359707674
 -0.012978079514461623 0.49312963239949476 -0.7717581523347453 -0.09007770325103474 0.008975616165664257 -0.0021050613687674663 -0.0006162378773357728 0.0003019251633495828
 0.0057372162845648125 0.009519299772605625 -0.004423529553909406 0.014574089456882058 -0.24781146669495757 0.6951061084472577 0.25021607366764387 0.08417560677864738
 0.0017095185639791613 0.0013982205458488754 0.007510519652848694 -0.01972742728992239 0.21562628410278245 0.10182245416298429 -0.29349856504043287 0.7953873903523085
60201400000.0 -0.7410014923195875 -0.05443655239575348 -0.046039141002208864 0.4805725553495789 -0.005022281615654208 0.001051304382759127 0.0012132246395093781 -0.0021952526030576554
 -0.046072238901598755 0.5127462033498923 -0.7750452881257747 -0.077973269745915 -0.000917587999215514 -0.007191454715923288 0.0023269755386820055 0.007938463112486478
 -0.0162305637328944 0.019556266431044477 0.011998423082441336 -0.0012624602549554254 -0.3134560378041881 0.7507094792294843 0.15105578148687762 0.053392876006036025
 -0.009695365106854021 -0.005462879123274287 0.00636754894486751 -0.012695079752241777 0.19640505229006858 -0.052466493603174055 -0.3403072941086341 0.6694178798282713
60271390000.0 -0.7455571361192838 -0.10936178420519103 -0.04795618776415543 0.51015824518655 0.0034234485327093753 -0.0021962087098405417 0.004540110504973585 -0.006372400781239461
 -0.04749239627780329 0.5118136024623591 -0.7716515965739373 -0.12093262414157341 0.006352178690360385 -0.00515475812426847 0.005600315388173447 -0.0062695377494306126
 -0.023821896999865724 7.508840761211426e-05 0.06047609086656388 0.024452824714624215 -0.11489607236086712 0.7847427166596505 0.21255272540547604 0.06428697133574494
 -0.0037971233814187606 0.004317005592786406 0.048477917763342565 2.1415281816276665e-05 0.20685049457069787 0.16532953938660813 -0.14029545577962593 0.8413237974926092
60341380000.0 -0.7321315757280947 -0.08530882123596588 0.0014118786211912572 0.535725158225433 -0.0008777492991151397 -0.002650204681901171 -0.0029674379541222594 0.00214083729124681
 -0.012652167905100594 0.4751114691102453 -0.7180471804693731 -0.04902331234269756 -0.010219458115709412 0.006027387382397732 0.0002547030986772075 0.005244383106497192
 -0.024552810436504115 -0.0011389846901667577 -0.013068133808117876 -0.0167644114134477 -0.17786522924632928 0.665488278845904 0.26826410927534877 0.052650872525507535
 0.00755672830429204 0.003756824526599593 0.018288648250923908 -0.008476097133691766 0.08464656689990512 0.12280290048336774 -0.21717768137107984 0.7786877632345323
60411370000.0 -0.7980363480102326 -0.13058478279316627 -0.019226217811282947 0.4227006604279888 -0.00234412940885725 8.844626262175114e-05 0.004167776428693452 0.006990253366097909
 -0.08856546335623125 0.5065265003886795 -0.7623291122667413 -0.08784315549083785 -0.007421941489537159 -0.007125695943575729 -0.01731231273698079 0.003693016919842849
 -2.5557916563814825e-05 -0.009975187656328686 -0.053341584556487104 0.03284676992722339 -0.3414861887866546 0.9682460069850061 0.25345030991104833 0.012280135484889553
 0.0005736587215889884 -0.0046101009267518 0.02136353041095695 0.02022231442518658 0.23570131142216016 0.14020665855174264 -0.18622227775793845 0.8535914371240584
60481360000.0 -0.7879688037206566 -0.06454468962309164 0.006704873230874506 0.5013547876060825 0.0027297621488015333 0.0016406164168926822 0.006730339687435369 0.00039123231548646826
 0.015463928950256499 0.5152356821768528 -0.7146442696840714 -0.04387477646591562 0.006519171247749176 -0.002862106945124233 0.004504057483057486 -0.006713352022149038
 -0.013362414796815728 -0.0010332727286870467 -0.020849293615161264 0.009400721702772018 -0.10364318009628053 0.7403997548817636 0.11874763098884943 0.07109950794691071
 -0.0041548812686165145 -0.02043412453976576 0.020600325642884606 0.009109939291838554 0.09141683378940525 0.05110512955998094 -0.1960213004795796 0.749506626884167
60551350000.0 -0.7862937283056707 -0.05384816719503445 -0.002546949613481555 0.4936342891524039 0.00020932450226041147 0.0014580585606737489 0.007289573018170637 -0.0017173689938518749
 0.005048509155101011 0.49386728668624086 -0.7756546915644212 -0.02212935664171503 -0.0022308173327058867 -0.006438073010208095 0.0002050237772068861 -0.0031961585093879235
 0.00071728737134296 -0.005482421560750726 0.011571271028416267 -0.006787171223153326 -0.22997156659518825 0.6971366075533637 0.20789377871819514 0.06941155982855199
 0.00213532465430446 -0.002095295741648211 0.009650000210687681 0.014884925808185874 0.1772757236189475 0.06490457799684117 -0.24883786157718374 0.6837246739644185
60621340000.0 -0.8269034094503902 -0.00966567587471492 -0.056949017393447536 0.5134909224949554 0.00010715302518736555 -0.005336745307546789 0.001636778135258585 -3.906907677647069e-05
 0.026436500637690093 0.5933048509345239 -0.780275414935017 -0.05627990123782592 0.0009992518254089901 -0.003427732109557697 0.010737652478754238 0.0009339631207764376
 0.023593368455922747 -0.003833203760056003 -0.02448423557018552 0.0018965116750143337 -0.17442250223008882 0.7840099987594185 0.1434775631042191 0.04752640873281133
 -0.00900351278654785 -0.005336249883678928 -0.032591584367732435 0.0004313124281383708 0.10074243214212832 0.04381411287124025 -0.2558663497850293 0.6991120445892052
60691330000.0 -0.7746361081323626 -0.02473909923289307 0.0022533027495515827 0.45955826331915506 -0.002936186119026146 0.0011649850563244639 -0.009881283604454285 0.005466085408163932
 -0.000984219202730737 0.4702036527523432 -0.7620806635861074 -0.06667207849382886 -0.002362477397581075 0.0022646717767307754 0.007568271396725898 -0.009270403862113306
 -1.819825360526827e-05 -0.018529994506189227 -0.0021407554749989038 0.02198808313442722 -0.27177732322251363 0.7979388979265074 0.0751787714435543 0.05638363237013798
 0.02979237533435514 -0.005591148823225204 0.00839131021838497 -0.015301715654482037 0.1091515980801461 0.08970357432895502 -0.11685562525028384 0.7212722600857701
60761320000.0 -0.7470333506126422 -0.08115774963116945 0.03532123018461302 0.4916027513402836 0.007973506026339961 0.003158099911368443 0.003076555487133523 -0.0037454039721525312
 -0.01309483082750098 0.4927781759320936 -0.7963188946340142 -0.06917733473894336 2.8317062397198407e-05 0.0009923451568768947 -0.005746312089662945 -0.008214698506052316
 -0.02150154001670923 0.015077026277582334 -0.02763135779559395 -0.00351775005676783 -0.2629102669823402 0.7121059171423116 0.16584456789701835 0.05649482358082112
 0.007085799265353713 -0.01740081713593592 -0.028237872864361056 0.03134922935809479 0.21639049633157018 0.0728877818606395 -0.21670700900177337 0.8294401666926398
60831310000.0 -0.7336398522523542 -0.09871222444891355 -0.044157835192237975 0.5167681228217476 0.000964029614940331 -0.0006277627889218374 -0.004761001541017853 -0.003356265185149491
 0.0001168963711875437 0.4856902523655036 -0.7478127538199083 -0.05938735499958457 0.0007039825383341236 -0.007242710225792333 -0.005365497766005135 -0.003457124937317537
 0.0038854933547991014 -0.011601586348034872 -0.007148711691937269 -0.03310521958074055 -0.1945655551708361 0.7787499391331106 0.23105631138127866 0.04365148473575484
 0.009215606444467042 -0.014353432195427816 0.012654233468582774 0.003107667340879532 0.1594253337688076 0.15652491315802758 -0.25195471801825803 0.7177144173306538
60901300000.0 -0.7637336584846169 -0.07127832726004046 -0.051971458043241055 0.5289422844121422 -0.005075050349577593 -0.004481930968092673 0.002484481022237317 -0.004106662445517881
 -0.05210789995021851 0.5579209971743784 -0.7891489292750035 -0.02687923791438724 0.007566873607191966 -0.009145179901219458 -0.0010348216989320381 -0.012133926230629432
 0.003501644788303999 0.02731891369720925 0.012378478326892208 0.004209289234001625 -0.18051142582426338 0.7416351039123219 0.17077944206232132 0.08751268588661262
 0.006741104060910595 -0.01095349411561095 0.02465834521120098 0.0306722382072761 0.10888279615170485 0.16078548590063294 -0.12894524773867944 0.72664146128
60971290000.0 -0.7897933102576036 -0.06814104012467405 -0.06580387914811547 0.5032388617346211 0.005615441781204055 -0.002785316338274264 0.0028620082360118104 0.004923583624011835
 -0.003741645937951494 0.5136740529790874 -0.7059466850275418 -0.09045389337032778 -0.0016072637516483014 -0.0009389682817687525 0.006818596445828926 -0.0028716529144732906
 0.0028976573532480277 0.003812840203339787 0.02134484626556205 -0.037403446352277145 -0.1985554541245722 0.7372501634328827 0.20216693369238917 0.15812043037575216
 0.004135827740413044 0.00894451051484735 -0.02182955186845078 -0.05739577528293972 0.13958703620464621 -0.020913405421122886 -0.38562282255589125 0.6620213971646477
61041280000.0 -0.7360937079293921 -0.055608152668896335 -0.0031985131076047273 0.5140791547489361 0.0008394116272015469 0.00050098683585323 -0.004099055111801727 0.008406505396335662
 0.003311337680928922 0.5221498012409201 -0.8354976867283349 -0.03364030642520306 0.01017357343421133 -0.0020421092451087188 0.006967225414039426 0.009090139368913812
 -0.010133288441720649 -0.009179736089030933 -0.018569169554352033 -0.01983040103813636 -0.2192603875571883 0.7173967956291141 0.118178524539348 0.12664871961171525
 0.01122501072383066 0.0064460882657242004 -0.016475867065554022 -0.014636446240773468 0.18467410605611334 0.04951519932088418 -0.12862777291543775 0.8620630781566063
61111270000.0 -0.7518131952170958 -0.06836347076987136 0.005908959550002711 0.49469904422910016 -0.004793969995159021 -0.004476350344444266 0.006723723886142961 0.00670863305070707
 0.03963082522980519 0.47834010115634407 -0.7880636451191174 -0.037401241639904596 -0.001793460137252978 0.0014408043088082307 0.008516504057922925 0.0034801393300577677
 0.009614974137447663 0.018636866797511132 0.002735027185922675 -0.021131682519066462 -0.21169832453711052 0.8704150298299896 0.22506511832987375 0.04577148516402276
 -0.017921044207565 0.016729898206051433 -0.041770817231335404 0.005751973217954778 0.09304640971214657 0.0043696651158119425 -0.25581246292170995 0.879927546657925
61181260000.0 -0.7407569609186213 -0.02338534541970159 -0.006946209050861543 0.5025484856832907 0.002415908363561708 0.00427877673586324 -0.0014918488879618627 -0.002523533569561428
 0.03284344971526946 0.528409620323199 -0.7516900364184981 -0.09670845445512663 0.006632725456860081 0.015818880671167376 0.004063462946978756 0.004662691960298284
 -0.006382485142449718 -0.00850840154770258 -0.007965703169003753 -0.0008099272641223314 -0.16975084081802436 0.7723796249865202 0.08604143980799829 0.1053939073943563
 -0.003158464040963054 -0.00730665067645947 0.009017780047073652 -0.04223816497629987 0.25099673171508025 0.08367653490971384 -0.27659078731263037 0.8349350199317863
61251250000.0 -0.7609745270080208 -0.031219751845737775 0.02476308732753878 0.5175477156467734 0.007905458211117359 0.001464740524287786 -0.008062165060792813 0.007732202728939351
 0.022552293121350358 0.5010124976657991 -0.7922315126318058 -0.03281927895676889 -0.017295842410522927 -0.008048431585558133 -0.0031380090934252855 0.00805468261670583
 -0.008637591089571869 0.011144509227817885 -0.00904131360348457 0.0011747750974054165 -0.12989086399606267 0.7671921685114609 0.1677530962831373 0.1289938178257393
 -0.0075792064168363 0.006374759556308371 0.015639253375471788 0.019956114656117574 0.2017660317153283 0.04138417774767235 -0.225132307737006 0.8719973178280326
61321240000.0 -0.7461388331518484 -0.03682907066117403 -0.02547833057195895 0.514687928597412 0.001364012334662473 -0.0027284188526753073 -0.0025744788188943263 -0.006915840083231153
 -0.008854186869899564 0.496995882600089 -0.737225375943649 -0.025020494190007472 -0.011440195796798664 -0.004791849752764712 -0.0020332301095713754 -0.004988025906339527
 -0.015734026823516187 0.013998322694286974 0.016379130208168145 -0.014896537067239727 -0.1526491504820912 0.6484756116482869 0.16019320906360734 0.11520824804523556
 0.014451317315631656 0.0023849381007854365 0.04954073202156112 0.013675656707873324 0.21354799087614695 0.06758224206673434 -0.14980297890013047 0.8110133039581011
61391230000.0 -0.7355581521506455 -0.0751251591460028 -0.001863751280526103 0.4897925284141754 -0.0019159735259152138 -0.00027249577017649494 -0.0036305789464689485 -0.008065073751052625
 -0.002556402412726908 0.4683730319155324 -0.7528285587544782 0.016694949778090943 0.0033543183873304197 0.0011326023043444894 0.0025921023935604713 -0.0014794925991692101
 -0.006543580385106312 0.01972922932124943 0.03674404898378131 -0.014599728983290802 -0.20383412191507874 0.7558414529096426 0.21356844585897192 0.06365518053643818
 -0.004803297734856568 -0.009702273080444312 0.009187128314908179 0.0013078692951991894 0.17508638146631733 0.14823829801935834 -0.18186243117163903 0.8176064890126724
61461220000.0 -0.6689190733550889 -0.10362587269313212 -0.005689709397438049 0.47996269883818954 8.974225300396216e-06 -0.007528330754885502 -0.003251921647985793 0.0021377385638139544
 -0.020469354324208756 0.5355958018095255 -0.8114605715242836 -0.021172312272565788 -0.007314162116674361 0.0035712908410434926 -0.0019525198193950186 -0.0032066390399623818
 0.0011872386459887217 0.023656733167479033 -0.03489660845062206 -0.009321409715256017 -0.309644124825425 0.7567730648347483 0.14450402247311936 0.11605637642736104
 -0.012713360466739355 -0.012098902119790056 0.009735871383425809 -0.004309047643747653 0.19231687527814847 0.029588409847008904 -0.304587655904432 0.7837398496802297
61531210000.0 -0.7286330974877497 -0.05639531514343188 0.021703131551821 0.5038515238350229 0.00032440212254336104 -0.007046805701138491 -0.004338470054907829 -0.008051588249670432
 0.05204819028825153 0.45172022883077084 -0.8191040347315636 -0.04292168933314393 0.005968581088261725 -0.0046783456556060005 -0.001558602931437473 0.0065794014056723745
 -0.023153893857526583 0.005481114981028774 0.050804426969342675 -0.04897851368798724 -0.26020172379166967 0.6834690300699553 0.11185593374669803 -0.009907596352168977
 0.020459657184722858 -0.005817872752984759 0.034136814342507246 0.03413587299179248 0.18720858588082948 0.0320481903119464 -0.3143909791800105 0.9575998245611083
61601200000.0 -0.7873924847733413 -0.004936403490462926 0.03498867573081779 0.49108088476014555 -2.3891610725143155e-05 -0.00045437083906078255 0.0027909982121246167 -0.003145541372110795
 0.03796493559745522 0.5004140853420783 -0.7696419139968381 0.044270802578054255 0.0056987008754426265 -0.0032742108946112185 0.011630072487581791 0.0036805674782959545
 0.012057691056723186 -0.011892121576947554 -0.015393677435704375 -0.013679066190449164 -0.1472252579365353 0.7495270412832787 0.1324321334851138 -0.019399104398753038
 0.027032410926910267 0.010769981896511004 -0.008774472076088958 -0.06138833749986558 0.08945858037591076 0.03359553246266616 -0.14581800534155878 0.788553054743201
61671190000.0 -0.7252539605170435 0.0012936560773685107 -0.05152002111915585 0.4979692237701756 -0.0009165318966981005 0.00015823018029170437 -0.0010399585094044677 -0.003276043346280084
 0.0011770114256112506 0.5115114388886778 -0.7590408741119503 -0.0669161044637501 0.0029301834139302116 -0.009581966998139492 -0.0036161531092001307 -0.005014510221344121
 -0.017759108982426254 0.03092661591634003 -0.009771779813917726 -0.009880338573187963 -0.14772939814372604 0.7844771449081562 0.19873954206753505 0.05044937701853789
 -0.0016658904008824693 0.0019774817242747384 0.034914572961762085 -0.010689997010010686 0.14234177524027916 0.05285200595349939 -0.1325224290560234 0.7788563158034941
61741180000.0 -0.7338742605822884 -0.05477970202760351 0.030073227575835755 0.4933844829255755 -0.002852366135411103 -0.0026251829930015796 0.002177600772982061 0.0011748754075590216
 0.02163815884939905 0.45399956857044294 -0.8101604021716721 -0.08032926199687798 -0.008061110928107868 -0.008794138580342477 -0.0029607230569508557 -0.0007287522106583526
 -0.02739292433525514 -0.0193545304493913 -0.035246575487304886 0.004186117274415356 -0.22958354669758174 0.7829328176545215 0.24731650571442626 0.06494977171864474
 -0.005687841705512322 0.014876439885726645 0.0012989251605367111 -0.02516940433016253 0.24663530308988588 0.07903016888244217 -0.232338543223418 0.8463435141132316
61811170000.0 -0.7934387559457978 -0.03508350460465353 -0.008926961176855569 0.5350355119059824 0.00018001689755732506 -0.008324065074836335 -0.006111625002716856 -0.004427948828675981
 -0.026983357725402547 0.49772346578252297 -0.7739672278010696 0.009094190185572951 0.0027708801089090366 -0.009443333322249602 -0.004032954163229868 -0.010843939363676532
 -3.3009364366281673e-06 -0.00602515792728233 -0.003897025341310059 0.014563721186150987 -0.00828173681850784 0.8603073396387402 0.12045508543077585 0.05433092413618829
 0.015479515959462396 -0.0034846812110883485 -0.05082458252837818 -0.02865676563497746 0.24273016231911945 0.17533314064363284 -0.11669140396639352 0.7323530291565791
61881160000.0 -0.777711946357219 0.008206923790934892 0.022373783944912844 0.5580374108754373 -0.0077802247271012235 -0.008940854833264181 0.0072608998604035534 -0.007199542822454246
 0.060906801308030674 0.4933118670582656 -0.8114711239603288 -0.014070778100741194 -0.013614213151921975 -0.00242216802924347 -0.001408678572798338 0.0029114883368442515
 -0.01788603259324563 -0.002266762812559492 0.017502324164862096 0.013646015737650176 -0.16467236641416902 0.6804817050420628 0.15661637206370332 0.10281959121838703
 -0.004441446231366551 -0.014162623261746854 0.0019833254193499256 -0.016038005012475893 0.17014792785108535 0.16718814275681249 -0.1929288412495546 0.8730649055852676
61951150000.0 -0.7393871407720043 -0.029654201025434944 -0.00407124115815161 0.4951383550568467 0.0007469393670577173 0.0035428631898761446 -0.004628995418551534 0.002455997785316483
 -0.00241219932402793 0.5297147878028589 -0.7009548310128237 -0.001027654191824088 -0.011687318878752928 -0.007756600384637508 0.0065941717599492106 0.004360457134978138
 -0.001972039206233519 0.014126862060268416 -0.006963305546951033 0.030281688097722356 -0.13905702264045386 0.8015839364651203 0.09760246201782391 0.21744384299796518
 -0.012350320587935205 -0.0070098868847198155 0.032280703651792794 -0.03293975163177207 0.11389729803039118 0.07851264580183133 -0.09895894166051719 0.6847953604442749
62021140000.0 -0.8657340236979831 -0.025354117507027398 0.0013797407715938953 0.5088383708076251 -0.008509610422536902 0.002641734339357504 -0.008594343330114777 -0.006000560411723934
 0.05312605679849601 0.5216768415786079 -0.7827159574722222 -0.01240793267751959 -0.004279066934608817 -0.008277066494828442 0.004675154507098216 -0.004897726169581985
 0.0029331113671968085 0.010746523924083536 0.03499935698252988 -0.018447603309680365 -0.1368905577039205 0.7872946524115337 0.11354954303411854 0.12417531363563265
 -0.02285066985518427 -0.010607606457648477 -0.013262631655062326 -0.006617013508751141 0.1960870805760497 0.07616530305329654 -0.201341301902974 0.7171496661751944
62091130000.0 -0.7770159747890827 8.136892290129622e-05 0.026227269105491547 0.4415202414641977 0.003584178056478681 -0.008919143496512771 0.003072881334208919 0.00193098709792747
 -0.026844542691632816 0.48853759534605945 -0.7824497825953319 -0.022983373374079033 -0.0005841355617742667 0.0008573549682286073 0.012821945920313346 -0.002421999431803477
 -0.016970920147417617 -0.008731643195874675 0.0024065254904069864 -0.018580658511214064 -0.23194001195953703 0.8319601853223857 0.15792035192083867 0.10713651278214162
 0.01835220157862249 -0.011220203600827023 -0.023143938747312222 -0.061711748711870976 0.18908726116245636 0.07697700723617176 -0.0797738910192442 0.7692993656602689
62161120000.0 -0.7760611283621975 -0.1391418798451296 0.01832819801647836 0.5396904758281207 0.009888689662973805 0.001190895312524841 0.0031213748045012947 0.013873674079774231
 -0.0319076756212476 0.5053311512568612 -0.8422454513488022 -0.12653123729356414 0.004593953330171355 -0.008965511293793324 0.0026850883461629863 -0.01490099295146931
 0.013290926710912181 0.003279400269613862 0.08975176315944276 -0.061920148773958364 -0.11042901208058348 0.8894436402045736 0.20009222903777693 0.11222472138296222
 -0.019430460922998823 0.022582260574611147 0.04126100285441905 -0.05341915446426156 0.22803085027991976 0.08010207270093984 -0.19505396232019354 1.018000045724798
62231110000.0 -0.8364654565576474 -0.04425891637165523 0.03788319792257194 0.5594984082545786 -0.0022284206132304144 -0.0065630219251165975 -0.0028143028068159525 -0.0034829748104579033
 0.017794848639636627 0.5375968446775127 -0.7965165603039334 -0.018139470859209233 -6.6721018883371345e-06 -0.010875767588165986 0.0032477084487697065 0.0038112090916945333
 0.02342081765442474 0.0056342253714691615 -0.0032398009741564805 -0.04662588619187601 -0.24324148716468327 0.6670432507347601 0.24504735550586526 0.11522858001360191
 0.01940928711642494 0.012075700077838977 0.029012182220405434 -0.0028617657232712823 0.22480711353250277 0.13422468777338775 -0.09377599311172305 0.8626631589617293
62301100000.0 -0.7723217051413809 -0.004212403219777031 0.03905937827984309 0.5111016479419351 -0.00028876766236851913 -0.00108696337389688 -0.00213961441899979 0.009833688127700588
 0.022004024631450788 0.49488305220882944 -0.7828422740108961 -0.060222686071518865 0.0020836273625425878 -0.0005519558731434407 0.0035972770008528433 0.0020744635663940566
 0.017581750411346415 0.007975320998695306 0.07646385565832976 0.06425884957375151 -0.03293669742653431 0.7320978420422354 0.15492957314742425 0.02707975411034924
 -0.00018708275573503462 0.005144788837305203 0.026708187859848437 0.01095133215640448 0.1230870905465356 0.04821745392406647 -0.06778707189021696 0.8167747079195061
62371090000.0 -0.762715311232028 0.01797971022852198 -0.002182989625484374 0.5319640616696978 0.003929672674393096 -0.0025879702977764053 0.0005959189061399453 0.006665407377271239
 0.014764255992536128 0.5222653714967056 -0.8113801724378339 -0.02910393956754052 0.0106500683685545 0.009218402058658858 0.00795961356904728 0.00914514120027786
 -0.004611801059392149 -0.006510492112816613 -9.978114991685975e-05 -0.005086405147852644 -0.14221871395701033 0.7744168525955085 0.16071411064808233 0.03556637103630176
 0.002661629855050969 0.004814566654120314 -0.05313555370476389 -0.038353593808130394 0.21120719423924936 -0.01901129128851831 -0.20087220035482 0.7899306019039458
62441080000.0 -0.7981298106271664 -0.03764582689923004 -0.011324346973418645 0.4862130226888568 0.00027903051511508133 -0.011120948799448627 0.007619920482690252 -0.00392978190837566
 -0.0015629493599136474 0.4804962498565203 -0.7302689970819086 -0.01650070989442069 -0.004045412703620423 0.0035311153865127663 0.0036482845431633376 -0.006657999837123519
 0.0014048963526607178 -0.013612955666494994 0.04689020019129055 -0.00583421440363584 -0.1215110246889417 0.8138917082275717 0.15319764474603048 0.05362509972815445
 0.0014446703092339196 -0.013464318554474091 0.014408410625849537 0.022565007280437185 0.06785858147052663 0.12474984619294349 -0.20829262926015576 0.8663089196670478
62511070000.0 -0.7739107385920472 -0.05319555697173855 0.018168886713001382 0.5094713407385596 -0.005488032043424933 0.004501443484032165 0.005768077476054884 0.0039852576920796
 0.03983141604191298 0.5017384393776484 -0.7900285022485495 -0.0017290930189014485 -0.009155607345783464 -0.0017399682017955303 0.004718756925985483 0.002296775169929883
 -0.004520252899707774 0.012498714581327891 -0.032256638369069716 -0.018550412454311268 -0.13425506680502225 0.7074787120146389 0.16417653807707008 0.007834354983277194
 -0.016688665296087545 -0.023050675205451725 0.000564027723296422 0.0467436784843557 0.06276154664784143 0.09854982441452681 -0.2071508487356164 0.8133968805138013
62581060000.0 -0.6977741669255856 0.06505975806711474 0.04124808267743269 0.5512196625664825 -0.0094122966743732 0.0017118279052233108 -8.252611432839015e-05 0.011005538322011479
 0.027552077608581898 0.49647561502227716 -0.8367184023289562 -0.058865661002328984 0.002420410270611101 -0.0032368694070151046 -0.007063747987396667 0.005940225731418364
 0.009585447398691632 -0.002040216128212265 -0.04753922350945359 -0.056910548486158376 -0.08417373174694133 0.7135284613399151 0.08862765641688287 0.03882031694415836
 0.016637451588030372 0.00777525277372599 0.06642870179452415 -0.015051025809466047 0.10968864187070758 0.15566446091331665 -0.1778037667389222 0.8854048195229264
62651050000.0 -0.7813705646585192 -0.024775341606653744 0.01697556506318347 0.4697119543531853 0.0018240159526274342 0.00021313681267697378 -0.003083398158271707 0.0030737480202639054
 0.03304236895831444 0.4848924776329348 -0.6876249901497683 0.028847677614106983 0.005812743869851475 -0.0035913847803284377 0.004298975094242841 0.0020165307921882008
 0.0024247168749109912 0.00457081260700702 0.02163365298640611 -0.02741487673580664 -0.11562164450147286 0.7447286307205639 0.16937050261500827 0.15356512870794486
 0.016679176860841482 -0.0053455719557320685 -0.011921535857390746 0.004777786215180452 0.1067705378967909 0.03224967197184348 -0.2864289397319112 0.7896231582956245
62721040000.0 -0.8784772585694244 -0.018537993327442114 0.02898721785716704 0.5234094433107807 -0.008555395838330806 -0.005429922007632898 -0.0027406479888720213 0.0011269116821657154
 0.04103213163074016 0.5588821883706827 -0.7710295669978346 -0.07586912948081505 0.004868012297308106 -0.00760841377226238 -0.00028162732713931835 -0.007945822928721653
 -0.015558276747302759 -0.02133087398348369 -0.04153487567702059 0.0024917066862163396 -0.08552079220120884 0.8959092947701695 0.17835569697679224 0.007112147065979352
 0.007904888707225426 -0.023974214548580473 -0.013991196110492017 0.010266280888023904 0.06799390070167166 0.02734553189138311 -0.12142204119092627 0.7690704423920152
62791030000.0 -0.8223565971948168 -0.04872447341232081 0.05550219988546494 0.5675801132557271 0.007088153550149715 -0.012435079736610639 0.007217209388558578 0.00027243487995289733
 0.05864576448644703 0.5438514428074991 -0.8409644178260378 0.03570266744157615 -0.0014115436474428124 0.0030733514977969796 0.005570468490171587 -0.001894738812150295
 -0.005576348801875718 0.010243353216365757 0.004441085378602481 0.01568004702922291 -0.21850306673566233 0.7330707940246064 0.19917085308244836 0.06889719557112625
 -0.01483099238679895 0.033537703665043474 0.02194786482004076 -0.01389348647697345 0.1948074531501429 0.06134028974448473 -0.16971607101053635 0.8838983255897751
62861020000.0 -0.7754983192485748 -0.05990144461356166 0.012601845508307235 0.5284974206649282 -0.0060847486502113865 -0.002120600893805258 0.002949455567063921 0.0038707481592354714
 -0.026345958837157523 0.5288336393530952 -0.6986724678855748 0.001514513933932131 -0.006382617971046652 -0.0025212216786112593 0.0015402627342458758 -0.00010023632141960777
 -0.012022513020992423 0.022625822511460312 -0.034954431748299285 -0.011545117757334456 0.039936149614976095 0.793159327500031 0.09573524419135876 0.07861711113569635
 -0.016983341019140907 -0.004754873122546393 -0.02178053079919034 -0.038597175604650515 0.16174069621654796 -0.02824942137889808 -0.09965779823588977 0.8865513931530568
62931010000.0 -0.7843295498421575 0.09881128734771803 -0.057790223389583964 0.5376923851335721 -0.0017324246775460436 0.003512159765639007 -0.0035071424833260623 0.0036378591200280216
 0.023568638761020506 0.5202339301108599 -0.7518296928628077 -0.028999341438373176 -0.0007907996655757848 -0.007732359814272074 -0.0059743082476445405 0.005279620236314783
 0.01862107410028086 0.030279834069564485 0.01424315445940272 0.041197458021408374 0.003058831791986447 0.7680656734795126 0.23425424795854255 0.04120108293284158
 -0.00322104599158004 -0.014729445438129865 -0.054975157218036044 -0.058031041309817524 0.10371523552085317 0.08506858700934923 -0.14164035932189423 0.811463157001255
63001000000.0 -0.7082974024788686 -0.050322843697865854 0.01979775729033056 0.5431032995739105 -0.006576336452116827 -0.0012044566337152077 -0.007045556352792058 0.0027538062621632214
 0.05420371977252846 0.5608095298908982 -0.8230411869233905 0.020278550433231943 -0.01080378826967247 -0.005062151946344767 -0.00148998070626066 -0.004075662840830868
 -0.02935551083884189 -0.008353828987581078 0.0275946755750609 -0.01606085866568871 -0.17502907349120067 0.7233950875857548 0.12917294518738118 -0.05388137811408429
 -0.0114173611345063 0.013266270993732013 -0.02840937870750593 -0.01850832636303403 0.07756578978428423 0.04016516079723957 -0.14023039530970627 0.8305772903604298
63070990000.0 -0.8540228744933207 0.06877755796694376 0.07755446674356048 0.5290924868298109 0.0015357621089143092 0.0021852162818859757 -0.0042217214943248964 0.009726094655097361
 0.09854625031857836 0.5442918997850973 -0.8137236131398359 -0.05296628448247796 0.011174474105277728 0.010194377018612057 0.009970537034383895 0.004728041888839362
 0.015024488863243531 0.010022949128719207 0.021210724046218557 -0.0015283462723435378 -0.10930878996034865 0.7027279960764151 0.043100450901929384 0.10249341146023601
 0.0009354174158284772 -0.02733284383239927 -0.021027319021982814 0.08792777794427963 0.09052668818512483 -0.016765317637687054 -0.1546812255187363 0.8517557675617282
63140980000.0 -0.9606299404199338 0.5861708247288905 -0.20328828586036338 0.5969300138965927 0.009396159679354246 0.004540923585363155 -0.00438645310748837 0.0057304199652629135
 0.11871550164562035 0.49345089241694423 -0.860466843313268 0.12481542305589326 -0.014402392092602606 0.001433081806665935 -0.009342643638821145 0.004673941022741153
 0.0010302337757699352 0.004413627883014934 0.027716601485185937 0.007935112631500693 0.22821709269888113 0.8800847792400583 0.16587870084488926 0.10479111591465783
 -0.01910831771872395 -0.008027531402800922 0.005459838980810213 -0.0022890859284221497 0.2168766778219652 -0.004320175844136537 -0.18345085288967566 0.7956011736218651
63210970000.0 -0.7478801530567369 -0.029298009033269325 -0.05255081886413253 0.5582517104691698 -0.008373761146002114 -0.0007948861015034935 -0.0030280064991905758 -0.012552218979089863
 -0.002669697582504434 0.6051167482158675 -0.8025594871354563 -0.11469563082221905 0.007428158486824607 -0.004367820318145878 0.016268650227043036 0.004823660909299737
 -0.0223334368450079 0.010370579324660569 -0.019307139815871243 0.05147243995753003 -0.23848470048197595 0.7331791977467105 0.11746798787793546 0.024546867331539074
 -0.02444197871982774 -0.00617837173952086 -0.06267787583387105 -0.0027635377734000527 0.1253370972711644 -0.09801538157342408 -0.4701769612757294 0.670677265436433
63280960000.0 -0.8174361896968038 -0.07076602401456966 0.014614332343651799 0.4498041874281154 -0.0026278043663435654 0.0037697288436251324 -0.013320313873624527 -0.001343093375414605
 0.030786492134109927 0.5201107230478736 -0.6764208697754875 0.09377451536439153 -0.0021086038927643005 -0.005781502282587956 0.0018555978030038618 0.0037617621565872957
 0.0030808171607695648 0.005025329875564126 -0.03591198606022705 0.009428501677650133 -0.10834578927938253 0.683910018483621 0.113863520756025 0.12037392020362361
 -0.021514523804294198 -0.018824661258285278 0.005341280758866814 0.019851447585306405 0.20080554434252962 0.05691707629060793 -0.07865823866810362 0.748391945414482
63350950000.0 -0.9930037027338243 -0.06663416201898426 -0.01610757966541869 0.4103925252463248 -0.008294588277791797 -0.004232724620277342 -0.001266644840940172 -0.006729921863574395
 0.0715605529895093 0.524336882708025 -0.8357554183466641 -0.0016526734277529011 0.0026137777635645842 -0.0012618846329915847 0.0011686310956135794 -3.601110496497978e-06
 0.026249076205401515 0.006859352341927157 -0.06382838725579086 -0.05372774306267033 -0.1004750001739559 0.9545694645445978 0.24083607129995172 0.0720909303228226
 0.005703443713983647 -0.0028248494387941546 0.03783318147476258 -0.09690144298289884 0.286432858395579 -0.03217996908179814 -0.1586221777022933 0.8781812089996266
63420940000.0 -0.7228259569279182 -0.06514381302122439 0.012197882644127018 0.5639082791399477 0.004148506014074753 0.0039674360618579246 0.002126824321403295 -0.0009758185801901906
 0.05120594196460856 0.5107236301578438 -0.7439856031087698 -0.028432797603317884 -0.007212056606376534 0.01679742772659107 0.010062131828991575 -0.016893256751043237
 -0.032419533365724555 -0.013219606740512759 -0.006933338012055333 0.03204277719420109 -0.13348645983993906 0.8223731489732855 0.08749113279517873 -0.03985671936841978
 -0.011497078349560454 -0.031538628209658866 -0.019032492842807516 0.07509827241183202 0.2135722732914748 -0.11248372468944984 -0.032013903957150466 0.8191047559502185
63490930000.0 -0.7872303450884737 0.05750944915818984 0.04014842866020743 0.5203080170067532 0.0010477695761907783 -0.006048622343773483 0.0001913376951626671 0.010664551906494617
 -0.010162084145006947 0.5269768244133098 -0.6836176622578645 0.08520481741878007 -0.010184071356468797 -0.002639014476959444 0.01612688351959122 -0.005311676569171419
 -0.020202968299819147 -0.04050990729461307 -0.03154228876492848 -0.07991806024185928 -0.03759149511051008 0.7518102301443942 0.029053479290690177 0.06658956508800776
 0.007481872844155318 0.012927877589124004 -0.03642987652499454 0.013396943709604571 0.11241425870983403 -0.06754893279861651 0.09082477783919012 0.5174490088365772
63560920000.0 -0.8406898767604272 0.10030126033452261 0.11564903704971083 0.5546416373191496 0.0096992686473425 0.0031554965348763214 -0.002876311075157051 0.0071266748402674775
 0.13475619944951372 0.5589601652570969 -0.8546814738506734 0.12470282425540904 -0.0006439844175427141 0.0033747965022868118 -0.007313817333501514 0.007521436164948164
 -0.037861246276115076 0.002047443204097155 -0.016042360496430243 0.023948960248786903 -0.056758841241702676 0.762957232619612 0.027773416598757542 0.03541957988678726
 0.047264369624448736 0.01937718788182824 -0.007408866371817225 -0.04486680251440233 0.02728092256486761 0.08313557254227118 -0.1529294781024745 0.7802737623464984
63630910000.0 -0.710664543327433 -0.0016719862790676077 0.042283181485742956 0.5740699233897716 -0.002582851021699453 -0.0036496063553361963 -0.0004139660909729371 -0.0057452448969881114
 0.09418297948333923 0.5271727527984774 -0.8675891436354858 0.03216937728025818 -0.00450063613124046 -0.0011082945340133508 -0.010482889320438468 -0.020607605171208253
 0.0027677888676632236 -0.030237520866932894 0.10900614444393573 0.008743218831629554 0.0052482774778887225 0.7152341761477775 0.09531652792314815 0.0478543310754366
 0.016961099145937422 -0.01716360157339664 -0.028244616164055797 -0.10822519868550812 0.14157368385403074 -0.023011535958639355 -0.1673573413500277 0.9678945024995442
63700900000.0 -0.7084437237069066 -0.024114241487700975 -0.03757784691919658 0.5358078196102827 0.008023296642695407 -0.00036589966775732257 0.0007709909051621208 0.010892140201839184
 0.02797512316303164 0.5663707467782954 -0.8448203194257329 -0.16146068773846012 0.0048106446262262 0.007991110561079267 -0.008861884334448724 0.0040195746828258746
 -0.0029127961331140984 0.018017738785893002 -0.07126018439575987 -0.02984488282951091 -0.21607760973130358 0.6808907888198062 0.1310167427538345 0.02836418821154262
 0.009692701290541783 0.029110157446170962 -0.0665177670101231 -0.025682276768348698 0.19543430694901226 0.04252721604402911 -0.3236534557006037 0.6437539677633259
63770890000.0 -0.7101641279228681 -0.10754169069912699 -0.13715668979014936 0.49084644613002837 -0.011397877209374026 -0.003858567247292763 0.007467382700736457 0.0037700198195382137
 0.0916280607607109 0.536173011608049 -0.6536834053375397 -0.03272185418690286 0.008539183162073177 0.008274434411730047 -0.004076972651613087 0.009200731952467523
 -0.03372364233607892 -0.005969270387059025 0.04360473643374645 -0.0014220734996022884 0.060598513931928104 1.0027358362368726 0.03917115966566964 -0.05090373883306019
 0.019288566282770026 0.023841678998955684 0.00664797455980795 -0.027862389967322754 0.1612528438977381 0.14781952447559563 -0.23927071034500835 0.6704871518418631
63840880000.0 -0.7221329101685152 0.05766381661908594 0.10454235277675149 0.4694912279389473 0.0031078622064554676 -0.004182973528537232 0.0022708893887759484 -0.0018580006165964484
 0.15017039876468655 0.4408411669713821 -0.8128794591253143 0.07861649041998732 0.018929172322984744 0.0005921237559660698 0.007269421742422583 -0.004186027445050177
 0.005024299324127724 -0.012266780748162582 0.05053172253835028 -0.023842086853697347 -0.1296797076087178 0.7983252241251187 0.09253825433747612 0.09464755711127161
 -0.011183590289411151 0.011513960596138054 -0.007814247354306494 0.030993493192699405 0.1546590790926135 0.18373136801714013 0.1816915065853029 0.7332515788884593
63910870000.0 -0.7646618400519499 0.13422374421091565 0.06845999132185276 0.4898922622343701 -0.007860139249485157 -0.0005829781250405303 0.0041811497453054566 -0.01593065075954116
 0.06846305980868854 0.4711143246458721 -0.788269214996356 0.10920611286668934 -0.0011567366792176166 -0.0025504851364466863 -0.010930610869003158 0.0039722175519747455
 -0.04924628542656091 -0.015641426384931725 0.026158160626314625 0.05073894237500296 -0.2754006914964346 0.7037374215749548 0.3219626398275941 0.09911489267892346
 -0.003755838786570737 0.007055474439078999 -0.0012306507307260665 -0.018253185597258702 0.2383873263986874 0.1364266582364665 -0.14911763065277256 0.74700719230071
63980860000.0 -0.7659126674970165 0.024906110500723645 0.012013219433401692 0.5379655222542177 0.002520573931014556 0.005494284866335465 -0.008306379065197229 -0.015460152795542333
 0.045192665206267885 0.5193334329340087 -0.8380593144528357 -0.009566404385928045 0.011899237668780123 -0.011702962072054748 -0.005766794933294977 -0.00567673603747464
 -0.02325075002092804 0.00668685625335224 -0.021279547786813444 0.025790760590049054 0.0393869171981773 0.9525822245307821 0.17018916827379582 -0.06478234697184015
 -0.008126156000245912 -0.019481858988066772 0.004632410081101671 -0.0004471089829559435 0.13005507813200443 -0.08359882823562262 -0.15309341892073053 0.8754310061151545
64050850000.0 -0.8017528185250278 0.024676446459144238 -0.0334425037051278 0.5204435539340373 -0.007959600780225331 0.012852192402917063 -0.001781360558011297 0.005031383779700099
 0.040327401920864175 0.5108306278001062 -0.6237386257386176 -0.053526998471943046 -0.011250759628265893 0.008024496326893657 -0.010380270296196533 -0.008617101358026133
 0.017943189849661298 -0.009420409246473492 -0.031111887854621375 -0.009712259064314848 -0.13651962890632244 0.9398660047321293 0.14017769035487787 0.04126770375255454
 -0.007875702251289132 0.012657029840614316 0.00182895168441073 0.02203441614141638 0.1219907057001364 0.11710391506223918 -0.17387526148628826 0.84109769934848
64120840000.0 -0.7133143616668577 0.009296705533734908 0.03342678206971841 0.4931476397258825 -0.006853334160741043 0.004337924225727137 0.0013495843794577669 -0.013884234742553318
 0.044316070927416476 0.5037934602704112 -0.6792439558247784 0.0157261531535818 -0.006421438807810905 -0.00980551502922828 0.005212984478201783 -0.00044136787105502766
 -0.028182551062573218 -0.021076414953015408 -0.015307368256346593 0.006100734908937114 -0.13123048041106328 0.8508875395696702 0.1384436482209106 0.03457837705579597
 -0.0020508466455215904 -0.021757662503742226 0.03535283796095679 -0.014268955791245291 0.14832871039611742 0.178391672735077 -0.14004433153148793 0.6312820131755488
64190830000.0 -0.7988622823924768 0.037801948699803786 0.048135909094457925 0.49083359348344213 -0.018550036282905094 0.002308161965036885 0.0014682115508661718 -0.0027538731945246898
 0.07479965965106285 0.47700046933089774 -0.6549781037174693 -0.02395285439755299 -0.0024460861231648807 -0.005830627903222344 0.010676114072099783 -0.0037279690798217983
 -0.012089054705217536 -0.012324265215839193 -0.07284805683159391 0.024150882315727304 -0.06390354955128105 0.6941542531210878 0.10555057951341701 0.09475480992167895
 0.0060483414828610945 -0.01793214514102954 -0.08257211956676312 -0.00276906442668724 0.1575290906495502 0.07122553861245312 -0.264821687784415 0.8292113597087353
64260820000.0 -0.8426223053280806 0.018698013595595996 0.08572537442266051 0.4866759004382334 0.004454162809310691 -0.005505061912853373 0.0050826857007434095 -0.005403178736147132
 0.1350008239673602 0.48654200665433966 -0.6947336939316623 0.07318986276571578 0.005488471418903851 0.00173489260173639 -0.0034421610630512036 -0.007633770264757368
 0.015385845753089327 -0.006021179332889855 -0.06353325445277645 -0.010154429636948376 -0.05878887618809324 0.7135698922516136 0.21982279370187083 0.01539379918842269
 -0.02628885703214298 0.02019745686242658 0.025704188812174206 -0.02536097019539101 0.07772927065530745 -0.0356895567352094 -0.2525004854882027 0.7449443317445098
64330810000.0 -0.8419896850412086 0.06070022261968347 0.0837632795974679 0.4818120612033729 0.009642677663660804 0.009239719520869051 -0.00702103027269615 0.0022241677743839953
 0.06813241594801922 0.4836199375788086 -0.7377105854644199 0.0680587573632305 0.0023906177621034926 0.01640105637183517 0.00011812499804550961 -0.004937700673797396
 0.0002431132824253316 -0.011654389515432484 0.012181001368640112 0.044539527393721204 -0.04653542986131822 0.8124400818079275 0.14818583609417688 0.053449567290623966
 0.023263993329511803 -0.005401306798424979 0.014025338818349919 -0.003332763942957836 0.058982364536812076 -0.08465492624630956 -0.08454349536736944 0.8102840023267734
64400800000.0 -0.7487461443724975 0.013231506811132469 0.09495648717985052 0.5606267871029982 0.002557289586488387 -0.003741949810530247 -0.01758550079570253 -0.005544653359002609
 0.11344685004508517 0.5761125858391489 -0.7845141134851005 0.10133788738059406 -0.011876312452423276 -0.00010316622673553786 0.005065151480587452 -0.021625737138181785
 -0.007573665988113298 0.022918091962384073 -0.03354001304869733 -0.04701390037123505 -0.04859536919786547 0.7615371110555049 0.13967802353569347 0.04515742004850751
 0.02381308657185422 0.022698025870119723 -0.03949859621718236 -0.053160477323483 0.182260536110569 -0.022361656682268773 -0.06425469165326539 0.730155798486353
64470790000.0 -1.0595191743964876 0.17619651201837197 0.07964689311737645 0.41657553938471575 0.001734195491803495 0.009990853777067215 -0.00629099315852891 -0.0016403811899088504
 0.22676111958643716 0.4353237215562095 -0.7222712446508919 0.0836871643951097 -0.01067499403769565 -0.021053582714646493 0.0062776959987048036 -0.0007424452302072486
 -0.007133484747819666 -0.03255030666587142 -0.005151317548975393 0.011990247129157371 -0.18009963006075447 0.8142059450313446 0.0884657546023204 0.13409109858903923
 0.014350742897983004 0.030052866878798955 -0.02222252216122489 0.04645957609576498 0.07307329092982122 0.12991472453027 0.09681437393611031 0.8745824280166168
64540780000.0 -0.7028477527743101 0.16052440235355744 0.1266132966938063 0.4762478002218683 -0.009009045103609278 0.00693151344428192 0.0017428802546978256 -0.006941763465140891
 0.09809886273997731 0.5335194741050922 -0.8755446113652087 0.05977768660999321 -0.0009143524771496545 -0.0040666997518667 -0.004900917900284363 -0.0015738050997943771
 -0.004756494988590556 -0.015660283328358362 0.006780389670610548 0.0035022656218975973 -0.04020328504297494 0.7753056394571274 0.07346892283448181 0.15139660425446227
 -0.009215841467447425 0.010002758463486004 -0.04309530120892108 0.015565070752531005 0.08039104415321244 0.11126747720338626 -0.04901981351568407 0.7864433305791244
64610770000.0 -0.7761023904306541 -0.01803507086163975 0.05457283548560837 0.5037500853654431 -0.00871072146799726 0.007871955988339886 0.0036934728395189164 0.0023701716555825174
 0.07661499833577975 0.4775702899312995 -0.7436442603442743 0.1102786972772932 0.007606758075349095 -0.005469801828107746 -0.00261325566052477 -0.0014194431357236418
 -0.03323131688632803 0.03531320791860592 0.013438138439317172 0.05667895087536498 0.0045274503299247365 0.8626298229324544 0.10133762288501594 -0.027505627574155634
 -0.011617335317335033 -0.01360883596653371 0.015877831535680897 0.06646628254148529 0.1635037706198911 0.04851655901048139 -0.09772491273952087 0.8580374351890256
64680760000.0 -0.48433617841517734 0.26791745678985146 0.0029349174397650343 0.6194773415660325 -0.007418352664348951 0.023348419822594363 0.003405474964721941 -0.005560159432046457
 -0.07397294282741321 0.45597893957512725 -0.6722007328080355 0.023713396858666403 0.008965458044937903 -0.0015492872516077868 -0.005144537296208248 -0.0016736364511926874
 0.005561440346347752 0.024944619065248155 0.024609036037967554 0.002700043454133686 0.2935145973843164 0.6691754253432706 -0.0004140317682965481 0.082895047167336
 0.007409270917233117 0.0022022324604946595 0.011081027691578609 -0.03829830436811468 0.1141449117598326 0.04582006652833031 -0.10575383973057674 0.705353346607309
64750750000.0 -0.6795459668753376 -0.01744204926281157 0.011708821467739463 0.5163993552931936 -0.006021453449346902 0.0021200632450082365 -0.0006670626853098467 0.011798205417009332
 0.11815782091625546 0.5356297677624716 -0.7589154600423426 0.18158319854230323 0.001787337068901319 0.012888492513317045 -0.0003451541872294067 -0.012547530270959829
 0.022152348940427183 -0.03701544662354103 -0.025265377535022022 0.03158670359414673 0.10041739447472355 0.6989204118172689 0.18993375014475272 0.0428757738289045
 0.004195407958499903 -0.026271488787637232 0.030335104437417486 0.060720251303737593 0.03617020764161825 0.055789301598544665 -0.13143482100449422 0.8875674890434171
64820740000.0 -0.791180167433035 0.07392623686106047 0.1242422136146975 0.42615660676836553 -0.0003067931806442419 0.00891110924793348 0.0025018075037690156 -0.024201559041950836
 0.1397622555982412 0.4428967148373751 -0.701517894159537 0.2319600386422463 0.0033696936013879503 -0.006345287150327809 0.0026824288606539662 -0.011858793158124449
 0.004657365966082045 -0.01999178723032475 0.017117777747856566 0.07217805129558066 0.12775076916971362 0.8287545734789714 0.13082903584482267 0.026609858936524265
 -0.0030123159852321613 0.0024928459038017214 -0.013971041849552838 0.05853145035630473 0.006178578753637271 0.0073588194178035235 -0.10568934760950781 0.6640165595426579
64890730000.0 -0.7997523262189279 0.10389524064110217 0.08954382061484581 0.38480533505247005 0.000833337056304431 0.014132901547916623 -0.002747522152401677 -0.010785092980536717
 0.10082310911238232 0.4225914114249178 -0.7194861611920267 0.08257809804498584 0.021076232993011042 0.005254301193947632 -0.013135404652225006 -0.002281393445002055
 0.007446991565843342 0.018045296035964525 -0.020709317754663645 0.04519617949937269 0.02276567749523157 0.8079355325261601 0.19475954803375875 -0.0010442040699458455
 0.017620877307840233 0.01545246354701668 0.027030727096232415 -0.0008086916180322277 0.03452055082704694 0.05127777709125403 -0.08526455496116829 0.8504287627738983
64960720000.0 -0.7357341122863258 0.06852657101737983 0.03075012622221429 0.5225375531403079 -0.008300713003061207 0.0018538016386367789 2.3934799481387924e-06 -0.0051808194038905275
 0.06407374354129085 0.5339583730104547 -0.7164211562372075 0.05538345851538265 0.012895435900743714 0.008026945488218765 0.01361576701014651 -0.005198116939537822
 0.000804740936997884 0.01229385377789773 0.017728766784681126 0.02130291614034214 -0.01005544178078064 0.9291977335924444 0.10926327222640964 0.023761066169018172
 0.0009205125253985208 0.019253323148772556 0.014257043660197423 0.020155429130211542 0.12348459818750343 -0.041761273728156974 -0.02474779683377334 0.7031423782236013
65030710000.0 -0.8266799498638588 0.05898741684432713 0.04378947032598326 0.48646831528981777 -0.013929407391333365 -0.00042268614780522143 -0.0018764441921649614 0.002983032449226249
 0.012698451186635751 0.5400317798320213 -0.6635007426493138 0.18742037887838178 -0.013354643095942201 0.005918632495865923 0.007388928726419172 0.003615111403859626
 0.01869426609316375 0.0031323834341748067 0.04694004699108125 0.006796247380338693 -0.05597023918954296 0.8630922946589434 0.1467111740929016 -0.07310814083367917
 -0.011305257091936112 0.013014015823400352 -0.010393815628406243 0.0275752599585425 0.1399632165712078 -0.031227704040600244 0.20081953155562368 0.9216628871302767
65100700000.0 -0.7191094065574164 0.19025606434877324 0.036729746328869176 0.44852496875648085 -0.00856225513582446 0.004411496293121655 0.00653715236538873 -0.004420791933034145
 0.08789240690862099 0.45966752285581847 -0.7576708502669238 0.020325965785718138 -0.005030208783907236 0.005428842349003455 -0.0017915811860899295 0.006682679532356652
 -0.00032381694289573246 0.004080565312886493 -0.007291718129721513 -0.06663264425909816 0.05261242877967084 0.7834414526400367 0.1717495702208493 0.11891976325728909
 0.0003382950804862241 0.0025694225853281744 -0.0008398492060094428 -0.0010235377039560444 0.07725035640591955 -0.05663467600533246 -0.0680986307110193 0.6944823758762045
65170690000.0 -0.762517125489133 -0.06520186199683621 0.11003349383442004 0.4867433544662256 0.01384221265165432 0.0035584929280451662 -0.005840734335321566 -0.021222012035424
 0.08279259035910078 0.45179679122504834 -0.6829967911566673 0.09534110915369824 -0.006247060327079127 0.011509485864161003 0.024271163468242013 0.002778331156403575
 0.013883117637121996 0.01266015817636149 -0.013499866334075544 0.03255940960061031 0.010370097518523878 0.8390754888696916 0.11583825469653217 -0.024309380676219242
 -0.01556285439338934 0.00035466527115936985 0.016202737211604323 0.020385767411149443 0.13908524792594737 0.10835466049276325 -0.04126662250224866 0.7417497055196365
65240680000.0 -0.7732079672006049 0.08501465394598023 0.1355660836872289 0.6382006938822196 0.002352249826907794 0.012957439327323664 0.001380742204610212 -0.012839502584095351
 -0.026558649188353493 0.6620508264348227 -0.8974204252693218 0.43106815244196506 -0.015199569986711244 0.01080784206498718 0.01111999008789408 -0.0006431152499410774
 0.008230790621517438 0.007201605685872555 0.04802704235165327 0.06510051400058824 0.04048259643653687 0.7084384741868172 -0.04846921649371351 0.06561704217715156
 0.00253757012206211 -0.0023623030798719784 0.023084709221316273 -0.02695011362089259 0.02944279664219301 -0.00027133085833441534 0.25503475218200927 0.6726834982646744
65310670000.0 -0.6925172460782251 0.11688810540149644 0.0786250200803718 0.5062035908946141 0.0007286691400420771 0.005336252065813672 0.007622074931910684 -0.0045684434628195025
 0.06568692885836744 0.4988818775513474 -0.8040012555062804 0.028284278195691785 -0.017193331568201548 -0.002095694811999615 -0.0017787771790755678 0.002950878081320446
 0.023676893891349356 -0.03938738643812298 0.06580896674948848 -0.042357245819259565 -0.049763887609575015 0.6821932508024978 0.039597590713030345 0.04993494242340846
 -0.02169690586012501 0.016865476827884238 -0.014195363609497726 0.03043789447914765 0.07195392786745004 0.005441814848179193 0.12617328005328676 0.6766178642751961
65380660000.0 -0.7212415812264806 0.19349492424426856 0.16067481247099047 0.45847942590614005 0.002989308037525897 -0.011849915336584228 0.0015104193855279664 -0.0015258297497397681
 0.1921677842490438 0.4801472395707912 -0.7083472184225538 0.15554195071021706 -0.0012776984494174213 0.011870698175561056 0.02044903804907202 -0.00605582523765704
 0.019133957795059955 -0.007801365504377692 -0.01552450565059463 -0.06987010933792931 -0.022151070730677028 0.8020583894994792 0.04377355852159356 -0.10573070048360723
 -0.014918135165674239 0.004767985295766014 0.00027012917220092206 -0.03452440532862526 0.08598361134904398 0.01713448534964842 0.054942990171040644 0.7059548345943595
65450650000.0 -0.7142756293059657 0.08890316805869916 0.07489128787847119 0.5009011912190011 0.0007850110752735313 -0.004687799288866747 -0.00802159547234949 -0.00048358176960865596
 0.03813451699121859 0.5280582372178919 -0.7197417232155716 0.1532615651119931 -0.007131454203828986 0.019045258131277103 0.0073537099583095384 0.008950460308762898
 -0.03618439543035977 -0.004072735526646455 -0.05153788659517426 -0.027317741809395172 -0.02715517586122027 0.8596472494769205 -0.018774277257392762 -0.15828318871122657
 -0.03840602603605374 -0.0012478887672279185 -0.018771103557858 -0.05978857491873206 0.20410497380931147 0.003432680261384701 0.04927115576416634 0.9327269756645148
65520640000.0 -0.8085450581337627 0.14366858521755502 0.11211462693688101 0.5736834522547505 -0.0070427689712688505 -0.00022425634327401692 0.006310029311410865 -0.003116171938723521
 0.09698639366326448 0.5698505620526981 -0.7312582809553839 0.011141566599904186 -0.001244626049109958 -0.003514072303749461 -0.010056582880442191 0.005684598125101843
 -0.021644076205053982 0.0035638671058324995 0.010118589349182142 0.005622075459795797 -0.0022414753511967684 0.6289560399927533 0.18535454011602118 -0.06236810643551574
 -0.02719110240211115 -0.000195148287895663 -0.054684102089304014 -0.0006629709647034531 0.18751080549869797 0.06995899524310772 -0.04179955626151138 0.91294837164624
65590630000.0 -0.7825088507152312 0.08511130507869634 0.13979379201357875 0.5198183675670792 -0.004613020595273472 0.009531747898759489 0.013294387118134831 0.00660849201814289
 0.14509241909198484 0.513386938795222 -0.7574010848743955 0.15788997739866054 0.010779931032877874 -0.005849622205097672 -0.003366148864060963 0.0030132383842424357
 -0.007138846604421466 0.01873864460079204 0.026243754527898774 0.06286665673512218 0.017388192981771154 0.782720867430922 0.44299620305813997 -0.055324816682300625
 -0.01981801672693634 -0.0033055900808362953 0.005191850461165341 0.04675633311075624 0.21271187718928616 0.029830794673541987 0.13144134852792577 0.893430266563425
65660620000.0 -0.7155925177665906 0.10230393967235378 0.11269786142162788 0.49769009099583916 0.004509703704769251 0.009675503720556332 -0.008526229084201673 -0.0021775562952504914
 0.042183307377613805 0.47401603846400964 -0.7775454865238415 0.1628768180819402 0.002631424560268563 0.010633698171293157 -0.0009561239627259876 -0.001596131307104115
 -0.019697086064211347 -0.0002974602050864668 -0.015361134895175908 0.06734239379332844 -0.08950973152716628 0.7863489483274221 0.4115795322046941 0.10494557512624199
 0.032227923045814684 -0.010272371031250779 -0.0722678569299494 -0.011039948610942367 0.25401429549652915 0.20159133839480411 0.15476422232569553 0.8787257973381996
65730610000.0 -0.7688930076543631 0.11876435869476445 0.08825834625423278 0.47749554347999307 -0.009986229928906186 0.01415339386303969 0.0010938075273656481 -0.016070629427519346
 0.10435425032133411 0.4862154993902608 -0.7041926163768296 0.14827728631906753 0.011528164643651442 0.0001541643570853338 0.007497376655601685 -0.017385564255201835
 0.00725245677093231 -0.021496770748038626 -0.0004915678845780055 -0.022882755202823082 0.060585823662007626 0.7835712117781592 0.24341789348666806 0.21937277885490755
 -0.02946872491062782 -0.011798045755626508 0.01613794960305725 0.020170891260955812 0.2309647747142663 0.12673180608523832 0.0884001179387657 0.8027992607055002
65800600000.0 -0.703636074095313 0.11556280232052368 0.10505741103017437 0.41300190581534657 -0.005193591004559731 0.010411452780546516 0.011195212621196911 0.007828363015115341
 0.07273712557859885 0.4746881605229161 -0.7800292197202068 0.2105147736136651 -0.00858422261335721 0.011743812539049317 0.006227054886315604 0.006169967722265473
 -0.01889068692917469 0.007159227907287372 -0.012216687923368245 0.016679218040321714 0.15122323985957267 0.8655816635385108 0.21217226932031513 0.22238067377615198
 -0.034147344931067414 -0.018134072275193275 0.031231714753783685 0.04184256952232018 0.16922810413441597 0.0906414918301302 0.12853404774475194 0.8828918863567988
65870590000.0 -0.7887865046796073 0.07805428866837891 0.1525483208539914 0.5964519432275703 -0.005572009266476393 0.005283833227067914 -0.004397183476376205 0.010662608828266855
 0.0931299499559455 0.4531745100562457 -0.9789165363931033 0.2810049120575089 0.0007779546419042663 -0.006492393521683995 -0.012858532316405586 -0.002802179410245236
 -0.04398353169552208 -0.057898516483097566 0.024791634567960696 0.02169257698351546 0.027353894433501006 0.7136818291475989 0.15921102532090492 -0.14740496237531836
 -0.016278055111870752 -0.0010539954919553526 0.024188008154158742 0.016081447972775036 0.18759955002064085 -0.13629710032888448 0.12884613211217258 1.0413520006395431
65940580000.0 -0.7011536371573136 0.007927751135342609 0.12769288826611935 0.49963275986985617 -0.014756115631398456 -0.0022142954223682617 -0.003363055285836569 0.00042881290532470614
 0.03862436479835787 0.4452355133494204 -0.7124453428141878 0.0745441130840243 0.01060002879726665 -0.011422531757447101 -0.0018227531809250417 -0.0030444650258665174
 0.011165199742915544 -0.02057676428171169 0.022771970021254962 -0.0009319564062298832 -0.005594589301891348 0.7052266809793419 -0.005746146363272614 -0.22375994530493198
 0.044458427252832444 -0.0019629522985675847 0.046818909187016894 -0.06597083532944514 -0.09013026094192078 -0.049606288767659476 0.03291591614988075 0.7539497600156787
66010570000.0 -0.7681864379487734 0.03421947740157007 0.05377221940354433 0.5038292524009854 -0.0010489018230085555 -0.01198888219777781 -0.006664398015214264 -0.021591341364707917
 0.09865810285817836 0.5547870846511727 -0.6960625616788071 0.12755172708560467 0.005197951253022713 0.0018807250681189926 0.009480076174380707 -0.011453202849294523
 -0.0005049591223217337 -0.03352862567946608 -0.09428115192634948 0.04376725380845211 -0.1090925775827306 0.7323738677131826 -0.07372460565795344 0.015732254319440944
 0.04499832944498762 -0.02159719226203135 -0.012021796770623754 0.04524924105984221 0.05166480225430224 0.11004135578038703 -0.014027442754414868 0.7024102087184393
66080560000.0 -0.7940402110949465 0.12038499540863075 0.2046736475248218 0.5704577433627562 -0.01834591807857668 -0.012045974411994967 -0.019228183217083784 0.008453834360375737
 0.17140054922807027 0.5366856459609768 -0.943551693417458 0.2718035148378902 0.00945225186934197 0.009331725567897296 -0.004722444423750153 -0.0030297538729017683
 0.01952147191401606 0.02506456493669818 -0.010672997307347182 -0.08539604406069141 0.11957833922661726 0.8229998510361178 0.013411323536597282 -0.05781252145519405
 0.02071448043155166 -0.0004989628456050167 0.013353078363321707 0.016207608590405813 -0.04173478793315889 -0.0012819665719205457 0.16796958845848775 0.8141638880371644
66150550000.0 -0.7139561574922967 0.22093124925422583 0.14455351611582673 0.47958679560952605 -0.011115868611499146 -0.003391398987128522 0.006319738531627291 0.01056320345144528
 0.1816781738779109 0.4815714493742273 -0.7963996112128272 0.10379752175150406 -0.005063603063468568 -0.0037126378998755495 -0.007854555341867495 -0.018435517955571475
 -0.025233264169075627 -0.04229226427976224 -0.012446749871145303 -0.0326964880385406 0.035208415008747614 0.9359924047146007 0.06323045585764275 -0.23516657239231137
 -0.010718973198073899 -0.006487959416430221 -0.05926092090554423 0.011202716340592897 0.04177879098291276 0.018856079165406735 0.1046735254728167 0.7753826966944448
66220540000.0 -0.7136286643337821 0.02506013105931068 0.04050879501237107 0.5495683206157552 -0.006637989792524738 -0.004640826093099498 0.003347214569931176 0.010447368759302548
 0.05433620011673104 0.516582389287411 -0.8016893850867568 0.0969085994845213 0.006533737291470062 -0.003409351582882782 -0.004754934410511587 -0.011356846499940365
 0.029466478996076535 0.012375113059548441 -0.005276342420139974 -0.01789460566993395 -0.03756892496098918 0.8102611532365454 -0.056585265068043185 -0.17913841958443233
 0.01174296463874562 -0.007218874123985864 -0.03072995421972894 0.060075639501577204 -0.01580544997881581 0.1904526854997339 0.004170639573399508 0.7751070074416274
66290530000.0 -0.7656966463544754 0.09648424381919302 0.08300949885260159 0.5630326877180257 0.012323911647511515 -0.0033434689348524993 0.011096989737738703 -0.0009754240350183465
 0.20755420782921954 0.5702483316088716 -0.8212597026839611 0.008712341053151962 -0.018432718768573147 0.003196043807423719 0.0028404402383820386 -0.004684786098067471
 -0.0193252609376118 0.025309242249631114 0.0302829337941927 -0.03568433843812354 -0.005775207129370045 0.8910951485515797 -0.15491561328289544 -0.3045105385692063
 0.00915049990750584 0.0403653513078128 -0.021167984907377785 0.04831638406978097 0.0010650667236042476 0.3020072017114188 -0.05597879920207616 0.8503486855215301
66360520000.0 -0.7167886349956348 0.06249027921088256 0.04812367987831562 0.5777109784133384 -0.003023191090299764 -0.01666563646125366 -0.00852863552135402 -0.001364951601429232
 0.06520910487352248 0.5104482522169184 -0.7949621522055111 0.1282759754744005 -0.011692905195604161 0.00603663162247951 0.006175691710243808 0.006635198449579996
 0.027887226526178237 -0.005270082146805821 0.04214909978282065 -0.00336506262584587 -0.03109988221853805 0.7602849765999997 -0.11188562584403988 -0.20507562150780762
 -0.009217447763965995 -0.010727969146290404 -0.00932286529086217 -0.02443720425860865 0.1479019557184969 0.2650365826682204 0.012743886652985648 0.7942520663691126
66430510000.0 -0.8678907565247095 -0.016517368905031363 0.08327630737636435 0.678338760508287 0.005671166360130164 -0.0019739302506462746 0.004704544131114279 -0.007713327633967572
 0.1520812290498814 0.5166674273505112 -0.7023241517829673 0.0821723425990028 0.011050737539837164 0.008384179197196284 0.0018534778334678523 -0.008022117231799375
 0.02712847276742644 0.045426377976178024 0.018838485035728825 -0.11674179768310976 -0.025792149292718648 0.6789820420128708 0.16047588232566987 -0.11440126866109897
 -0.005145336332374555 0.015257163132040149 -0.05304983260533397 -0.03991150022821788 0.05060331323344752 0.5040200408479576 -0.11259432618874335 0.9883902926027306
66500500000.0 -0.7271759663955568 0.09346429379615145 0.024105634696833304 0.4835145470730226 0.00851545624211211 -0.0068594049013576555 0.007343730891245633 -0.017746625844900273
 0.04648697524426634 0.5048580753665555 -0.607391479559242 0.04629797140237314 -0.003982355951515373 -0.004540926712721464 -0.011631045635704001 -0.007523136326207839
 -0.018777595218599095 -0.045815936872430255 0.07296895691913181 -0.007075847659548146 0.08630530037272624 0.8356612309870509 0.11622637079499087 -0.07622278424814449
 -0.011193065373403598 -0.024986834670947006 -0.012933922300500686 -0.0076909329296408774 -0.036351688853922384 0.24869344014175288 0.2553152285609972 0.5957631174903745
66570490000.0 -0.8418019830310296 0.022062473693761332 0.13040154973887302 0.47521279737035704 -0.0021236359433946172 0.00978474509331245 -0.0006228884148504953 0.0002338504780008442
 0.14777279689898173 0.549183018497913 -0.7747226388557049 0.15082237280794658 0.02723355432913848 0.01347471577592943 0.015170870372354053 0.007913814697501471
 -0.009657064733059299 -0.014744058743593195 0.008766913222023904 0.07161508034206243 0.11775295866328123 0.8967663434386499 -0.02534502387934077 -0.10240835799636593
 -0.020600081562103956 0.008994131894493803 0.09148026986175874 -0.003755036426867243 0.2517622877390709 0.11850780423092483 0.004409650929962192 0.7752191171633949
66640480000.0 -0.731457646823311 0.12587142482319225 0.05939194880149434 0.47911215692508 -0.005957533785136389 -0.00014773184235874454 -0.005949605603976731 0.004764146515642353
 0.11241033369259672 0.4950270712619925 -0.6808725338946189 0.15471418859340152 0.005523371279885851 0.010537697221536505 0.0004152106862422459 0.01565113101134828
 -0.0319457054958171 -0.012059553716717042 -0.04088204493788147 -0.06122524011470307 0.018868827065503937 0.7518256996101325 0.14554557950251204 -0.01722262943436116
 -0.005701834756552216 0.016722620134313183 0.053312591995214896 0.06069639201845091 0.13508189950783883 0.15725293477487148 0.19010839272282976 0.758275237691372
66710470000.0 -0.7956313529073876 0.15768212017576883 0.07498703153988462 0.49804780163778833 -0.008935654501351108 0.01416073131153314 -0.014293163884105176 0.01789224452342886
 0.1484364243413049 0.49097768468671305 -0.7251221474630508 0.02597821253853339 -0.024728125302459825 0.01264231428557776 -0.018908249175969942 0.02274858576090309
 -0.019342358895707925 -0.010095397338063616 -0.027506452542780727 0.0320623052334186 0.11585725211845231 0.7739068805983537 0.20303068793179505 -0.14065076019179384
 -0.011433215707660246 -0.023607300722524798 -0.0019519823731823079 -0.01654210432671903 0.08797436435032374 0.19183934807367903 0.009276461836076976 0.5315172539324795
66780460000.0 -0.7109312218640955 0.006773781617354702 0.04239732321483049 0.4688854023877776 -0.008091560444636534 0.00797830395807139 -0.017399518026246556 -0.004303657287540994
 0.0433171469263326 0.4758179801072555 -0.7363156301781015 0.08757354223743928 -0.004351505822398566 -0.02053354235262004 -0.010221054504297646 -0.0031833278442309513
 -0.019307683652929796 -0.01656751757755145 0.07965976072120493 0.043786208960726325 -0.1928790367839468 0.9311893942106956 0.04848656048720252 -0.09962869369812716
 -0.006942527654984291 0.02366170116174936 -0.09987657877731221 0.003502253055775568 0.20927699600135863 0.19713233965751598 0.024764081348754817 0.7080733575545654
66850450000.0 -0.7862345693618055 0.09802266660975033 0.1163493304920756 0.5862959944566278 -0.018073072662499346 0.0009933558153176084 -0.015471133188940967 0.013432930361494263
 0.12937844196931875 0.5380724949732564 -0.8567028809355324 0.017245304959681122 -0.001302442447381862 -0.0036013547124462988 -0.017115477148694592 -0.01922288830604431
 -0.010040689794028168 -0.004393558083919412 0.06354049590003567 0.1253751291797264 -0.09284507544188865 0.769981812848789 0.1383519195463837 -0.014785022470273607
 0.025240326330069274 -0.003733956736332255 0.045043398592568694 0.04661466827626311 -0.01852771927962611 0.09288077515526705 -0.04893305149071988 0.7292884678602719
66920440000.0 -0.7810256135882608 0.1220819050658234 0.12059883743187941 0.5411695116849184 -0.01281777411439967 -0.011759532501112925 -0.022468679659490044 -0.017353807795857795
 0.07041685768586094 0.5042067618815048 -0.7173614290776766 0.26635684819583016 0.017800080704302345 0.001946973003632365 0.03506949449538131 -0.0005731568073598484
 -0.044610607404609454 0.03748850439794031 0.0477185855447075 0.002067973255990666 0.028974747293380388 0.7844935577668906 0.18361142655230847 0.12443517822743054
 -0.08479000465304187 0.013268360393762935 0.035090921976469146 -0.010372037854725855 0.023518129848969328 0.04058874656741465 0.19807202864106846 0.7575092733686041
66990430000.0 -0.6263417967803604 0.28550905547834043 0.27355614391734784 0.49229912995523634 -0.016532991024053863 -0.002482260219164441 0.0028614862377461417 0.006761408286547009
 0.05529309389632613 0.4334089531065204 -0.8497060035628718 0.051465640368090704 -0.0019130134301829792 -0.010818760796901928 0.010912781745114213 -0.005043233607123836
 0.027449486731211253 -0.04422802610782485 0.11246826801832581 -0.09109252727633982 -0.022458763781053374 0.7348669667386519 0.13608899181719417 -0.07130539905361934
 0.03331951101096889 0.02266902914862572 -0.07819457942877348 0.044195875556602635 0.03051342392216455 0.056346278644320694 0.35085387666311807 1.073259267449587
67060420000.0 -0.7405773733290859 0.23602655985698337 0.07188721409068509 0.46506806413092694 0.011193850394198289 0.0014125332225796477 0.015415837291714644 0.0030449643766565326
 0.1351374900571648 0.5501042133475796 -0.7215231394722341 0.014541793624148211 0.004082374075569978 -0.014511053512917498 -0.01329502149530309 -0.013320152165226489
 0.0382820287213561 -0.013590690234869425 -0.056903091635793115 -0.01528269567220869 0.0336629410828093 0.8787460190306347 -0.16321552587727908 0.09482712406403794
 0.015046859091711575 -0.02919699000374855 -0.06869474733673428 -0.002053572668043904 0.17318221228985275 -0.21815524955918775 0.05362166139445184 0.7589613859216024
67130410000.0 -0.7174547295728209 0.19402617645111073 0.1263974864611446 0.5807001112614002 0.011265894403299741 0.031481752230969266 0.004518252683384302 0.0164740993678301
 0.12460994886468524 0.5453285198547914 -0.7538012096429674 0.13742656589217292 -0.0019915754461405327 -0.05535560544812026 0.010440869091359651 -0.0558412803010023
 -0.004865926067266208 -0.06825819280653539 -0.0392093649039993 -0.02627544541108915 0.19962402741925264 0.7782674792693911 0.1410143542029276 0.00543368750810314
 0.049273553639613596 -0.06602705873731994 -0.005429697075860039 0.11598307535046894 0.16961700262317592 0.15861753849921267 -0.0070927209486987275 0.8793693488802156
67200400000.0 -0.631845211086045 0.20334756129868092 0.17778612179446385 0.4806693868236296 0.007127418320372984 0.0036143191313665834 -0.006264727120620398 -0.003362538844231883
 0.2188129658250058 0.5255454574430998 -0.8444947664588971 0.3685558275232108 -0.000997654396770254 -0.014648515056781794 -4.426973524284457e-05 -0.0007276301501934955
 0.030654427814616487 -0.005649830394983179 -0.020586679462885248 0.09911917386063994 0.10621254573045129 0.7557922599452201 0.0297732658978942 0.002815367987954589
 0.022292821305202416 0.010946930198340674 -0.023616711120161595 0.071965650092964 0.14104121949647502 -0.007446459048044756 0.16515033447086655 0.8488219754050611
67270390000.0 -0.9322885268059702 0.15523890360046025 0.08664028157051157 0.5525098566288039 0.0012239878204155835 -0.01115733076804657 -0.010100547923824369 -0.0010036643937724697
 0.08088026092240426 0.5703808792836725 -0.7326839731780287 0.11901013760620247 -0.0005435562474399797 -0.0033363529787617356 0.020209459218915288 -0.014792258224645334
 0.04344228347434163 -0.006204534639458286 -0.018149279793836976 0.008630802947977549 0.09468803610093043 0.691191970027657 -0.04822423421406572 -0.3136827289156584
 -0.023150536618854505 -0.04863306184848559 -0.037013729845494545 0.07654680172766731 0.12084768048937454 -0.045922333379775124 0.09881312316264555 0.9321803435955274
67340380000.0 -0.6937797279580051 0.16543136527108798 0.09256124205719661 0.46746928829432677 0.008317139036778966 -0.007206956138662432 0.023644726663219814 -0.008504473019582922
 0.13072752491553016 0.45898821439086274 -0.7897440562927883 0.058733858502446286 -0.003124582556043383 -0.011510537002508757 -0.00881339786973592 -0.022044773904502397
 0.03944223030201818 -0.01624997256305512 -0.00011907947676445653 0.07756646299732463 -0.011754623803949975 0.8474017794807887 -0.17163487216054207 -0.006773854905078109
 -0.02211323623306586 0.030866835849101912 0.03538640836699043 0.031537114769522534 0.08912450749762527 -0.14282364708217146 0.06622920978417873 0.7890246692674395
67410370000.0 -0.7970892202675988 0.1606938723945077 0.0708595339162705 0.5296585267769801 -0.007655308645324159 -0.001384995216434628 -0.006284720109733327 -0.0119666185484544
 0.19529645814869379 0.5801224389880605 -0.7747324455971157 0.05966001897063274 0.001183208101596363 -0.010138209521614741 0.003570983052982161 -0.017891744224674634
 0.02610883616078528 -0.051810050245001314 0.03914786653082771 0.07274501421440961 0.027196257420869466 0.8806936722557264 0.3415868936681976 -0.45903730419210403
 0.04496136767645642 -0.035097072996463904 -0.05164105168804989 -0.017541435622227132 0.0754595195011812 -0.08646695848239103 0.0005873112116652707 0.7842099137220778
67480360000.0 -0.6419506965980164 0.09928285020528753 0.15526383286437925 0.49999797957953646 0.0010719559169742007 -0.008086836050252982 0.003883893909304776 -0.01375343128670163
 0.052322536353528 0.5115559951440021 -0.8226691886184688 0.15714981067829248 -0.01907691830153635 -0.01752928707225045 -0.010043862528806177 -0.021929304878639175
 0.012459990336332355 0.023811085468499738 0.016814874297944066 -0.04654395945530475 0.20139449264741685 0.3820875850903728 0.02632642011513285 -0.2534071516692172
 -0.009472706696399238 0.001967290323445132 0.025082054006654565 -0.025407550996482457 0.19735274137498576 -0.1136512691435754 0.04797944879958353 0.8927593833752786
67550350000.0 -0.8127146764942753 0.2565567615263266 0.2623769018532037 0.5460015224252934 -0.003381469814754017 0.007411284115752167 -0.004265384899923511 -0.0037207750920951327
 0.22881924664949366 0.5693338115778339 -0.70992763012825 0.1755446897517852 0.0031302411361334836 -0.0007047362810188351 -0.00892886463550464 -0.009257775992302963
 -0.0007794399183319308 -0.009135970047921722 0.0476035801959094 0.03224429830483032 0.0962502185126321 0.7517887867283268 0.22633061196289075 -0.09121833204369313
 -0.0285008628845872 -0.031134966322469645 -0.0603540263590446 0.05777580543881015 0.030847047102180575 0.05997079954767419 -0.045553770654052084 0.7926966380477255
67620340000.0 -0.7013939375315195 0.17975726117004487 0.18371529033916872 0.4498690202374841 0.007307564967324478 -0.0017078311430443944 -0.00037918751812690056 -0.0014756189333613987
 0.1593696368185158 0.4183766412689381 -0.7546719450011958 0.23915976381741696 0.0007341476610099974 -0.0050976947581844005 -0.004918423314102789 -0.00864870960697261
 0.009968769074173517 -0.04106449574904113 0.027192171545623485 0.19584967856044952 0.048785959307803786 0.5870423765137351 -0.007674748655444535 -0.06290769741612522
 0.003879848871789198 -0.05102193937714292 0.020659221324268513 -0.11245192836080886 0.2072687388501885 0.028492667656931682 0.2013205654240916 0.660840947930875
67690330000.0 -0.8118447338543827 0.12784291266195452 -0.007539271399705822 0.40008272834285064 0.002057602691123881 0.003005028187662006 0.007637771267242131 0.00495470276367317
 0.06257663306737153 0.40096940906095346 -0.7970131515853915 0.05969550509473247 -0.01237879777518886 0.00468133583661526 -0.0011529423536948316 -0.007775647635700219
 -0.041298849846315565 -0.0025993888788592625 -0.17569547105576067 -0.08767511856470256 0.024780163038196024 1.0281562599510132 0.11351371700370101 -0.01336303575016561
 -0.01126334100571321 -0.004470322661474471 -0.04380455326807263 0.05628259779106396 0.20774711390725417 -0.03311973298346634 0.0564107290360824 0.8795211903766402
67760320000.0 -0.6773051180083133 0.15877941850308558 0.14272438313456748 0.4424690212328197 0.013720278876304141 -0.0018635662331560542 0.002236350561394843 -0.007896950430757528
 0.14105497938433867 0.5038218502460121 -0.710154774312355 0.11282689331884571 0.0036834707509303673 0.0022853325804802625 -0.003064166903502089 0.013278180115101436
 -0.022127302478545323 -0.052308784593738895 0.045101885559759206 -0.05757462277815693 0.2428117469761614 0.5395611586403768 0.24676140337754304 0.2579321337515408
 -0.01734973076859196 -0.016842442451409805 -0.024289714885710554 -0.14564975259586946 0.16529823700557417 -0.12075231609339591 -0.024405340833342618 0.7118251742034838
67830310000.0 -0.6952539393754081 0.18661791178311884 0.18950708977611852 0.37695220394923984 -0.00495291904662051 -0.017630610598564262 0.0033935423798702766 -0.014105509703490038
 0.11368445036945825 0.4039097212188943 -0.8346047756785552 0.28070203445806396 0.004777407613224767 0.012337823812091479 0.005994296168915324 -0.007131316707342824
 0.02799038311118604 0.004623372836867036 0.07458151220349793 0.008639994468082229 0.24948596028382736 0.5614965283212078 0.12433377547392185 0.24475416633490643
 0.013494373071664078 0.007237205352184155 0.019410009194164163 0.057876361679213555 0.06541126142622757 -0.12091042190068453 -0.19509182236316938 1.4771020391542165
67900300000.0 -0.814132021616206 0.18517397256579135 0.0769915312971443 0.48121197887214207 0.0077746073583975 0.012902279085734112 0.025010650101356845 -0.004524497035674433
 0.08061632331268717 0.5947516570505703 -0.6516667066821983 0.19660830751184277 0.014274971753793919 0.025111245731246484 -0.008393601500892496 -0.01965494471859342
 -0.02514733388950232 0.05820875455175463 -0.06369954007502991 0.08955945681362526 0.12192561086749798 0.9471818783842714 0.10998356125244435 -0.1606735572623091
 0.04328005252158759 0.028252009223955765 0.03695039746559359 -0.07540792189870366 -0.08676705795801794 0.09473775105383936 0.18112972691099516 0.6822284834748259
67970290000.0 -0.6972194621678012 0.19579180309753041 0.1755500442916926 0.413272146731961 0.0012797511771637194 0.01572785675171988 -0.01800537610225945 -0.002733022596320313
 0.20064138881844026 0.4393521763251521 -0.7879639995097689 0.18476450633242503 -0.005206645563993199 -0.02282951475687401 0.01007633999483358 -0.013829723634169634
 0.039026784289037844 0.010780002386336944 0.06734751884767212 -0.04981950061782395 0.08176072673420298 0.7430858396437576 0.04234015510035691 0.24188246956135018
 0.010924107749371435 0.08108024187159267 0.00534169567447954 -0.09407082606231933 0.21191885076558942 0.05334245260630675 0.24530302997881842 0.9257525327067925
68040280000.0 -0.7559049669817662 0.2909278956685631 0.17133745014811716 0.5045416186847461 0.001959003552204625 0.007483638319558446 -0.025211695465402334 0.00491938253720236
 0.13290698598408424 0.5041181155670248 -0.7602942048495613 0.18937377988300236 -0.007143780058366517 -0.0006227509318592236 -0.010844856619529664 0.022290123989400577
 0.007486160909353916 0.05095937724779154 -0.018695178540716038 0.17609979070804016 0.055556415314278844 0.7123660495471387 -0.0809853067022318 0.00601924276245592
 0.04446814176311239 -0.0014158310521118786 0.07987192411247619 -0.12354393551062866 0.14507610045936895 0.13398765227845422 0.295619319101741 0.5179772998685499
68110270000.0 -0.8436315909550076 0.3448466263238837 0.051683507016643114 0.5776175916811563 -0.0044664526463072275 0.02469143889312603 0.0069080226368254255 0.005968256658053246
 0.04113343854197067 0.6669058087496156 -0.6162826493028264 0.045913440015817625 -0.041548461558825266 0.015047058961949893 0.014590321634789398 0.003006699836237304
 -0.05191980631541944 -0.04260675425444994 -0.06527963096273098 -0.01697025164166726 0.011993187386581835 0.8116291583788674 0.042711559283702946 -0.2722842335146501
 -0.0995896891512922 -0.002217399567638717 -0.16391018601785737 0.03459059578431055 0.2862451628368947 0.40299115036315286 0.49930258470832195 0.9578680742468023
68180260000.0 -0.8142800884925063 0.15615574068758625 0.14274799097176477 0.48589763526880425 0.0025493280467452535 -0.010423830619547846 0.008021036280432107 -0.0018600393641882232
 0.12873650453498522 0.502202957017063 -0.8093057796885267 0.039740236594084176 -0.022150807569992586 -0.014754661812484733 -0.0019938196058300246 -0.015109633919459242
 -0.006134791511744054 -0.004317636974403135 -0.0221610993896958 0.15217915949274438 0.1890733985646116 0.8129810816173204 0.0996993686444112 0.10244123091676509
 0.016818701299511764 0.008094091856642078 -0.04896199696834659 -0.20365481879461875 -0.04445506663787777 -0.13356602946785703 -0.13089932175861285 0.7561007066429724
68250250000.0 -0.7586882096799574 0.24901414449762052 0.0669775819832837 0.4593969713114167 -0.002996350072988289 -0.011143778147178882 -0.005213933158072359 -0.02090494901343493
 0.10876771713610325 0.39952024939523223 -0.7069436851193296 0.03782266710216713 0.002607089481705511 -0.004416663344372219 -0.009594606344622097 0.004560061647880367
 0.09743734624106101 0.0793342481196597 0.09072557625778294 0.018592578425819958 0.16223772261135644 0.8289004502081752 -0.11001637915236571 -0.0017294277632209103
 -0.042572534778379724 -0.029442358645955475 0.03954127017847698 0.05219986464898895 0.08375119739694734 0.12034591822285669 0.20791205530529575 0.6588574137675939
68320240000.0 -0.774183823364222 0.2425699874837234 0.1542525274674894 0.45945694673047677 0.009494675212826022 0.013938679067931213 -0.014479958666515297 0.009524547914386443
 0.17173435188569597 0.4183863043721844 -0.6802169497629709 0.3434220191235168 0.0039247944576233686 -0.008380648364673424 0.01158179255130306 -0.0040010633159555786
 0.01496849954437425 0.0033665226213641032 0.06603661373193537 0.15371133442719379 0.09745974023984183 0.8736783466427357 0.1996448630150804 -0.08242055605607337
 0.02773939162059856 -0.033370428026675544 -0.09491258183982547 0.07972329340637872 0.2571845972563683 0.24376730577644787 -0.023816967385620655 0.9719796638876309
68390230000.0 -0.8116684422236001 0.12182898474688733 0.10586941960358638 0.463875689147045 -0.006077173037539046 0.0008296058270526981 -0.015462059014775455 -0.009320943929396674
 0.10985612686131838 0.36773482587645795 -0.8746547453965366 0.3533887829585307 -0.0019933420489918596 -0.023235699041236183 0.0021267061991621775 0.010775658088235954
 -0.037798293796314116 -0.034318866666630185 -0.08414641115316253 0.2079749065097132 -0.16703650496865005 0.6007300922416148 -0.17376211289315216 -0.1861988778814348
 -0.03254717947431488 -0.0391910179837593 0.11554328331653166 -0.08845364131192286 -0.14726018480742403 0.08697498922390576 0.33100256889065044 1.2345211510662517
68460220000.0 -0.7154774927423448 0.4785257029063204 0.1912454657230746 0.36170420351401966 0.003607328442793423 -0.0038037767200430023 0.01972736367375475 0.006978460665973119
 0.21580245159544026 0.3891857585211308 -0.6628640926270583 0.2520102873151862 0.008944949974333484 -0.0002046048866522558 0.019628675337039436 -0.0038149657941296154
 -0.07046372994181709 0.028551200097732148 0.1705770910146475 0.07099984907633444 0.12280038018281131 0.7529457641871604 0.37784073886833647 -0.20616494964303342
 0.026450689980403858 -0.016666883410774515 0.0863433542472168 0.04300925091648342 0.05042844687140736 0.09991028936992091 0.09464901001036906 0.6384571974487258
68530210000.0 -0.7312711565280818 0.13304480226642193 0.041535824019223525 0.46472281193181536 -0.0016240030528129163 -0.01880736321489412 -0.01168506766884446 0.005666656956349611
 0.01913406549919891 0.2941389571371028 -0.8453476608371122 0.012019499733149355 -0.006993042387342876 -0.0022715835004892115 0.0036444062317215237 0.012255255644104719
 0.039080326798467346 -0.07722106826420158 -0.09544479844963843 0.06960030961452092 0.09531986328595718 0.8420652814165885 0.05354521271419782 0.1454069385327229
 0.06791988842995884 0.12803464877755955 0.15036870914555237 0.04846220928598013 -0.16467038673529583 0.21636752382859267 -0.4516767249004472 1.1555936596643968
68600200000.0 -0.4322887524054306 0.10601711488203522 0.2162012662203739 0.5945685557393159 0.0062693070706630796 0.011309063344461278 0.012430962212991496 -0.009454767705541689
 0.09815622636815263 0.5265748250153547 -0.7306211465227259 0.1411702776674914 0.006692369610120783 0.005081694392601631 0.019032013077935915 -0.004546988233944267
 0.07297967337914929 0.06483074829106134 -0.012475427981128072 0.27780305963668134 0.13583793207850553 0.35030593532345927 0.015590268171751643 0.12424984750487128
 -0.025432345434699664 0.052759886004045464 -0.202618816393623 -0.0066847399549316705 0.05525502010868187 -0.08156311121928829 0.20435254461597685 0.6609550997160634
68670190000.0 -0.544643917649277 0.37658110901903935 0.23264115158227053 0.46670060842096 0.007475484896071595 0.005424841462266691 -0.0025116658129602566 0.004443949826698598
 0.2579003669204258 0.42554101362968677 -0.7107815455777495 0.2945810564297484 0.0027807013212985286 -0.020234945092275306 0.023595593242478185 -0.004298520736850561
 -0.04485234816336753 0.06497689619009916 0.1098430706304949 -0.14539416351828124 0.2395767272454093 0.6416016928229925 -0.2841188471956539 -0.06335190775085753
 0.055871371691368944 0.011113577772428235 0.25183754153984356 0.280210429966925 0.008675173155698806 -0.06102144163824224 0.08236434504261794 0.8409762691284834
68740180000.0 -0.9537282724743933 0.13972895965528484 0.39046997736863187 0.6237826699784489 0.0008045161377536505 0.003052784109958322 -0.03393894619656554 0.00918399841079699
 0.42229138240864245 0.5470085873050375 -1.0156934276412277 0.00990449749402734 -0.003232854939921394 -0.006807548746267993 0.007371881475237474 0.006608841490236385
 0.07585395759479435 0.08468516608661487 -0.03628597362250208 -0.04159084970492829 0.33941259642946275 0.748706727546829 -0.29881045747370144 0.15111091208967625
 0.11043163981761205 0.05200118515339101 -0.1696731620656015 -0.21971998747277197 0.0398212090571069 -0.14948521930551323 0.047574790004238775 0.5991125572040628
68810170000.0 -0.8077031115780587 0.005479618546028296 0.1930062898602692 0.3583092415427981 -0.0020516916520434674 0.009787947550446595 0.0006707519287224399 -0.0012037424181838207
 0.22587883540450424 0.5148595497922238 -0.7544357633629518 0.0822723831450402 0.00345123198842838 0.006208098591341745 0.03806152285023979 0.02351727047113914
 -0.03358820347641748 -0.1397072706933243 0.10016269325238311 0.16115661747159143 0.24967206367578415 1.095523371397396 -0.040081017113576346 0.3738002367424125
 -0.004932888104349608 0.01780032781735273 -0.21115284456616132 0.03370819759703968 -0.13464107604123055 -0.07796332895219575 0.6102216257895041 0.37537223826280847
68880160000.0 -0.6337514242724692 0.41245521523551254 0.11675936348498024 0.4554231190265005 -0.0008606387365570022 -0.0036776661147547123 -0.009960679663273854 0.0052687010871290026
 0.15657109661413987 0.4855388073833452 -0.7952848577970613 0.06741099664992971 0.015934077584930414 -0.0070011527856193665 0.002570883036683199 -0.007721802931857985
 -0.018273473198794313 -0.021988241162630488 -0.009788266848335885 -0.02056178085589803 0.30204619956934836 0.6794438297435588 0.02906159523463618 -0.3514227564663009
 0.05010689556651389 -0.07097896528373104 -0.02812022334340037 -0.05079376521388729 -0.08732830170064546 -0.15119367008935358 0.1639425950037887 1.0349712203240364
68950150000.0 -0.7340347785280227 0.2128039905558828 0.22798250489408214 0.5341538849867297 0.005109229369324875 0.007475175281117827 5.118602839448051e-05 0.024632447302253956
 0.1559291488045322 0.42329227260858027 -0.9329182534769419 0.17930897053403008 -0.013475850997191667 -0.03421569443299519 0.005989060834009901 0.03639907428324676
 -0.07740533865068537 0.06072692339272417 -0.036164958709322445 -0.12112451193460594 0.2274835621391139 0.6309734652068272 0.036046254664496416 -0.05952051930923334
 0.009651354540989318 -0.05235252722170925 0.27688897782289096 -0.13924932498656037 0.020201339433540796 -0.021922716903050293 0.3212777532726917 0.8190706574645754
69020140000.0 -0.6917842124491751 0.18117908757227585 0.10785040309809953 0.35025365939723857 -0.007396397444159016 -0.002642949889207379 0.014432030808443684 0.0016923398323685308
 0.07654258662078745 0.39738252750909775 -0.5491373639064219 0.20247967801953431 0.012714263084698306 -0.0024141081741631903 0.011671106702332474 -0.003652624732842612
 -0.02009717262313747 0.11760049103446107 -0.34787813309212556 0.2610784775564597 0.4372766238803559 0.7778607832512949 -0.01735784729418191 -0.4447328558473163
 0.032400590905519576 0.021788985294475698 0.14529321953161434 -0.1008180605373956 0.24134750589079304 0.038817002404316736 0.05154889544861293 0.5136474902116728
69090130000.0 -0.6518159136481101 0.18483487943208698 0.0817876854675539 0.6100994400009553 -0.013139883434522007 -0.014335647421111033 0.005614708982349412 0.015093038534940786
 0.09926491869883555 0.6178195192040814 -1.0054970038427513 0.002267364790095833 0.013586087062439058 -0.013260185773445381 0.000137423508623959 -0.010788529903486428
 -0.07076133584380215 0.09035045146351385 -0.06740511337948234 0.03238050479708281 0.13450326588830663 0.6434380982688687 0.11063152210117125 -0.10208475583828194
 -0.014984729970538131 0.04386021715485849 -0.03542134772793316 0.011570775608287396 0.23672584929339047 0.04983362070750435 0.604321970360151 0.7494868304968509
69160120000.0 -0.820327725404381 0.22124771558135578 0.09521431717610682 0.4698301947199181 -0.0034174110399754153 -0.004957854033232503 0.00538688685883242 0.005881980145917892
 0.05911915362837725 0.5293308220680856 -0.6859545863108091 0.2479898663276556 0.004092344317605076 -0.009476592006596308 0.004381848226894027 -0.013760320914354647
 -0.06186419993737176 0.004841875781749291 -1.7116954546124113e-05 -0.0026821166126465503 -0.09691859378633887 0.7106424118309632 0.11171738119252263 0.41156384890181935
 -0.08128937223704578 0.011081350652253486 0.19834560900993775 -0.010353840026603495 0.1468875996392617 0.16992218394957972 0.11656685421193846 0.5717658898019365
69230110000.0 -0.9186130785182391 0.41949416524420124 0.14855989466029243 0.47109810684824094 -0.007563199161304923 -0.01688267767596531 0.0072682195912466725 0.0021327644870488055
 0.1611075589429215 0.49174609269119657 -0.6446036947810724 0.09040270269747726 -0.010351465344537458 -0.01569435057850367 0.01867869796863137 0.005518789583498378
 0.009575355073181456 0.07910980000144835 -0.1992153347770162 0.08030263578925502 0.30125017967640705 1.1123451371980868 -0.04830550123703998 0.007109446961871591
 0.17432135730068973 0.08988493750892589 -0.12380869489375225 0.11748924314707274 0.01676052160838003 0.22117246825051212 -0.07517770391116106 0.5651272178597664
69300100000.0 -0.7493609172493693 0.04449267939199469 0.2633829615845701 0.3549593528779301 0.014363290681290442 -0.004063773426077493 -0.01070816102385402 0.007633630788007559
 0.3097676123222346 0.37193017625571234 -0.6547477034646418 0.5372840082925268 0.002761182629913669 -0.0033363019515162 0.0005498259538983876 -0.008173481524160814
 -0.1011993284851951 0.1591715661520503 0.10731388577118846 -0.06040170741870687 0.4207738415581506 0.5657697695269878 -0.1469030238048187 0.35686240208225645
 0.024083194660404202 0.0013205498185327516 -0.08000855997616044 0.023802939297162075 0.07869248718956845 0.025623596374687453 0.2735591828109546 0.44994934250812396
69370090000.0 -0.9824239201566101 0.10211981297954602 0.3389498994487099 0.7581256393568148 -0.003641933401875792 -0.014889544020476996 -0.02991559944706453 0.025672939005163826
 0.2976469225130647 0.7952042245364015 -1.1150491359335948 0.6671845585557851 0.0025041799381066115 0.00158290739728689 0.010466847281150429 0.03715714579510507
 -0.09576783903794453 -0.028946847279795723 -0.16498785923647113 0.00892156058517641 -0.060485562338755045 1.041388136472222 -0.17723457155745997 0.38317199334485175
 -0.045243062196566194 -0.140110331516598 -0.22634501772167248 0.011326338993627562 -0.07385252968605586 0.15682310936395044 0.6543656255916878 0.8380869555617033
69440080000.0 -0.5410718369982392 0.12734271458802193 0.23809587767193122 0.47831052782887884 -0.0065827093250229035 -0.00911396861461488 0.020455691805365783 -0.012919826641424463
 0.18484865065614406 0.41148552052014287 -0.939297231718681 0.6193829874765886 0.00399458532360113 -0.01877797790412271 0.012021671746660413 0.014836101722298056
 -0.06535586392838483 -0.013754176137027478 0.01494738890694381 -0.43827456823082533 0.16707385025171764 0.9053399529059074 0.2823376656675634 0.12256017595510792
 -0.020589785533856573 -0.0716154370958868 -0.15891231596564084 0.11931604294193347 0.1639265322443664 0.20165480899995708 0.3488583097095099 0.8933224349656367
69510070000.0 -0.8642167327328378 0.0472188140825811 0.21866763492051702 0.4833689874092606 0.012127479410886724 -0.01647087958702337 -0.03515467574826457 0.015777681647973052
 0.29990310961823385 0.41919477733518956 -0.5924656821100776 0.32948998885148767 -0.03060429061663229 0.007351846732266066 0.04073499482179527 0.011593200215721603
 -0.039014106900673 -0.0819537409900909 -0.03859439109218091 0.17678748443728864 -0.11255533110656012 0.6750408022418474 0.12911045632923887 0.0887643248062397
 -0.11174149813469451 0.05692457419416754 0.030502890833676775 -0.12534130437785765 -0.19412824223275518 -0.4338531620134626 0.07199913181927554 0.5601738689998725
69580060000.0 -0.964005050886783 0.2907272006390381 -0.043147320420783196 0.2868333436684494 0.012255138233462944 -0.029376575174464025 0.02958124563989136 0.04299043943161488
 -0.04572029427033687 0.3089820806099688 -0.6367422096101583 -0.12450266052976486 0.0034070608141198466 -0.02281812552570703 0.05436207084519059 -0.0244978580340781
 0.014217852091480195 0.12509790308660804 0.11938876712687613 0.15727321689284995 0.2965855587133708 1.015104357180196 -1.0708045218712725 -0.9589948543250346
 -0.24786116523559001 0.02260729498103875 -0.0633367877811484 0.16799181179526973 -0.4335688743184947 -0.28034446712518707 4.097282523213029 0.19575275245183665
69650050000.0 -0.6766765555034516 0.3023717882766618 0.08796368921028198 0.31154768368428837 0.010547409541197953 -0.009404018773098835 -0.04643524198567953 0.0008761170322336537
 0.06838718831397629 0.3295589128157072 -0.3800862428157649 0.23719535356523688 -0.005238778749920688 -0.02173783149575131 0.010100281698280015 0.010456485075944013
 -0.1178786420149281 -0.004210552011965695 -0.05897970629342114 0.12756541829862234 -0.038099397594050045 0.22815833139575967 -0.13849519499908092 -0.3514070653045427
 -0.04025863585853435 -0.11120294465435818 -0.2582678505416544 0.034889807691267885 -0.2498114269394315 0.17288927552919028 -0.0702996762460822 0.6872303089780606
69720040000.0 -0.9339912570402382 0.019019634709570698 0.2827302866311419 0.4477364955414894 -0.004036209674670278 -0.018875289116890064 -0.011304366436121881 0.021149692396935805
 0.3604224863634259 0.3983027918356009 -0.5895311889694389 0.3005042793829629 -0.007709132006858864 0.004157919608909109 0.0032768213983842137 0.009510923287425106
 -0.09543917182337347 0.0870597020568661 0.11373082261263678 -0.03309938156674848 -0.08690746653457194 0.49252988105036327 0.2387649660961132 -0.35366157972942314
 0.17336325973352368 -0.15843040832191746 0.020500684355194487 0.07270985913742613 -0.2593067293150498 -0.27490706448844704 0.9679932180772414 -0.382455174677745
69790030000.0 -1.035050059769781 0.5652982073697542 0.0012468519395888449 0.5004497793307926 -0.03281697953911025 0.00203315950873259 0.032229109590668104 0.0014039888460626354
 0.05479180129639364 0.6553016676284719 -0.38463829461517174 -0.20004661142420946 0.023632623931893082 -0.024735106246857045 -0.010443214363612733 0.026544925332071225
 -0.04161239303349046 0.4727389953236778 0.396523281607415 0.1219142218853714 0.23570638238158334 1.2196489943226756 0.10905685693377579 -0.2772566370015699
 -0.30518407328433345 0.1383425935125228 -0.058675356864808396 0.20555246319688011 0.3684157060821891 0.03146591345714335 -0.4745521533595789 -0.14952282907453696
69860020000.0 -0.1446775507237012 0.4057616041524228 0.1668988380318562 0.19440811784713727 0.050939999112819406 -0.028088394292559753 -0.032527816108298906 -0.020982518672170436
 0.20620366129483422 0.22069512291112578 -0.7494469283976787 0.1160928418721872 0.035726954928201375 0.021704653810978487 -0.024070536619831488 0.03685491218760511
 -0.21700295691436966 0.07111031730498034 0.004058084513489541 0.30364016390779597 0.09632313367346534 -0.4806403226650875 -0.48433181680211124 0.6901274186151498
 -0.1920987284547444 0.10755447326225143 -0.616519045721151 -0.252705828603741 0.4000809078558409 1.2080062937584677 -0.8011502495004383 0.45058160782521034
69930010000.0 -0.7381528155814195 0.5305689970656183 0.10446005130548222 0.2459997004686953 0.006334019544960207 0.012118870335204595 -0.07222980602413172 -0.047390011231896116
 0.13233594349497782 0.23781350513821822 -0.28343601214428404 0.1479475620536366 0.016342960295134552 -0.0022965938237563743 -0.045185269243324486 0.007643651909925295
 0.00037100914026499336 0.036140080575656645 -0.05056031522728607 -0.22243244214316543 0.029582422786813254 1.3680817293301943 1.63849517265948 -0.7602617557744139
 -0.08745172798883255 -0.0714047479546829 -0.2789935457121855 -0.27961166427290024 -0.07416887124535937 -0.7108752970886015 -0.10476682763762243 0.06917285535282224
70000000000.0 -0.4461064593772235 0.8897134238507356 -0.026309583183345614 -0.3969920163680891 0.002176364840912866 0.03467305867474344 0.06846969394264486 -0.023472206073979943
 0.016128583765377354 -0.373315059704879 0.4988273657798851 -0.31464753582605043 0.031636199547284104 -0.002267522283171838 -0.040024964553552714 -0.047680625588353974
 0.5684407367851632 0.14201106409604386 -0.42862512866131836 -0.11464371857157485 0.2507442803837512 0.6073190287024944 -0.35938850737430145 -0.21752998234895166
 -0.08461930602749036 1.3639437444437919 -0.287514530764637 -1.7545426345000088 -0.7339052198963466 -0.14608402798579911 1.620679734681992 -0.20434094240512288
