! File created by SignalIntegrity v1.5.1: Signal and Power Integrity Tools
! https://github.com/Nubis-Communications/SignalIntegrity
# MHz S MA R 50.0
0.0 0.009031134297 180.0
2500.0 0.010950049651 -133.22655077748
5000.0 0.019494996964 -112.272633140379
7500.0 0.028327530777 -106.967006155393
10000.0 0.037040986844 -105.292578714661
12500.0 0.044932114394 -105.12543688723
15000.0 0.051474124267 -105.672131077152
17500.0 0.056440813266 -105.695063127873
20000.0 0.061179912057 -105.639345256056
22500.0 0.063463985873 -106.081990725626
25000.0 0.065068749748 -104.645784648775
27500.0 0.065628383446 -103.531717328626
30000.0 0.065565695782 -101.832763394489
32500.0 0.064731749429 -98.55997663646
35000.0 0.063800698794 -95.165854633827
37500.0 0.062638997326 -89.51101474026
40000.0 0.063133844618 -83.313142968788
42500.0 0.06428108479 -76.677259181252
45000.0 0.06657398142 -69.254369499133
47500.0 0.071663598777 -62.104010741475
50000.0 0.077186187908 -56.28599723642
52500.0 0.085262776899 -51.151637413794
55000.0 0.094824078556 -46.277042835231
57500.0 0.105106774033 -41.026971819804
60000.0 0.115927161236 -41.024972512812
62500.0 0.130466396536 -35.987727369044
65000.0 0.140227874081 -36.310139505394
