! File created by SignalIntegrity v1.5.1: Signal and Power Integrity Tools
! https://github.com/Nubis-Communications/SignalIntegrity
# MHz S MA R 50.0
0.0 0.011371688787 180.0
2500.0 0.013249713769 -139.067101510022
5000.0 0.021598303346 -118.339066595832
7500.0 0.030579907306 -111.449702546497
10000.0 0.039597720444 -109.035784863479
12500.0 0.047915607856 -108.207641841148
15000.0 0.054981964494 -108.420685054054
17500.0 0.060562247658 -108.276845758627
20000.0 0.066160086842 -108.283955379485
22500.0 0.069037272313 -108.885076190873
25000.0 0.071510550842 -108.010075512161
27500.0 0.072782563976 -107.645199818915
30000.0 0.073567130759 -106.935710563749
32500.0 0.073083240499 -104.959472352582
35000.0 0.072369953554 -103.409183722364
37500.0 0.070492154715 -99.762829991812
40000.0 0.06940372136 -95.960740216
42500.0 0.068792096333 -91.186252387594
45000.0 0.067549817734 -85.562164458126
47500.0 0.068716490838 -78.413725158813
50000.0 0.069594907488 -72.857807213091
52500.0 0.073227153617 -66.112624286177
55000.0 0.078227240266 -59.327928695696
57500.0 0.08277483289 -51.790582075431
60000.0 0.091784447106 -49.258246738852
62500.0 0.102897883427 -40.955391734929
65000.0 0.110708149898 -41.697525428183
