! File created by SignalIntegrity v1.5.1: Signal and Power Integrity Tools
! https://github.com/Nubis-Communications/SignalIntegrity
# MHz S MA R 50.0
0.0 0.997126038382 0.0
2500.0 0.991902144434 -12.645094812263
5000.0 0.986961063664 -24.669560029769
7500.0 0.974947412214 -36.28153904431
10000.0 0.967438017628 -47.517370449272
12500.0 0.958284322365 -58.460290632702
15000.0 0.950767361473 -68.744867496429
17500.0 0.938608540352 -78.737803681204
20000.0 0.935414739512 -88.469440766265
22500.0 0.925931616371 -98.1819517179
25000.0 0.915350362057 -106.944408222731
27500.0 0.91401588992 -116.34327734414
30000.0 0.904816818739 -125.436697013383
32500.0 0.896765117389 -135.099450979792
35000.0 0.881709479402 -144.130457930747
37500.0 0.877730214989 -154.447071521272
40000.0 0.864205892765 -163.78983197329
42500.0 0.854083095855 -174.323885531888
45000.0 0.849378958372 174.482275194535
47500.0 0.833543873623 163.675670892983
50000.0 0.818723959709 151.166221092285
52500.0 0.817582253068 138.881419157682
55000.0 0.801405329545 127.118092075788
57500.0 0.797853678791 114.379316146267
60000.0 0.786998182942 99.999281901817
62500.0 0.771637416828 91.40542498498
65000.0 0.77755642759 75.054523714691
