! File created by SignalIntegrity v1.5.1: Signal and Power Integrity Tools
! https://github.com/Nubis-Communications/SignalIntegrity
# MHz S MA R 50.0
0.0 0.999446373504 0.0
2500.0 0.990399689824 -11.969837111347
5000.0 0.985901726105 -23.350293589286
7500.0 0.973511594782 -34.415798065357
10000.0 0.966771521666 -44.856172429963
12500.0 0.956889189623 -55.22079941354
15000.0 0.946498707169 -64.840624023009
17500.0 0.936671744979 -74.495309861799
20000.0 0.928041885398 -83.533371190999
22500.0 0.920860180513 -92.598036425857
25000.0 0.907246330435 -100.81701419152
27500.0 0.906257252094 -109.513859590636
30000.0 0.895592827857 -118.030072765536
32500.0 0.889727344543 -126.708310783012
35000.0 0.875712360804 -135.319382395403
37500.0 0.865953233341 -144.276489141551
40000.0 0.861556661899 -152.515650346528
42500.0 0.851501735122 -161.986956878171
45000.0 0.836916382848 -171.721722441986
47500.0 0.833533990103 178.327892007462
50000.0 0.824322780492 168.079945942961
52500.0 0.819619307915 157.534681956011
55000.0 0.810812972569 146.320424571885
57500.0 0.803359841361 135.511356249435
60000.0 0.796432902286 121.288378642927
62500.0 0.792783764077 113.420832003467
65000.0 0.766170784817 95.591165222396
