! File created by SignalIntegrity v1.5.1: Signal and Power Integrity Tools
! https://github.com/Nubis-Communications/SignalIntegrity
# MHz S MA R 50.0
0.0 0.996978272872 0.0
2500.0 0.995211312769 -7.233463224505
5000.0 0.988483642394 -13.919771095499
7500.0 0.982821055927 -20.51588544887
10000.0 0.977250838022 -26.839170501959
12500.0 0.972302658243 -32.941822548801
15000.0 0.968047627966 -38.817875943634
17500.0 0.966514635082 -44.324947084096
20000.0 0.962237285142 -49.683585168909
22500.0 0.959898715404 -55.138641278967
25000.0 0.955100756671 -60.056984409459
27500.0 0.953456604294 -64.7239658799
30000.0 0.946921259445 -69.450236717345
32500.0 0.946105511243 -73.779908235862
35000.0 0.947465414815 -77.934367939366
37500.0 0.945190227504 -81.926383781023
40000.0 0.943461268709 -86.328415794216
42500.0 0.94645458122 -90.043325921055
45000.0 0.944032009984 -93.834908457951
47500.0 0.941059287045 -97.386458546431
50000.0 0.941511848397 -101.365743094514
52500.0 0.955086796687 -105.096770719885
55000.0 0.94432318935 -107.819107087592
57500.0 0.953352244848 -111.446376020695
60000.0 0.965710972901 -116.15265164238
62500.0 0.974790688645 -119.700785657121
65000.0 0.966902012489 -121.896577851348
