! File created by SignalIntegrity v1.5.1: Signal and Power Integrity Tools
! https://github.com/Nubis-Communications/SignalIntegrity
# MHz S MA R 50.0
0.0 0.965148425113 180.0
2500.0 0.951259242923 171.965625916732
5000.0 0.942593590386 165.296172378812
7500.0 0.936124350792 158.303633820606
10000.0 0.930474096939 151.374286381875
12500.0 0.926692220759 144.128796092167
15000.0 0.924831613125 136.46906285683
17500.0 0.920444043648 128.563401476871
20000.0 0.917008760285 120.811632101573
22500.0 0.912199280709 112.348344398744
25000.0 0.907922895853 104.01230620333
27500.0 0.904311145229 95.001502899707
30000.0 0.896729853392 86.132886943944
32500.0 0.891968504785 77.116568287223
35000.0 0.88997786434 68.343094923301
37500.0 0.882858288296 59.168776472874
40000.0 0.873032083678 50.274572041256
42500.0 0.884317670623 41.895959208345
45000.0 0.866760785492 33.627118619359
47500.0 0.880946188823 25.083367436366
50000.0 0.872097416978 16.883968376308
52500.0 0.87300168723 10.740020854166
55000.0 0.862705147941 2.131082507237
57500.0 0.862966649753 -3.790878230705
60000.0 0.855337536931 -10.43272369121
62500.0 0.843069674784 -12.295371408684
65000.0 0.886469715719 -24.128631991899
