! File created by SignalIntegrity v1.5.1: Signal and Power Integrity Tools
! https://github.com/Nubis-Communications/SignalIntegrity
# MHz S MA R 50.0
0.0 0.974995335235 180.0
2500.0 0.967134520681 174.049256871599
5000.0 0.959068683644 169.04105522954
7500.0 0.95427729937 163.829309190588
10000.0 0.949550424726 158.796211335844
12500.0 0.951034930463 153.384588333892
15000.0 0.948536210923 147.75342319715
17500.0 0.947283200706 142.030391368915
20000.0 0.945934226031 135.986458287835
22500.0 0.942590779296 129.862584174108
25000.0 0.938241494106 123.310474844222
27500.0 0.933497692014 116.6784236307
30000.0 0.931552309582 109.856069489849
32500.0 0.926134901322 102.757370671457
35000.0 0.919679112493 95.723467958231
37500.0 0.914024578734 88.446211769634
40000.0 0.912812450692 81.175620965341
42500.0 0.903789078832 74.026275748281
45000.0 0.900742149798 66.363664141733
47500.0 0.893250959911 59.457135318058
50000.0 0.886563604996 52.205465586395
52500.0 0.877789946372 45.896267197995
55000.0 0.875257629062 38.517956592264
57500.0 0.865159979806 32.974259632325
60000.0 0.861654549396 27.330964179836
62500.0 0.864061768187 22.099957360451
65000.0 0.865366315299 17.775079654553
