! File created by SignalIntegrity v1.5.1: Signal and Power Integrity Tools
! https://github.com/Nubis-Communications/SignalIntegrity
# MHz S MA R 50.0
0.0 0.970884138805 180.0
2500.0 0.962305611289 173.152174075407
5000.0 0.953795517005 167.347669286155
7500.0 0.947131965863 161.28332512514
10000.0 0.942569733442 155.451652337043
12500.0 0.942623755331 149.131505034894
15000.0 0.940301292187 142.653623041079
17500.0 0.938116823794 135.965304317753
20000.0 0.935941563162 129.030173982073
22500.0 0.932489917244 121.878044208179
25000.0 0.927068486809 114.376256440209
27500.0 0.922281774721 106.697444681593
30000.0 0.91930038461 98.914070113326
32500.0 0.91473528079 90.794252713793
35000.0 0.906938849813 82.908195549738
37500.0 0.903035158729 74.734180214775
40000.0 0.901103914653 66.644961504983
42500.0 0.895016892585 58.796778216768
45000.0 0.890231250004 50.497143192612
47500.0 0.88625421592 43.089494337091
50000.0 0.87891844484 35.345475487458
52500.0 0.876276488758 29.012970773625
55000.0 0.869638534201 21.219302328895
57500.0 0.866115705509 15.986903403679
60000.0 0.867694303726 9.84679332406
62500.0 0.871712582077 5.377137568728
65000.0 0.874461935382 -0.506075868933
