! File created by SignalIntegrity v1.5.1: Signal and Power Integrity Tools
! https://github.com/Nubis-Communications/SignalIntegrity
# MHz S MA R 50.0
0.0 0.014291785027 0.0 0.993487892432 0.0 0.992710987542 0.0 0.013236477057 0.0
2500.0 0.025909472202 -54.011534675449 0.96974235483 -8.028813482272 0.96717241375 -8.021153022189 0.026416100651 -50.87589926231
5000.0 0.044885446479 -79.817232692861 0.979078962115 -14.813645778442 0.978839751882 -14.911556908532 0.043804543864 -83.38797102021
7500.0 0.062154555491 -93.954276087529 0.955197476682 -22.314892201856 0.953454425494 -22.276808419109 0.058483142295 -95.716469359294
10000.0 0.0773167599 -105.095846105801 0.964616514965 -28.656973171946 0.965135662286 -28.734959697207 0.078855265597 -109.90105465911
12500.0 0.088162553769 -114.246271921367 0.944685113115 -36.211201049045 0.943239820226 -36.155070755712 0.084329897162 -117.564017461289
15000.0 0.094388019997 -122.06767268241 0.954089752686 -42.275060283808 0.955065360204 -42.338598962678 0.092190423402 -128.815941437544
17500.0 0.097014542391 -128.451646712099 0.939349509475 -49.979508281731 0.935040050172 -49.972153439705 0.08916340628 -136.982572213493
20000.0 0.095897816938 -134.390677117826 0.945294214387 -55.662721666324 0.946491275628 -55.818227588093 0.092072438977 -148.421340313581
22500.0 0.090769369245 -139.418263160444 0.934376150822 -63.717787299944 0.929998857365 -63.761946470918 0.080302210574 -152.907222412032
25000.0 0.080984975063 -143.764670432873 0.935974465609 -69.226273415102 0.938445327622 -69.270723886759 0.069454443484 -162.606934468232
27500.0 0.068710169514 -144.446136345103 0.929459124093 -77.403104920002 0.926279631766 -77.41501826058 0.053038036187 -175.007804880753
30000.0 0.055816520929 -143.978965380875 0.926694225956 -82.808963060287 0.929645850416 -82.786401237406 0.040392791193 174.636269794906
32500.0 0.042347556551 -132.820522637888 0.926218606633 -91.149731147533 0.921821047448 -91.13775952965 0.018635852333 154.822132407984
35000.0 0.035065256663 -113.513706316151 0.916157741891 -96.340543588452 0.920079699819 -96.24926829819 0.01396795513 75.359381696556
37500.0 0.038110197725 -85.049526801465 0.922446054405 -104.622803592129 0.917713859118 -104.760192824823 0.029026732309 5.719947593548
40000.0 0.050429036511 -69.487735241431 0.906540263396 -109.763811086344 0.909490249226 -109.620739763513 0.045867120934 -18.404723413566
42500.0 0.068744703144 -63.832659624977 0.919018832411 -117.74520795622 0.912753561833 -118.233114049436 0.072964116131 -18.124117783234
45000.0 0.083238532041 -63.604811586836 0.890477999467 -123.07868910803 0.897951642877 -122.639098173939 0.084215355045 -29.645951670721
47500.0 0.102618324839 -65.148634715219 0.918206385671 -130.720782353501 0.906259327951 -131.426175752078 0.118888346658 -41.305760587577
50000.0 0.11387929805 -70.192918507783 0.879725317629 -136.199295163193 0.880428157563 -135.609136341987 0.128050365492 -45.919414354789
52500.0 0.127345646796 -74.806341230519 0.910851274428 -143.652493145009 0.903888655939 -144.240308917118 0.129657924579 -44.569862740517
55000.0 0.132383181193 -81.026972718591 0.857029676818 -148.702120303556 0.865351035238 -147.916876136101 0.145734914301 -70.543025536108
57500.0 0.135403054489 -86.111156105952 0.914394466916 -155.116227290755 0.913027308465 -156.549022505314 0.154873537163 -70.055900798199
60000.0 0.13415713793 -94.116954446352 0.840307874651 -162.128406447371 0.846992781012 -159.835850146601 0.145711123657 -80.38323721692
62500.0 0.127176172123 -98.654418882288 0.936986480855 -167.121501765017 0.936316179747 -169.045221219755 0.106384468115 -86.743454575952
65000.0 0.111385311018 -109.287788761016 0.820450376539 -175.079989694806 0.815003966722 -170.922399580258 0.138320278725 -103.506704356037
