! File created by SignalIntegrity v1.5.1: Signal and Power Integrity Tools
! https://github.com/Nubis-Communications/SignalIntegrity
# MHz S MA R 50.0
0.0 0.01295001564 180.0 0.000947471112 0.0 0.000150537544 0.0 0.008472656768 180.0
2500.0 0.014082993733 -137.22064379517 0.00100067465 152.325117793063 0.000604826392 82.015515449871 0.010321596377 -132.193384010014
5000.0 0.023735664076 -121.86449841185 0.001523196295 37.115674604479 0.001304835995 66.352429395745 0.0218148066 -104.269620091576
7500.0 0.032569785067 -111.827881842827 0.001322314816 89.449793095273 0.001666791083 66.239709165001 0.031433846077 -106.543472818411
10000.0 0.042221295346 -111.797999805905 0.002936964072 39.774513254988 0.002379761642 58.772540332606 0.039360465956 -102.23402837718
12500.0 0.050878114382 -108.681716485355 0.002436132743 66.378891415817 0.002984781148 46.781709762212 0.050019962987 -108.242027169084
15000.0 0.058459423841 -110.702115214348 0.003984111111 37.330946295028 0.003421048226 40.15825057136 0.057535140747 -108.91070649333
17500.0 0.064742710066 -108.845583369744 0.002827947171 43.659583387303 0.004004119345 35.357472588185 0.06166850664 -111.393790284833
20000.0 0.070668458734 -110.572722706013 0.005342088104 14.921513696988 0.004235143305 26.627466114989 0.065145188982 -116.03853023631
22500.0 0.074759808335 -109.734608898657 0.004046905346 21.854405047225 0.005113081559 20.966972561687 0.06817829464 -114.27810891983
25000.0 0.077466979894 -110.744358598676 0.0060796475 7.242923767667 0.005527816685 13.25458516898 0.067530608297 -113.928301188
27500.0 0.080100887894 -109.327654553896 0.005001409261 3.233150990036 0.006013672517 0.11865988983 0.067027262163 -115.549710798083
30000.0 0.080734271476 -110.748998996234 0.008162330972 -0.30503185993 0.006535212579 -3.637390932471 0.066825180055 -114.186853155237
32500.0 0.081767824377 -108.3430980825 0.00547802522 -14.192628620803 0.007216393693 -8.803785091966 0.061912929966 -115.227192707117
35000.0 0.080494437258 -109.204740834927 0.008360787299 -15.855692568506 0.007149027045 -20.694538201581 0.051490056769 -113.685364452135
37500.0 0.080090778464 -105.595973691159 0.00667951234 -34.026607103662 0.007909827624 -25.157098834082 0.049348277906 -109.672224464858
40000.0 0.077135403737 -105.324166015046 0.010015133388 -28.385566117314 0.008946787611 -34.359161420256 0.049109942427 -95.16942822816
42500.0 0.077344603118 -100.796826264025 0.009259896046 -38.537411357998 0.00844226208 -38.278971702488 0.040501425012 -97.374580368804
45000.0 0.072390768551 -99.188926218844 0.008510049112 -32.254727731157 0.008981517625 -51.471167495102 0.043751677564 -67.851856015826
47500.0 0.073780231745 -92.488148374698 0.011134521876 -58.353376056238 0.009901141152 -54.382815298459 0.054085056037 -57.737346936342
50000.0 0.06847872988 -90.078483886611 0.0110162648 -54.155688149078 0.009693738304 -59.994327066278 0.050192411424 -44.728918764095
52500.0 0.07165084243 -82.741788208579 0.010758477596 -92.267218072835 0.010019034821 -72.010860237285 0.062766983329 -37.214409160115
55000.0 0.066701425371 -77.076393217459 0.004859484133 -71.846526415727 0.011056645315 -78.427545393795 0.061853989047 -52.549291727062
57500.0 0.072773007263 -68.209500800369 0.015953030351 -95.814394561462 0.011956492099 -90.19285299676 0.078634951738 -43.593210886263
60000.0 0.069507879914 -62.890972757031 0.013456422532 -53.423784657456 0.011310667462 -89.688213018827 0.08542441024 -36.493543396496
62500.0 0.083186023011 -54.601615670211 0.023709405504 -110.676357159358 0.012982265879 -92.15062937921 0.078369199283 -29.548330820673
65000.0 0.07727418076 -45.332068772501 0.008080040066 -44.019146232503 0.013168460476 -105.835373843337 0.103481986211 -34.027093354972
