! File created by SignalIntegrity v1.5.1: Signal and Power Integrity Tools
! https://github.com/Nubis-Communications/SignalIntegrity
# MHz S MA R 50.0
0.0 0.010439074143 180.0 0.000415329381 0.0 0.000206041006 0.0 0.007876731865 180.0
2500.0 0.013998259384 -141.418017047881 0.000419111621 108.616762053672 0.000613227489 68.03468061869 0.007111781807 -117.618929143789
5000.0 0.021083085426 -116.232583123367 0.001218558971 58.345065225977 0.001236893478 71.909257597693 0.018131789419 -108.115845369776
7500.0 0.0310701174 -112.953785063007 0.001700676392 69.965692605419 0.001721761867 62.3352859873 0.026284426309 -100.380746563878
10000.0 0.039112963232 -107.834899037695 0.002525619369 48.257832546183 0.002365678259 52.516752801125 0.037338996584 -102.744360697567
12500.0 0.048454177711 -109.168052618709 0.002612452888 47.995076338977 0.002842989568 44.002112926778 0.042650521866 -104.666824719093
15000.0 0.054400846227 -107.583079392186 0.003909055932 40.35973293147 0.00330639862 34.961952158079 0.048477790736 -107.766580656372
17500.0 0.061206720959 -109.008601198689 0.003565571821 29.232740265175 0.003620320987 28.347188370177 0.053188766142 -110.181909357755
20000.0 0.065467549627 -107.613397999498 0.004543532547 26.532694965796 0.004204661506 17.438349887376 0.058043182242 -114.731516340512
22500.0 0.069807035059 -109.494298510683 0.004129359357 13.151128032821 0.005211752382 14.019931970412 0.056482756803 -114.425217878086
25000.0 0.070694685001 -107.412319723321 0.006142993276 8.050745949835 0.005471384051 7.533488604543 0.054200645082 -111.818757215397
27500.0 0.073671759998 -108.209839309031 0.006544373885 -8.008073101077 0.005882778183 -3.739330089239 0.052765503398 -110.758179753538
30000.0 0.072616984572 -106.367534195904 0.006651724409 -11.477398841823 0.006112095476 -13.667433911451 0.050042802967 -111.290154280247
32500.0 0.074100708533 -105.529681969546 0.005625192402 -21.190413140839 0.006988817203 -26.054900303711 0.044009960303 -111.133631179762
35000.0 0.071284926391 -102.805689839134 0.008586148479 -25.34212000156 0.007245241533 -28.138502693979 0.041780991009 -103.804415251645
37500.0 0.071644039397 -100.410955948421 0.008329758815 -39.718553474552 0.008172346859 -40.870330081017 0.030325948922 -93.461280354637
40000.0 0.06819454538 -95.217882168762 0.009071675049 -53.510493839535 0.00776775146 -46.17847113741 0.040224289575 -82.206239204474
42500.0 0.070079292177 -91.998995464195 0.009615165301 -51.659867371842 0.008283596668 -56.140933207212 0.03468226982 -58.10743102185
45000.0 0.066216708689 -84.570676912566 0.010930781366 -55.700505606142 0.009265199866 -61.778233746014 0.051532491084 -51.953374427104
47500.0 0.070113937927 -79.530811837396 0.010550431783 -67.516484535476 0.008960093911 -64.194534590704 0.059583574295 -43.148428885669
50000.0 0.068137434283 -71.515546347325 0.010348740303 -90.603275652944 0.009587765827 -75.888829501571 0.068464835825 -29.749588705364
52500.0 0.074806874594 -67.58583592466 0.011171959668 -86.627647721573 0.009827144633 -97.003131581381 0.080881060068 -29.587910743047
55000.0 0.076609430792 -57.564860066932 0.011785048251 -85.931755896379 0.011402267614 -93.854658485128 0.08444800907 -40.779539707282
57500.0 0.084574063435 -53.815363939924 0.009857359515 -65.149855238316 0.010765292028 -104.578400933236 0.096874233084 -30.123262251907
60000.0 0.08966443857 -46.849635694756 0.009587175684 -93.803438726186 0.011789199505 -115.755893579523 0.122635795892 -32.171144777927
62500.0 0.105415184052 -43.938560057808 0.013605499909 -103.478481300063 0.013211977615 -110.251512098962 0.104283979986 -25.921734355782
65000.0 0.108428201246 -35.619996176227 0.010365262713 -98.605217930132 0.011374687635 -121.70851760839 0.127424042605 -41.102615263116
