! File created by SignalIntegrity v1.5.1: Signal and Power Integrity Tools
! https://github.com/Nubis-Communications/SignalIntegrity
# MHz S MA R 50.0
0.0 0.008007765399 180.0 0.000339315997 180.0 6.6360516e-05 0.0 0.004365946501 0.0
2500.0 0.01171256814 -136.69252155267 0.000875963532 49.401303047421 0.000706734195 62.661917735814 0.011476477864 -32.17661040441
5000.0 0.019026267375 -109.544174924024 0.001037434264 82.943274378035 0.001170553969 71.845883693909 0.019383047553 -56.144396571501
7500.0 0.028800970442 -108.820380645235 0.002139013007 51.521789136415 0.001869929719 54.963809988897 0.025651649863 -71.227427082759
10000.0 0.036566323338 -103.83462208322 0.002285606306 54.313156298234 0.001992012326 50.001711679242 0.03298242064 -79.799944650445
12500.0 0.045482342454 -106.281637699792 0.003332829572 35.826395695172 0.002817960613 39.053299537809 0.041214916756 -85.636777171653
15000.0 0.050873242604 -104.661003034273 0.002825444929 37.054058739529 0.003245191006 31.07063065553 0.042593245134 -90.668270922816
17500.0 0.057118462238 -106.580158715094 0.004676557456 19.465423194128 0.004051750614 21.253992460991 0.043170528514 -94.118986743555
20000.0 0.06045130552 -104.817212408579 0.004320938672 17.971687524981 0.004330878508 13.963209575278 0.04723479253 -97.736315605724
22500.0 0.064279637797 -106.835137177509 0.004467290257 -0.445508880097 0.005047434702 5.853378335233 0.044793945695 -97.895770599309
25000.0 0.064212005521 -103.888029633583 0.005552827084 -4.078458293265 0.005598550993 -2.09314398161 0.043863026195 -97.326452508987
27500.0 0.066559218495 -104.264001331701 0.006743766186 -14.907693932305 0.006045242091 -12.442989425589 0.040097616701 -87.899265631995
30000.0 0.064584577427 -101.06616260174 0.005467112603 -20.668359430588 0.00656982774 -20.703810696793 0.036036612072 -81.980720223867
32500.0 0.065770377345 -99.352596080364 0.007065706294 -23.527608839233 0.007227753513 -30.699397430169 0.037329868001 -75.478314152677
35000.0 0.062724070745 -94.283658669058 0.007776225532 -47.439082449345 0.00741592181 -38.536675948529 0.036070439286 -59.455622702334
37500.0 0.06375217912 -90.478044044341 0.007283579144 -42.403851063565 0.007589852029 -50.175797235156 0.040783618492 -48.807246236462
40000.0 0.062028844985 -82.192585168221 0.009171547846 -62.198250801279 0.008570865056 -59.256026752973 0.055266009409 -34.322357649331
42500.0 0.065417081409 -77.886060251876 0.009219244244 -66.340455092838 0.010056867742 -62.649597941646 0.052824790665 -25.379705988475
45000.0 0.065488889268 -67.862805319184 0.009591764177 -102.868000972184 0.010015303581 -78.911126831518 0.063967894209 -33.22806680539
47500.0 0.07277649543 -63.547240182966 0.008613982539 -83.329226194821 0.010072321154 -78.81362685259 0.087065505227 -24.030429055417
50000.0 0.076096199727 -54.703101709551 0.007945578808 -94.813011652443 0.00992197687 -90.61265115198 0.098415332424 -30.125196873371
52500.0 0.086483525424 -52.762667876461 0.009093612561 -98.860011156165 0.01120856992 -100.847397776944 0.106445243812 -22.269933606452
55000.0 0.093576621458 -44.52224668948 0.013301117201 -129.678717192035 0.011919221756 -114.073713129594 0.122467909134 -33.631283942378
57500.0 0.106580363614 -42.901460524676 0.009793230272 -91.021200179995 0.011503337486 -127.181486546653 0.132199930321 -35.977372350086
60000.0 0.114008908276 -38.883674183694 0.016160586036 -146.650188419814 0.011804633754 -123.897784915781 0.151909685535 -33.093478999379
62500.0 0.13301529674 -38.493923118919 0.013832069857 -106.888056499739 0.010631425848 -132.925403537075 0.150068434988 -35.706568608175
65000.0 0.137408190263 -32.539561393951 0.026646638296 -153.615746552255 0.013004535559 -141.814646484665 0.137403190824 -33.883145388194
