! File created by SignalIntegrity v1.5.1: Signal and Power Integrity Tools
! https://github.com/Nubis-Communications/SignalIntegrity
# MHz S MA R 50.0
0.0 0.00458376269 0.0
2500.0 0.011304807144 -32.854759312787
5000.0 0.019468495835 -55.547512619041
7500.0 0.025645385249 -71.723187809666
10000.0 0.032934882452 -79.416978138064
12500.0 0.041308506956 -85.928201983144
15000.0 0.042459918979 -90.406911088579
17500.0 0.043338656979 -94.35006422477
20000.0 0.047034256058 -97.553566116066
22500.0 0.045018112335 -98.06548783113
25000.0 0.043616980089 -97.172600409732
27500.0 0.040349053315 -88.096187974827
30000.0 0.035770432015 -81.746321570551
32500.0 0.037613649176 -75.719004451178
35000.0 0.035799347314 -59.104449050406
37500.0 0.041061070359 -49.169768811935
40000.0 0.055005748157 -33.984026716006
42500.0 0.053101921211 -25.781794422624
45000.0 0.063560994359 -32.932093127419
47500.0 0.087520256932 -24.289373315753
50000.0 0.097789667957 -29.931350163824
52500.0 0.107200374127 -22.488314249794
55000.0 0.121403066691 -33.544771379852
57500.0 0.1336394793 -35.980115304072
60000.0 0.14981587309 -33.140361696934
62500.0 0.153677878319 -35.467975751549
65000.0 0.120654794293 -30.074849564304
