! File created by SignalIntegrity v1.5.1: Signal and Power Integrity Tools
! https://github.com/Nubis-Communications/SignalIntegrity
# MHz S MA R 50.0
0.0 0.999071550825 0.0
2500.0 0.990778927699 -10.903450018759
5000.0 0.988517234941 -21.141059540062
7500.0 0.97822077819 -31.262655411824
10000.0 0.97454023165 -40.681606838653
12500.0 0.966178951051 -50.086867415422
15000.0 0.961514989202 -58.895245909325
17500.0 0.952579761151 -67.51856639737
20000.0 0.947584553668 -75.579001150326
22500.0 0.945124468303 -83.6781822628
25000.0 0.935387406902 -91.052521344858
27500.0 0.93791241907 -99.07047487801
30000.0 0.928521974305 -106.250502001282
32500.0 0.926745925326 -113.826613979155
35000.0 0.916275627817 -121.043012904085
37500.0 0.91339860856 -128.237754129727
40000.0 0.90141615968 -135.252242473669
42500.0 0.899269601943 -142.804149773817
45000.0 0.897060441775 -150.326194064255
47500.0 0.89336621183 -157.811596854141
50000.0 0.890126204426 -166.190597699846
52500.0 0.879570358757 -174.7963171213
55000.0 0.88121501429 176.268013261083
57500.0 0.883537550552 167.673675560263
60000.0 0.864536476085 156.843395520234
62500.0 0.881473651947 147.511568809578
65000.0 0.83662849383 136.314028111592
