! File created by SignalIntegrity v1.5.1: Signal and Power Integrity Tools
! https://github.com/Nubis-Communications/SignalIntegrity
# MHz S MA R 50.0
0.0 0.97753109419 180.0
2500.0 0.970114163875 175.004403955266
5000.0 0.964032111175 170.881719231936
7500.0 0.959362774637 166.551108923949
10000.0 0.955995812714 162.405916533049
12500.0 0.957431080312 157.904227433599
15000.0 0.956182400259 153.208890630616
17500.0 0.954779357583 148.433808657862
20000.0 0.955217420288 143.419901437669
22500.0 0.95116418278 138.258960200262
25000.0 0.948357522592 132.788729223162
27500.0 0.943433989999 127.146635983307
30000.0 0.942866874744 121.416286718532
32500.0 0.937188081232 115.326719588655
35000.0 0.932206351846 109.297314541915
37500.0 0.925595422851 102.937192998466
40000.0 0.924513555047 96.651072301439
42500.0 0.914711887614 90.258682347292
45000.0 0.911868655633 83.426202453178
47500.0 0.903406794212 77.063527692282
50000.0 0.896253990406 70.511313640697
52500.0 0.884582516804 64.373894868971
55000.0 0.883344158527 57.595144584569
57500.0 0.869583804824 51.896237676783
60000.0 0.861156630466 46.651489274586
62500.0 0.860709023872 40.823235480359
65000.0 0.858978218711 37.164059271274
