! File created by SignalIntegrity v1.5.1: Signal and Power Integrity Tools
! https://github.com/Nubis-Communications/SignalIntegrity
# MHz S MA R 50.0
0.0 0.013818954861 180.0 0.000245004057 0.0 8.3584599e-05 0.0 0.005477263871 180.0
2500.0 0.015234097175 -139.68776263355 0.000641626786 100.109463075843 0.000650704557 79.737438021434 0.009767490707 -126.33509989148
5000.0 0.024598108233 -123.589707783162 0.001547276917 65.31307199551 0.001106484459 74.999075201163 0.018166684085 -103.743803902962
7500.0 0.033462866737 -113.58891260313 0.001354166611 75.652988054262 0.001831551162 66.156580192734 0.029946727876 -105.422201780192
10000.0 0.043139035118 -112.610347854919 0.002567221978 45.61541682199 0.00253400864 56.94254130726 0.039642260675 -98.298759795794
12500.0 0.052014849857 -109.659071217416 0.002881944007 53.664301855288 0.003141567831 48.699823100221 0.048706612596 -106.09998982111
15000.0 0.059841152165 -111.062952896715 0.003819102476 33.386048442437 0.003450106198 43.569791543367 0.05337749911 -107.028659001511
17500.0 0.066479290757 -109.366769302947 0.003895899729 36.394881159096 0.004089208787 38.351526429069 0.061595107011 -110.832659917812
20000.0 0.072849642301 -110.677085363404 0.004938476225 20.659475807544 0.004533079045 28.375824955643 0.066768376352 -111.276997397052
22500.0 0.077406613104 -110.069987680391 0.00454512425 27.840791935747 0.00526812389 24.768407404772 0.066889817484 -113.401082810538
25000.0 0.080680823968 -110.850739510067 0.006157036779 23.313528595327 0.005779665855 16.070689002569 0.064506037826 -114.354427957477
27500.0 0.083933548288 -109.750528618362 0.006368407589 13.520574329471 0.006235491409 4.480165545971 0.066839346601 -115.666514364092
30000.0 0.085374002731 -110.989579242091 0.007088332368 3.70440185694 0.006421890231 2.618169368062 0.064578459259 -115.060580533228
32500.0 0.087117394719 -109.092104215902 0.006081557662 0.196563247739 0.006597916214 -0.675063070172 0.061751732363 -115.9902160937
35000.0 0.086440104345 -110.058308845753 0.007489478023 -12.90646115828 0.007480203403 -10.593704415945 0.052827904664 -111.706188539088
37500.0 0.086445993999 -107.265023740138 0.00620947951 -22.622059462771 0.007955951529 -16.871780289114 0.04800637403 -113.778689834729
40000.0 0.084506371108 -107.2315838172 0.008798119224 -25.525934107147 0.00808434668 -25.755779369492 0.046666599852 -98.906399793648
42500.0 0.084779748442 -104.245778693823 0.00828193531 -31.636298208716 0.009339201706 -36.241495691759 0.042740774447 -97.601399609194
45000.0 0.079994878292 -103.184312173071 0.011260335722 -35.318643877162 0.010249952915 -41.855656334648 0.038777271047 -83.961301917071
47500.0 0.08127159497 -98.219883965343 0.007009120854 -48.57151531591 0.010312334838 -46.325588375179 0.03991348957 -71.276001511254
50000.0 0.075740217602 -96.664884721891 0.011967233868 -58.443926765372 0.00929434465 -55.351262314732 0.048158025773 -51.583738569681
52500.0 0.077902431688 -91.194363821587 0.012331948219 -61.12787296867 0.010728125948 -60.98982705899 0.043351177608 -40.993024712125
55000.0 0.071468499383 -86.782228903608 0.013286264317 -46.036679101122 0.011003440369 -71.542690622072 0.057996655586 -52.577355967392
57500.0 0.075190693547 -79.328492335227 0.014995787019 -86.037039934628 0.011581301154 -78.734589498145 0.072360976798 -55.230424350851
60000.0 0.070378893148 -74.858603721388 0.01578111977 -73.742237683566 0.009794243297 -78.26654158022 0.067240500364 -39.448623876663
62500.0 0.080002558669 -65.917355478621 0.012875086505 -98.789513500161 0.012806314302 -86.124295123101 0.053206882636 -35.24115759626
65000.0 0.070680001092 -57.04061624327 0.021439647526 -93.729465803791 0.013014559185 -104.261255379345 0.083928945746 -36.772132720777
