! File created by SignalIntegrity v1.5.1: Signal and Power Integrity Tools
! https://github.com/Nubis-Communications/SignalIntegrity
# MHz S MA R 50.0
0.0 0.007464966961 180.0
2500.0 0.013696895822 -124.334658026313
5000.0 0.024602834832 -111.845798713813
7500.0 0.035166486527 -110.134444657424
10000.0 0.044618973639 -109.2726766193
12500.0 0.053400277688 -110.276298041279
15000.0 0.060792445148 -110.599273659753
17500.0 0.067006499762 -111.290925069463
20000.0 0.07250059768 -111.801112749849
22500.0 0.076368189818 -111.938058395806
25000.0 0.079797872162 -111.46966417988
27500.0 0.08208258811 -111.496795547708
30000.0 0.082909439403 -110.574811243388
32500.0 0.084299421029 -109.978704951247
35000.0 0.08420846178 -108.448911634272
37500.0 0.083436023926 -107.035590824962
40000.0 0.081775061861 -103.963727561635
42500.0 0.080620235656 -101.673114372959
45000.0 0.079352682915 -97.969533096845
47500.0 0.076655764999 -95.095801055957
50000.0 0.0747385038 -89.147595761505
52500.0 0.075184092249 -85.215486855353
55000.0 0.073747231112 -78.056943551269
57500.0 0.075174955432 -71.350501757806
60000.0 0.077818916437 -64.53867573659
62500.0 0.08044117171 -59.118150144137
65000.0 0.079146348877 -44.73452034418
