! File created by SignalIntegrity v1.5.1: Signal and Power Integrity Tools
! https://github.com/Nubis-Communications/SignalIntegrity
# MHz S MA R 50.0
0.0 0.002385359796 180.0
2500.0 0.009110502056 -93.164342286442
5000.0 0.021269013808 -92.630281501977
7500.0 0.031742407135 -96.272970783205
10000.0 0.041470250057 -99.54332301015
12500.0 0.049430078781 -102.538266450017
15000.0 0.055457273551 -105.354116996476
17500.0 0.059541458739 -106.96278821384
20000.0 0.062076060459 -108.418542607374
22500.0 0.062125009726 -108.592933275878
25000.0 0.061650908349 -107.989770414505
27500.0 0.059171441722 -106.285452746437
30000.0 0.056853010742 -102.25467960943
32500.0 0.053547208814 -97.525800150787
35000.0 0.051206052726 -89.122763919248
37500.0 0.050520483883 -80.003795350932
40000.0 0.052138433651 -68.692597399458
42500.0 0.056985923106 -59.501418682451
45000.0 0.063528765168 -50.958337927012
47500.0 0.072903022885 -45.727187204337
50000.0 0.081189273673 -41.416275177836
52500.0 0.092698362313 -37.855734314699
55000.0 0.104387737982 -35.601799846148
57500.0 0.118225257641 -34.374008376375
60000.0 0.131341514342 -34.963154871058
62500.0 0.144137102793 -35.725143032804
65000.0 0.157292800587 -34.618822197693
