! File created by SignalIntegrity v1.5.1: Signal and Power Integrity Tools
! https://github.com/Nubis-Communications/SignalIntegrity
# MHz S MA R 50.0
0.0 0.000806194742 180.0
2500.0 0.008685048955 -80.575197962349
5000.0 0.020807781271 -86.911424877775
7500.0 0.031021578195 -92.310164763818
10000.0 0.040502315665 -96.400544071394
12500.0 0.048096448005 -100.073764371698
15000.0 0.05366178519 -103.204348978064
17500.0 0.057099213731 -104.906471418891
20000.0 0.059106101037 -106.209106929995
22500.0 0.058362231269 -105.883950069999
25000.0 0.057406872513 -104.281897527454
27500.0 0.054484706791 -101.06555866458
30000.0 0.052458706623 -95.035023894888
32500.0 0.050291944029 -87.548940127474
35000.0 0.050558149622 -76.669897029836
37500.0 0.053213873724 -66.436194877274
40000.0 0.059499486253 -55.759116688843
42500.0 0.068120927489 -49.198013306506
45000.0 0.078422349419 -43.725541418536
47500.0 0.090234233666 -40.944881412254
50000.0 0.101358876174 -38.408799918571
52500.0 0.11673861297 -37.023391072964
55000.0 0.130262060916 -37.014870055141
57500.0 0.144597903614 -37.656897561418
60000.0 0.157755710929 -39.007153168844
62500.0 0.170797425975 -40.471776581773
65000.0 0.183667643451 -40.580592472274
