! File created by SignalIntegrity v1.5.1: Signal and Power Integrity Tools
! https://github.com/Nubis-Communications/SignalIntegrity
# MHz S MA R 50.0
0.0 0.008041255541 180.0
2500.0 0.014121535751 -124.473584630304
5000.0 0.02537940817 -113.275819838084
7500.0 0.035894107312 -110.223783760218
10000.0 0.045756853276 -109.936180927052
12500.0 0.054439144378 -109.958966864098
15000.0 0.062402430574 -110.738783163749
17500.0 0.068736126859 -110.820592274889
20000.0 0.07501139785 -111.291427742482
22500.0 0.079060381086 -111.449230314249
25000.0 0.083239529453 -111.382780269549
27500.0 0.085863080325 -111.009460333196
30000.0 0.087788065692 -110.666578768772
32500.0 0.088751373655 -109.975294691682
35000.0 0.089471810494 -108.957795590734
37500.0 0.08876255406 -107.748935411762
40000.0 0.087807298923 -105.729237873956
42500.0 0.087043839838 -103.555191280611
45000.0 0.085219010601 -101.392812345239
47500.0 0.082469555927 -98.220778135881
50000.0 0.079664799402 -96.497185772061
52500.0 0.078757155731 -89.870383714527
55000.0 0.077056742654 -85.835664263043
57500.0 0.076153737423 -78.003170589938
60000.0 0.077881082949 -76.60567085769
62500.0 0.075744425547 -63.700573922015
65000.0 0.076348109204 -65.611138199845
