! File created by SignalIntegrity v1.5.1: Signal and Power Integrity Tools
! https://github.com/Nubis-Communications/SignalIntegrity
# MHz S MA R 50.0
0.0 0.00221819053 180.0
2500.0 0.009879953147 -94.224652701522
5000.0 0.022382717887 -94.038062420287
7500.0 0.033353566555 -97.463644763998
10000.0 0.043391496664 -100.530452320971
12500.0 0.051905768891 -103.52932289436
15000.0 0.058512456237 -106.422383216057
17500.0 0.063179544807 -108.284054536385
20000.0 0.066624030348 -110.116162607901
22500.0 0.067390430751 -110.9923920711
25000.0 0.067617535795 -111.227311660396
27500.0 0.065592250498 -110.998305352485
30000.0 0.063410697326 -108.958995999759
32500.0 0.059529792133 -106.914743951224
35000.0 0.055384201734 -101.687695519718
37500.0 0.052139586639 -95.545175916801
40000.0 0.049555543307 -85.831666758513
42500.0 0.049219154652 -75.677209206106
45000.0 0.05125297316 -64.771317597798
47500.0 0.05646622624 -56.153721940063
50000.0 0.062250024158 -48.194764707941
52500.0 0.070737137508 -42.606667483132
55000.0 0.07873489463 -38.632570163296
57500.0 0.088624309662 -34.340513702174
60000.0 0.099950626168 -32.21767050815
62500.0 0.113002195939 -31.202880252902
65000.0 0.125366649818 -29.679503224496
