! File created by SignalIntegrity v1.5.1: Signal and Power Integrity Tools
! https://github.com/Nubis-Communications/SignalIntegrity
# MHz S MA R 50.0
0.0 0.001367824238 180.0
2500.0 0.010439770912 -90.083883212402
5000.0 0.023283652692 -92.380338758245
7500.0 0.034623847498 -96.143591207796
10000.0 0.045046101634 -99.415865276143
12500.0 0.054068220089 -102.432615044975
15000.0 0.061296117513 -105.337473612681
17500.0 0.066598643928 -107.305818017379
20000.0 0.07070896594 -109.215886369244
22500.0 0.072268854128 -110.25756887671
25000.0 0.07323324497 -110.9167172426
27500.0 0.071919295139 -111.053432663708
30000.0 0.070300018051 -109.812021677919
32500.0 0.067049776289 -108.755375062545
35000.0 0.063175521921 -105.251797889284
37500.0 0.059529251548 -101.242578000502
40000.0 0.055797059527 -94.26817313063
42500.0 0.054061096174 -86.602499006397
45000.0 0.053115230625 -77.22081446378
47500.0 0.055240049691 -67.939075610416
50000.0 0.058030742851 -59.048177043808
52500.0 0.064622246753 -51.838497836234
55000.0 0.071114842904 -46.293270109104
57500.0 0.079403226417 -42.109492731342
60000.0 0.087067452628 -38.960710356907
62500.0 0.095950035268 -36.629696723594
65000.0 0.106205829765 -30.233659450377
