! File created by SignalIntegrity v1.5.1: Signal and Power Integrity Tools
! https://github.com/Nubis-Communications/SignalIntegrity
# MHz S MA R 50.0
0.0 0.007037123486 180.0
2500.0 0.01207937051 -122.01012345361
5000.0 0.022486683293 -111.220732627311
7500.0 0.032126204198 -108.680420880406
10000.0 0.041108165825 -109.101767238784
12500.0 0.048877081917 -109.480517021759
15000.0 0.055644432606 -110.937710151612
17500.0 0.060530114016 -111.055860932281
20000.0 0.065232629052 -111.731663069362
22500.0 0.067736372195 -111.666463184066
25000.0 0.070259491899 -111.494191518234
27500.0 0.071239258923 -110.377540957473
30000.0 0.071347367862 -109.713728151353
32500.0 0.070960285764 -107.603026067016
35000.0 0.07006762217 -105.540660763844
37500.0 0.068525442731 -101.855098134844
40000.0 0.066408126358 -98.455314033999
42500.0 0.065171102795 -92.644147980263
45000.0 0.064635703358 -87.669517247422
47500.0 0.064668790468 -80.72538893069
50000.0 0.065180230467 -72.571340150737
52500.0 0.067102166773 -65.778653182714
55000.0 0.071123600599 -60.486284544517
57500.0 0.076350360341 -50.771127194089
60000.0 0.079865573355 -46.779820689104
62500.0 0.09066116626 -40.568448868916
65000.0 0.101463684915 -35.504895656784
