! File created by SignalIntegrity v1.5.1: Signal and Power Integrity Tools
! https://github.com/Nubis-Communications/SignalIntegrity
# MHz S MA R 50.0
0.0 0.005437965599 180.0
2500.0 0.010555628236 -114.616162985207
5000.0 0.020928667406 -106.865289311611
7500.0 0.030151788122 -105.252797976313
10000.0 0.038968455059 -106.453358212487
12500.0 0.046243087419 -107.09246678036
15000.0 0.052527708251 -108.825502235627
17500.0 0.056479335875 -108.945483011969
20000.0 0.061033389738 -109.860275542786
22500.0 0.06249843005 -109.136565835448
25000.0 0.064567401563 -108.60096043785
27500.0 0.064216200388 -106.879304575171
30000.0 0.064214859626 -105.007894831082
32500.0 0.062774731019 -101.56156685617
35000.0 0.062978649825 -98.3463769667
37500.0 0.061117579256 -92.604705505058
40000.0 0.06068242282 -85.859522539423
42500.0 0.061878739642 -78.775528208511
45000.0 0.063508999927 -71.41323760319
47500.0 0.066627816755 -63.836825325547
50000.0 0.071266884519 -56.580514436497
52500.0 0.077895833746 -50.654060391497
55000.0 0.08642839512 -46.052027402218
57500.0 0.097149502678 -39.101563173162
60000.0 0.104544517322 -38.133423776779
62500.0 0.115297963575 -32.599550251728
65000.0 0.126771733029 -37.440170336629
