! File created by SignalIntegrity v1.5.1: Signal and Power Integrity Tools
! https://github.com/Nubis-Communications/SignalIntegrity
# MHz S MA R 50.0
0.0 1.000436592306 0.0
2500.0 0.997282481445 -10.00652155593
5000.0 0.992553005999 -19.659238056192
7500.0 0.986869989072 -29.07118224037
10000.0 0.980974338638 -38.12081806593
12500.0 0.975746486243 -46.851154000249
15000.0 0.971027876576 -55.266665923324
17500.0 0.965998240463 -63.34601985091
20000.0 0.962523225768 -71.091577365169
22500.0 0.958113999666 -78.607978345055
25000.0 0.95441482232 -85.82871769775
27500.0 0.950202699163 -92.970042316565
30000.0 0.946992822462 -99.838187776148
32500.0 0.943564641791 -106.866910135354
35000.0 0.938229118028 -113.76073474985
37500.0 0.934063225963 -120.833688490434
40000.0 0.926844534153 -127.869437011758
42500.0 0.921310162677 -135.217185517508
45000.0 0.912611127594 -142.67444906879
47500.0 0.908463425265 -150.476612373817
50000.0 0.896645837604 -158.772796254073
52500.0 0.890298413053 -167.101448205689
55000.0 0.876759008532 -176.268477944449
57500.0 0.86887760378 174.685501609955
60000.0 0.856494536145 164.547391092885
62500.0 0.844894424446 154.93668285127
65000.0 0.841916983977 143.596894660997
