! File created by SignalIntegrity v1.5.1: Signal and Power Integrity Tools
! https://github.com/Nubis-Communications/SignalIntegrity
# MHz S MA R 50.0
0.0 0.999897987061 0.0
2500.0 0.998052177891 -5.855942866032
5000.0 0.992986334779 -11.428592281025
7500.0 0.988992214452 -16.877838407238
10000.0 0.983519480162 -22.159088079602
12500.0 0.979570551663 -27.238834883224
15000.0 0.975089064065 -32.206962501782
17500.0 0.97185765684 -36.958210397439
20000.0 0.968191441086 -41.566392140395
22500.0 0.965740293141 -45.976764785775
25000.0 0.962339808709 -50.232044883233
27500.0 0.959992096927 -54.30100422292
30000.0 0.956837679476 -58.208085383058
32500.0 0.956746206546 -61.954793927248
35000.0 0.953880011158 -65.666363495912
37500.0 0.952819438775 -69.036519302697
40000.0 0.949332415342 -72.564280720764
42500.0 0.948743345115 -75.687818813759
45000.0 0.945023347678 -78.954295497522
47500.0 0.943606915775 -81.951349514094
50000.0 0.941491332316 -85.386860497048
52500.0 0.936520541549 -88.191451508546
55000.0 0.93379869228 -91.280553526818
57500.0 0.92772494455 -93.648397466537
60000.0 0.924502862599 -96.930939002182
62500.0 0.91827145439 -99.078122759457
65000.0 0.904855302858 -104.540000476892
