! File created by SignalIntegrity v1.5.1: Signal and Power Integrity Tools
! https://github.com/Nubis-Communications/SignalIntegrity
# MHz S MA R 50.0
0.0 1.000294888042 0.0
2500.0 0.997362102936 -7.580252949703
5000.0 0.992475336532 -14.826791347575
7500.0 0.987489407894 -21.922192668237
10000.0 0.98176447199 -28.779627512451
12500.0 0.977023533 -35.401285665605
15000.0 0.972451968193 -41.851469645034
17500.0 0.968089897414 -48.017079799398
20000.0 0.964948119873 -53.97091415216
22500.0 0.961862913446 -59.722767393434
25000.0 0.958370976306 -65.24266590668
27500.0 0.955299038821 -70.605120299401
30000.0 0.952620494637 -75.690469687192
32500.0 0.951165700306 -80.823256117962
35000.0 0.947072355761 -85.780872449443
37500.0 0.944539909211 -90.534516958141
40000.0 0.939614084712 -95.305881889956
42500.0 0.937237758263 -100.027369114152
45000.0 0.930457348587 -104.733201930469
47500.0 0.927973271695 -109.282626542702
50000.0 0.921185987638 -114.294584139252
52500.0 0.9142141916 -118.936670458395
55000.0 0.909707001084 -123.778233309031
57500.0 0.90411944148 -128.576014230498
60000.0 0.90136202743 -134.093436043279
62500.0 0.887013767899 -139.663628649678
65000.0 0.87644069114 -145.392308212441
