! File created by SignalIntegrity v1.5.1: Signal and Power Integrity Tools
! https://github.com/Nubis-Communications/SignalIntegrity
# MHz S MA R 50.0
0.0 1.000355327657 0.0
2500.0 0.997719119044 -6.906078171882
5000.0 0.992979770021 -13.504851885339
7500.0 0.987959677632 -19.965131537661
10000.0 0.982626687986 -26.208571302625
12500.0 0.977889388736 -32.22925622421
15000.0 0.97358338443 -38.078840326378
17500.0 0.969550660584 -43.720048940114
20000.0 0.966178077092 -49.114686239522
22500.0 0.963247726184 -54.349746144786
25000.0 0.960294483425 -59.34336020323
27500.0 0.957595816794 -64.176561911186
30000.0 0.954612886291 -68.773090040854
32500.0 0.95343914889 -73.295408598774
35000.0 0.950306415147 -77.704909123051
37500.0 0.948863322639 -81.913985256534
40000.0 0.94426456891 -86.124554881975
42500.0 0.943229047624 -90.117085008235
45000.0 0.938353623851 -94.120172284379
47500.0 0.936248102687 -98.062755253003
50000.0 0.933210783096 -102.277545418232
52500.0 0.925923986245 -106.219418593034
55000.0 0.922544565759 -110.249954352272
57500.0 0.917487054052 -113.82726172474
60000.0 0.912966499998 -118.202736819024
62500.0 0.901193532096 -122.454533587034
65000.0 0.891960525644 -127.12991978471
