! File created by SignalIntegrity v1.5.1: Signal and Power Integrity Tools
! https://github.com/Nubis-Communications/SignalIntegrity
# MHz S MA R 50.0
0.0 0.999932622274 0.0
2500.0 0.997417223776 -11.050022082189
5000.0 0.991981922576 -21.728686019915
7500.0 0.986205739484 -32.108816707725
10000.0 0.97938112238 -42.121542513071
12500.0 0.974094450462 -51.724230913638
15000.0 0.968442541926 -61.036434551522
17500.0 0.96286591341 -69.921600672534
20000.0 0.958810916477 -78.530872488801
22500.0 0.953434377471 -86.852427974898
25000.0 0.949071194888 -94.963213748544
27500.0 0.943322686019 -102.966583325186
30000.0 0.939009422517 -110.840950752082
32500.0 0.933523643535 -118.907138519396
35000.0 0.926438994187 -126.997857114332
37500.0 0.919258563769 -135.329337532801
40000.0 0.909933355971 -143.852778605318
42500.0 0.900263806722 -152.802798394047
45000.0 0.88913154788 -162.107672598681
47500.0 0.87936102722 -171.914726976725
50000.0 0.864963002801 177.617658069266
52500.0 0.852712879118 166.839371545483
55000.0 0.838306849919 155.240237924573
57500.0 0.826451700075 143.422991054144
60000.0 0.813152478949 130.921991874858
62500.0 0.802157839031 118.561841060129
65000.0 0.799914492494 105.749798509968
