! File created by SignalIntegrity v1.5.1: Signal and Power Integrity Tools
! https://github.com/Nubis-Communications/SignalIntegrity
# MHz S MA R 50.0
0.0 0.999858170099 0.0
2500.0 0.997315235122 -11.726542049366
5000.0 0.991185891756 -23.070628277878
7500.0 0.984930050894 -34.098813283818
10000.0 0.976936673043 -44.747094859371
12500.0 0.970745743423 -54.950751059597
15000.0 0.964049377053 -64.882322960469
17500.0 0.957427468798 -74.348179335706
20000.0 0.952058770643 -83.582645395387
22500.0 0.945319181815 -92.525448322827
25000.0 0.939582151147 -101.337614251131
27500.0 0.932449752681 -110.060192064019
30000.0 0.926414620024 -118.768384036564
32500.0 0.918981864765 -127.723633450969
35000.0 0.909773707882 -136.818480022682
37500.0 0.899965870656 -146.259789935586
40000.0 0.888378501985 -156.044402882847
42500.0 0.876335368908 -166.34529970557
45000.0 0.863236861999 -177.169838670649
47500.0 0.850498248066 171.418145440622
50000.0 0.835863488351 159.269576841487
52500.0 0.822528287801 146.740306349824
55000.0 0.809723571779 133.553474832946
57500.0 0.798711473308 120.1263537347
60000.0 0.789890937598 106.483614208923
62500.0 0.783922249191 93.04540300239
65000.0 0.785523572944 80.166546956732
