! File created by SignalIntegrity v1.5.1: Signal and Power Integrity Tools
! https://github.com/Nubis-Communications/SignalIntegrity
# MHz S MA R 50.0
0.0 1.000028972308 0.0
2500.0 0.997858446219 -6.251417328007
5000.0 0.993048610716 -12.200854104675
7500.0 0.988608290231 -18.033988243823
10000.0 0.983132772878 -23.656784910554
12500.0 0.978828820405 -29.084739291216
15000.0 0.974539638026 -34.388896883723
17500.0 0.970685855645 -39.458759392815
20000.0 0.967514722275 -44.338947212276
22500.0 0.964839627442 -49.044120112404
25000.0 0.961457076992 -53.563298432354
27500.0 0.959208763907 -57.889547628757
30000.0 0.956338346947 -62.007120071099
32500.0 0.955738297008 -66.044191976312
35000.0 0.952755194025 -70.003486159316
37500.0 0.951252267285 -73.643907771478
40000.0 0.947844420406 -77.34652406175
42500.0 0.946406651755 -80.807827473617
45000.0 0.943738205528 -84.264513877916
47500.0 0.942150789255 -87.617424832161
50000.0 0.939852328936 -91.226453707151
52500.0 0.933755938921 -94.517567607816
55000.0 0.930029795409 -97.878252985459
57500.0 0.925949996276 -100.748981692531
60000.0 0.920485890027 -104.144876533922
62500.0 0.911129147197 -107.356325039701
65000.0 0.900401435705 -111.238259805225
