! File created by SignalIntegrity v1.5.1: Signal and Power Integrity Tools
! https://github.com/Nubis-Communications/SignalIntegrity
# MHz S MA R 50.0
0.0 1.000310731418 0.0
2500.0 0.997385345241 -10.379284977794
5000.0 0.992275760551 -20.402286645232
7500.0 0.986571348425 -30.157212053105
10000.0 0.980125110646 -39.554206039783
12500.0 0.974718559975 -48.585353090194
15000.0 0.969681191104 -57.309495701757
17500.0 0.964085923023 -65.662733507403
20000.0 0.960341772138 -73.695681887256
22500.0 0.955288031906 -81.473781804884
25000.0 0.951282633735 -88.977912119048
27500.0 0.946365768335 -96.38168880448
30000.0 0.942692610332 -103.571948491156
32500.0 0.93854963785 -110.92996901979
35000.0 0.932575852599 -118.199172380487
37500.0 0.927062139025 -125.649874325238
40000.0 0.919154880812 -133.147820700061
42500.0 0.912407057229 -141.007335394537
45000.0 0.902472706071 -149.042838644394
47500.0 0.896219657326 -157.48152850056
50000.0 0.883250066881 -166.506903103239
52500.0 0.874364554619 -175.641480295799
55000.0 0.859971951837 174.318409271442
57500.0 0.849887970168 164.303198971672
60000.0 0.836729909692 153.284680790794
62500.0 0.824638997372 142.60144159808
65000.0 0.821812804932 130.57937841974
