! File created by SignalIntegrity v1.5.1: Signal and Power Integrity Tools
! https://github.com/Nubis-Communications/SignalIntegrity
# MHz S MA R 50.0
0.0 0.976747135464 180.0
2500.0 0.971169503901 174.610011273316
5000.0 0.965113562804 169.763756079749
7500.0 0.961528982466 164.855046138395
10000.0 0.958389085963 159.942550959668
12500.0 0.957192426354 154.904830386307
15000.0 0.954860903585 149.624370278676
17500.0 0.952425468738 144.232689752524
20000.0 0.950578553349 138.64074411086
22500.0 0.947029858893 132.780218517277
25000.0 0.94335254807 126.805636390606
27500.0 0.939763062253 120.583928227227
30000.0 0.935502059016 114.157369440911
32500.0 0.930426772692 107.571427378328
35000.0 0.925160846816 100.805010382303
37500.0 0.920203727671 93.947387125027
40000.0 0.916871344007 86.990190462523
42500.0 0.911232865349 79.963091287382
45000.0 0.906723793615 73.058894473251
47500.0 0.903909946491 66.14716274558
50000.0 0.900495771418 59.300354117889
52500.0 0.897507901388 52.774452927835
55000.0 0.89258078259 46.083031806219
57500.0 0.894730973997 40.1916553567
60000.0 0.892743889086 34.297992593534
62500.0 0.897492417145 28.623244732455
65000.0 0.898975204511 22.738876978111
