! File created by SignalIntegrity v1.5.1: Signal and Power Integrity Tools
! https://github.com/Nubis-Communications/SignalIntegrity
# MHz S MA R 50.0
0.0 0.963978858603 180.0
2500.0 0.951851356879 171.042833456192
5000.0 0.940301750778 163.103864871199
7500.0 0.932267609938 154.988176394136
10000.0 0.924625263333 146.887716482619
12500.0 0.919617063078 138.430875390503
15000.0 0.913370689429 129.680136625618
17500.0 0.907572942752 120.574246817183
20000.0 0.90209687523 111.161972024949
22500.0 0.896284672132 101.329970798771
25000.0 0.889527803695 91.372375766658
27500.0 0.884977871015 81.141853379992
30000.0 0.879472919874 70.797372016702
32500.0 0.876093661794 60.560000252191
35000.0 0.873476396483 50.351956585265
37500.0 0.871803724573 40.412161608567
40000.0 0.872599045147 30.790735478347
42500.0 0.873501737432 21.40238995275
45000.0 0.873757860681 12.557691779402
47500.0 0.876435584338 4.025847504845
50000.0 0.874475755518 -4.095683974141
52500.0 0.877826501036 -11.335939344683
55000.0 0.88123267383 -18.631167252861
57500.0 0.887577052837 -25.22535190843
60000.0 0.894305165166 -32.161742192302
62500.0 0.899009005716 -38.24477207333
65000.0 0.903955242334 -44.825724429211
