! File created by SignalIntegrity v1.5.1: Signal and Power Integrity Tools
! https://github.com/Nubis-Communications/SignalIntegrity
# MHz S MA R 50.0
0.0 0.966646473027 180.0
2500.0 0.956017902261 171.899837890089
5000.0 0.945788463733 164.7344474461
7500.0 0.938635368276 157.398289390906
10000.0 0.93169859435 150.094860178323
12500.0 0.927300979455 142.489019637725
15000.0 0.921613496729 134.582152405528
17500.0 0.91631804481 126.387799390509
20000.0 0.911346039146 117.872256522162
22500.0 0.90555265846 108.967480740794
25000.0 0.899043579068 99.919172376544
27500.0 0.894198922803 90.557486014021
30000.0 0.888140154489 81.020724104537
32500.0 0.883571587563 71.523179160901
35000.0 0.880208630632 61.943494566967
37500.0 0.876817798751 52.5253790729
40000.0 0.87631186423 43.321944806012
42500.0 0.875695282045 34.266471419918
45000.0 0.87563002495 25.661040115757
47500.0 0.877731902225 17.296475157842
50000.0 0.876676662726 9.237860884354
52500.0 0.878422211572 1.791594602264
55000.0 0.877270830444 -5.588459085689
57500.0 0.877174780794 -12.002646138499
60000.0 0.882575577373 -18.390850410773
62500.0 0.889740109435 -24.276909773879
65000.0 0.896045127863 -30.396089777353
