! File created by SignalIntegrity v1.5.1: Signal and Power Integrity Tools
! https://github.com/Nubis-Communications/SignalIntegrity
# MHz S MA R 50.0
0.0 0.968183488061 180.0
2500.0 0.958053771159 172.276129102286
5000.0 0.948271041862 165.443063052879
7500.0 0.941618661047 158.46087826304
10000.0 0.935194243114 151.516914031146
12500.0 0.931262194083 144.299386614183
15000.0 0.926119538033 136.803742086401
17500.0 0.921089491526 129.072471014219
20000.0 0.916755316308 121.037426423938
22500.0 0.91135744781 112.645953854355
25000.0 0.905218455369 104.128129370972
27500.0 0.900281993745 95.321633151224
30000.0 0.89437657124 86.327392898411
32500.0 0.889803698929 77.357715530435
35000.0 0.886140706388 68.276071265362
37500.0 0.882407087973 59.313457477046
40000.0 0.881122823607 50.464068343798
42500.0 0.879440261751 41.752964888282
45000.0 0.878845804754 33.463544580471
47500.0 0.879867444717 25.290875785914
50000.0 0.879159664109 17.437433731934
52500.0 0.881431030458 10.070867966104
55000.0 0.882036763853 2.718600300589
57500.0 0.881700950667 -4.012326588101
60000.0 0.88241851894 -10.605248004042
62500.0 0.882859934307 -16.527041887909
65000.0 0.887290829629 -22.13839112792
