! File created by SignalIntegrity v1.5.1: Signal and Power Integrity Tools
! https://github.com/Nubis-Communications/SignalIntegrity
# MHz S MA R 50.0
0.0 0.980709395609 180.0
2500.0 0.975974254783 175.402068482456
5000.0 0.971279432268 171.269946377686
7500.0 0.968111369161 167.071457631808
10000.0 0.966359297366 162.881233317759
12500.0 0.965539301742 158.593664748406
15000.0 0.964078862253 154.078763934333
17500.0 0.962463925472 149.495072318051
20000.0 0.96182999313 144.769070009696
22500.0 0.958445915863 139.781985969856
25000.0 0.955684702154 134.722274671684
27500.0 0.952622591966 129.437607578192
30000.0 0.9495089723 123.975384263025
32500.0 0.945107609795 118.369665800066
35000.0 0.939934642209 112.59039182479
37500.0 0.935816073946 106.692997439262
40000.0 0.932189730862 100.719507006528
42500.0 0.926022490899 94.567965078513
45000.0 0.921760657892 88.498640368836
47500.0 0.91742412998 82.320259816187
50000.0 0.912950991529 76.159160182624
52500.0 0.908384954371 70.080611858207
55000.0 0.901804807427 64.055151543331
57500.0 0.903183026708 58.402829915328
60000.0 0.899939903583 52.780933260225
62500.0 0.903382758012 47.1260844724
65000.0 0.900125916262 41.46736735071
