! File created by SignalIntegrity v1.5.1: Signal and Power Integrity Tools
! https://github.com/Nubis-Communications/SignalIntegrity
# MHz S MA R 50.0
0.0 0.986991200201 180.0
2500.0 0.983009240219 176.724939743
5000.0 0.980369021462 173.778715159859
7500.0 0.979307728294 170.804963429971
10000.0 0.978354174628 167.79821657507
12500.0 0.979025902693 164.748194984946
15000.0 0.979331030505 161.489949443473
17500.0 0.97823689843 158.222326633355
20000.0 0.978775446414 154.843572852505
22500.0 0.976766030191 151.25729565265
25000.0 0.975687963136 147.674741930421
27500.0 0.973651347571 143.872500125627
30000.0 0.971625957437 139.999593889621
32500.0 0.968521306458 135.95505034038
35000.0 0.964501816393 131.793845290585
37500.0 0.961398180459 127.54074123327
40000.0 0.958153318473 123.162255772305
42500.0 0.953299632549 118.633745895989
45000.0 0.94787071075 114.130730131118
47500.0 0.94545016534 109.427718951981
50000.0 0.940576358557 104.589278999698
52500.0 0.933485338758 99.866742454954
55000.0 0.928137825485 94.923638590996
57500.0 0.924397251002 90.231236147339
60000.0 0.920341334967 85.519777987266
62500.0 0.922351911849 80.528416939992
65000.0 0.917071360016 75.550782001956
