! File created by SignalIntegrity v1.5.1: Signal and Power Integrity Tools
! https://github.com/Nubis-Communications/SignalIntegrity
# MHz S MA R 50.0
0.0 0.984594752578 180.0
2500.0 0.981181678706 176.289547428107
5000.0 0.977402886948 172.950160704065
7500.0 0.975610143171 169.562471762016
10000.0 0.973870361844 166.175216290684
12500.0 0.974210297283 162.714357918556
15000.0 0.973804260038 159.039064920972
17500.0 0.97253119084 155.316598977247
20000.0 0.972471146815 151.500572100063
22500.0 0.970525421581 147.443441966265
25000.0 0.96809698768 143.342826224455
27500.0 0.966043627391 139.058622991077
30000.0 0.963474243658 134.622776446142
32500.0 0.959912140044 130.037168459676
35000.0 0.955524723608 125.299726871118
37500.0 0.951623889974 120.421792867408
40000.0 0.947911333074 115.46709746288
42500.0 0.943025430669 110.294706669629
45000.0 0.937278332534 105.156834550147
47500.0 0.934197378399 99.91237553895
50000.0 0.928666592259 94.383192344824
52500.0 0.923704627528 89.301704183537
55000.0 0.915700018117 83.722973546116
57500.0 0.916167603935 78.68422216605
60000.0 0.909260880561 73.574933529323
62500.0 0.910465604288 68.525171702102
65000.0 0.906461684586 62.568534740232
