! File created by SignalIntegrity v1.5.1: Signal and Power Integrity Tools
! https://github.com/Nubis-Communications/SignalIntegrity
# MHz S MA R 50.0
0.0 0.960669619137 180.0
2500.0 0.947432011287 170.205417000992
5000.0 0.935061204338 161.497706771058
7500.0 0.926286780601 152.587178093335
10000.0 0.918113683911 143.696747977533
12500.0 0.912329324403 134.396285757229
15000.0 0.905663803113 124.791026503405
17500.0 0.899379854928 114.783098512879
20000.0 0.893636615392 104.474313859798
22500.0 0.887942594151 93.72357225584
25000.0 0.881557490144 82.895151748769
27500.0 0.877558995811 71.849147016142
30000.0 0.872695608572 60.766771657868
32500.0 0.87080388913 49.891860031282
35000.0 0.869453050722 39.15478317448
37500.0 0.869286524833 28.7878231868
40000.0 0.870871961649 18.842581740222
42500.0 0.873100746669 9.194104391619
45000.0 0.873201888372 0.21315887479
47500.0 0.877466673295 -8.28601548142
50000.0 0.878172036416 -16.380898241982
52500.0 0.885419925805 -23.770220060438
55000.0 0.889666117628 -31.421456025713
57500.0 0.894218337521 -38.152207431881
60000.0 0.899207073164 -45.256750667981
62500.0 0.903291514156 -51.412829294752
65000.0 0.907254138151 -58.448148126723
