! File created by SignalIntegrity v1.5.1: Signal and Power Integrity Tools
! https://github.com/Nubis-Communications/SignalIntegrity
# MHz S MA R 50.0
0.0 0.01419048162 0.0 0.988881508734 0.0 0.988999318402 0.0 0.012171164579 0.0
2500.0 0.02263855708 -59.57857169407 0.979724524954 -7.111007040607 0.980731327787 -7.068883792765 0.024081282214 -55.994101685959
5000.0 0.04219757728 -78.759253507282 0.978843818107 -13.663773118503 0.977895793752 -13.699320467829 0.041559074448 -83.785852541319
7500.0 0.058903119758 -95.293783745148 0.967964945461 -20.298324432474 0.968777288945 -20.28401211994 0.058399879074 -94.892626657396
10000.0 0.073613078446 -102.816933394309 0.967351584223 -26.622469195272 0.966610380248 -26.651497574706 0.073696090823 -107.765534237009
12500.0 0.085881207408 -113.011854314633 0.957711759988 -33.104190175568 0.958428431642 -33.088559597195 0.084062285062 -115.503217776162
15000.0 0.092489868512 -118.077208753617 0.958798582092 -39.337112235237 0.957903630886 -39.373964977738 0.09236743222 -125.449442927199
17500.0 0.098949355289 -125.647720734361 0.948738757316 -45.805111258985 0.949531239461 -45.774144220086 0.094455444782 -132.098276622991
20000.0 0.097309181235 -129.620500718378 0.95118327753 -51.885274739012 0.950338157273 -51.939210966167 0.095864299327 -141.291920441325
22500.0 0.097465092381 -134.808251801124 0.942856020764 -58.455346699428 0.943292484306 -58.383717645986 0.088028451724 -147.971403221689
25000.0 0.089214388881 -136.585084892646 0.944432642846 -64.432388171744 0.943827205808 -64.494203166973 0.082437620104 -156.761141059887
27500.0 0.084346360046 -139.040056746086 0.937283664206 -71.024831289133 0.937930273705 -70.994033828444 0.067318191435 -165.129885758254
30000.0 0.07101724621 -136.372633764004 0.939022546751 -77.003800243264 0.938715919509 -77.090394065296 0.054961783981 -175.92058582701
32500.0 0.065802368579 -132.519108021037 0.932192819277 -83.673836220016 0.933097169211 -83.639650809426 0.035093714842 169.517726608021
35000.0 0.054855404193 -120.911449624536 0.932813612135 -89.6280561992 0.932521526032 -89.710481349769 0.021492487982 140.485538296032
37500.0 0.056340109917 -109.262456697144 0.925512415967 -96.313283167386 0.926204497799 -96.275903152738 0.018804905317 56.789537272579
40000.0 0.056670054936 -92.40187248141 0.925265810963 -102.164148093118 0.925384536474 -102.239321656072 0.034041316158 24.722519786197
42500.0 0.069297637937 -85.945843878986 0.916975690482 -108.961901925756 0.918707374703 -108.875714609026 0.058764490574 4.982377709118
45000.0 0.079860608427 -77.337618079597 0.916652048084 -114.548666321303 0.915972856573 -114.638602260966 0.075315099919 -4.270221544683
47500.0 0.095915882679 -79.619722251458 0.910354741682 -121.400473355835 0.91035442972 -121.275877709733 0.100664713707 -13.109616956121
50000.0 0.104728873633 -76.108297549645 0.906549997356 -126.972548726511 0.906376360833 -127.020508995739 0.112204823868 -20.968051452454
52500.0 0.120881076149 -81.071024850354 0.898859945152 -133.881941501956 0.89942380927 -133.620914049369 0.13344494936 -26.297333316937
55000.0 0.128245965046 -79.962312834553 0.895628938396 -138.902476462949 0.896726653585 -139.145345858678 0.138241263553 -34.319631293102
57500.0 0.143403970712 -87.114518186773 0.888231343014 -146.086009854689 0.889627057376 -145.783710380977 0.155507605201 -37.89253485231
60000.0 0.139032852864 -88.543733719006 0.883748805742 -150.576820048767 0.888699696764 -150.746435414094 0.152674434771 -46.081742803435
62500.0 0.145422440962 -95.747098005809 0.886731772868 -158.23456024644 0.884900417677 -157.884689368418 0.161985451331 -45.705069610627
65000.0 0.140455111387 -97.159211623155 0.876250151644 -161.554972812338 0.879635161172 -162.055901117792 0.153362587381 -53.063803542092
