! File created by SignalIntegrity v1.5.1: Signal and Power Integrity Tools
! https://github.com/Nubis-Communications/SignalIntegrity
# MHz S MA R 50.0
0.0 0.015156602448 0.0 0.981523326855 0.0 0.985145072625 0.0 0.014218627967 0.0
2500.0 0.024019473293 -49.624205133454 0.981478252408 -8.257256456128 0.979270124046 -8.239141168054 0.024721835796 -48.12074672056
5000.0 0.041244017604 -76.223370867785 0.969783546671 -16.027618806534 0.9721366378 -16.001837721851 0.039874901401 -79.328984728946
7500.0 0.05613196917 -92.124531883954 0.967784939926 -23.576562470258 0.965629198756 -23.659597661405 0.054966965957 -92.207374696386
10000.0 0.069424670392 -103.303925600047 0.957384017822 -31.241520116034 0.95931876507 -31.155026612837 0.067462262473 -107.393324825746
12500.0 0.078061324386 -112.965721787129 0.956082616252 -38.494561175443 0.954296951213 -38.612595976482 0.074827073289 -115.941002171328
15000.0 0.083066829312 -120.171014536036 0.948699714945 -46.189809502714 0.949782697297 -46.062377659899 0.079260101059 -127.369128257241
17500.0 0.083869686443 -126.970950740322 0.945502345141 -53.301888204538 0.944703788568 -53.467221986251 0.07709529245 -134.366696077808
20000.0 0.080349230416 -131.141554775642 0.94135258254 -60.960517031154 0.941801944247 -60.826446733241 0.073194729883 -144.903120574474
22500.0 0.073873805033 -134.525717864947 0.93793571152 -68.078958529134 0.937825632189 -68.256947987822 0.060244351153 -150.979926997865
25000.0 0.064896152422 -133.763883356761 0.934926473437 -75.764258623852 0.934345046215 -75.604885267336 0.048568410342 -161.360138612517
27500.0 0.05547259151 -129.189095060302 0.929759181958 -82.860591955335 0.931107058813 -83.054093025748 0.028008142441 -167.916935002568
30000.0 0.047786542186 -115.886751632014 0.928886724961 -90.581373748963 0.927474974273 -90.433754111597 0.009867415408 172.661211334281
32500.0 0.047905569301 -100.63503786712 0.921623600352 -97.676085271101 0.924087051563 -97.866348559718 0.015307124456 0.557916643823
35000.0 0.055526943191 -84.599299840312 0.92126504336 -105.365512955387 0.918943068588 -105.255918072266 0.035803043934 -4.490681599646
37500.0 0.068783055383 -77.180309322357 0.911342722232 -112.472683093034 0.914588388364 -112.621086551422 0.062668178995 -14.506444718453
40000.0 0.083828744276 -73.60987570087 0.912898644372 -119.981690242329 0.909436590717 -119.929177902152 0.08156287825 -20.036587613397
42500.0 0.098513516807 -75.082296541998 0.89911449039 -127.225037960569 0.904521150695 -127.273270652529 0.10662247672 -28.185373174836
45000.0 0.111533278187 -77.552964168409 0.901745583256 -134.41600240641 0.897978095117 -134.422670615418 0.118773472733 -33.998521131709
47500.0 0.124188334057 -82.452184187006 0.889238254275 -141.675417969623 0.894488450018 -141.600248662793 0.139260969555 -40.975930017234
50000.0 0.12948409622 -85.902638492765 0.891686961305 -148.809437133754 0.887457089215 -148.850361875314 0.140860109452 -47.132290425304
52500.0 0.135081578772 -92.369575432058 0.876953453847 -156.138529145049 0.883832102757 -155.820610459594 0.1525522281 -51.49097595174
55000.0 0.13217919631 -97.990844176666 0.884779810085 -162.633384542698 0.880138982567 -162.997820615172 0.144816814656 -56.745123185079
57500.0 0.128097790071 -104.883555707414 0.871666760104 -170.214972467665 0.877413337169 -169.852281845436 0.1525989481 -59.489130810976
60000.0 0.114134314899 -114.94171438452 0.879581934465 -176.444466365597 0.87691175014 -177.120777646552 0.135571130369 -64.051812660341
62500.0 0.100084284834 -121.103109850516 0.869762668887 174.936165079041 0.874717157288 175.813981794955 0.140204608742 -62.422768071838
65000.0 0.085120355543 -138.058439112939 0.8721933835 169.954418330175 0.870791805389 168.508294757938 0.115020308231 -63.142705122765
