! File created by SignalIntegrity v1.5.1: Signal and Power Integrity Tools
! https://github.com/Nubis-Communications/SignalIntegrity
# MHz S MA R 50.0
0.0 0.017169327332 0.0 0.978616971117 0.0 0.982446567262 0.0 0.018020987306 0.0
2500.0 0.02474411442 -44.161664049063 0.97972315229 -9.014335325231 0.977415160665 -9.001000204572 0.024411362617 -45.231080152311
5000.0 0.040338282079 -72.350992027097 0.966023122569 -17.547486841087 0.968429261265 -17.510611761951 0.039532417518 -72.555096173444
7500.0 0.053311119354 -90.18414193163 0.964962052814 -25.767669090281 0.962692033737 -25.855443853793 0.052389113528 -91.259553817238
10000.0 0.064878106877 -102.432572741415 0.952979032316 -34.210206290235 0.954956217679 -34.108166503904 0.06267174295 -103.918743767405
12500.0 0.071516484941 -112.966025402131 0.952367763928 -42.091999540602 0.950469969134 -42.219460314932 0.069031297983 -115.954025191987
15000.0 0.074171022806 -120.670998271624 0.944260646464 -50.58547115391 0.944959568438 -50.444780623677 0.069475872171 -125.138301979768
17500.0 0.072216127169 -127.665974041388 0.941396970342 -58.319742796393 0.940380487354 -58.490625620305 0.066562375688 -134.401552670829
20000.0 0.066370520489 -131.324102370425 0.936590608114 -66.830345674509 0.93689991783 -66.654242476765 0.057220796214 -142.012582926185
22500.0 0.057780378124 -132.528178936972 0.932873850126 -74.567227327424 0.932895900029 -74.716817861625 0.044375114063 -148.146391420538
25000.0 0.048336404799 -126.284610059264 0.929438929311 -83.056609772588 0.92872181618 -82.880016609253 0.027163678771 -149.681562541616
27500.0 0.041761651403 -114.037446424369 0.923318845432 -90.755111234829 0.924778410769 -90.957101449007 0.010124449717 -126.658168736157
30000.0 0.043017595612 -92.015413820729 0.923145789217 -99.270480757526 0.92117271482 -99.126828324763 0.018984563553 -25.954339796412
32500.0 0.052376805008 -80.274687432864 0.913999809046 -107.02592782073 0.916117270748 -107.171832058164 0.039896643931 -22.402115402731
35000.0 0.066876863058 -72.931827406064 0.914285865708 -115.426391756981 0.911455384353 -115.336493733359 0.063828446513 -24.196993313662
37500.0 0.082814591697 -73.093444656313 0.902085725115 -123.178224431228 0.905155853218 -123.310364959133 0.084771536426 -30.663600604836
40000.0 0.09706862604 -73.968249705598 0.90460553357 -131.398096084586 0.901237726509 -131.31781460475 0.105096973931 -35.275999058506
42500.0 0.109763019359 -78.993906022609 0.889103052078 -139.278351694018 0.894621476255 -139.289669110563 0.120857300562 -42.706630926109
45000.0 0.117554705366 -83.84351594609 0.894723069066 -147.110726541829 0.890482429477 -147.127464333424 0.131941955634 -47.718493006618
47500.0 0.121876673516 -90.597437385911 0.879535522312 -155.091294603317 0.884660523633 -154.980056304347 0.140204388466 -54.606899511733
50000.0 0.118495082201 -96.631875675691 0.887601163498 -162.716795666763 0.882032050043 -162.846377894439 0.139077345703 -58.433320164912
52500.0 0.114565090305 -104.951357964853 0.871262171261 -171.047688177124 0.87661529918 -170.679675575394 0.138198047361 -62.415242235509
55000.0 0.103182840795 -112.911920872327 0.879052379193 -178.127806194167 0.876481483672 -178.553079533365 0.128503173658 -64.395343799834
57500.0 0.087347135611 -125.645592144475 0.865498405674 172.923095304607 0.870316762725 173.521995342559 0.121458577495 -65.799120758195
60000.0 0.066815283121 -139.863014823636 0.873229940579 166.302962051252 0.87197752077 165.695777240318 0.107606287389 -62.001781683387
62500.0 0.043344737693 -169.938203370566 0.861384618109 156.244830221546 0.864894720682 157.387022817451 0.102417846841 -55.491529829513
65000.0 0.034044670346 145.209455018902 0.86021200058 151.192943663856 0.861418686127 149.850352012359 0.102064916201 -43.186132462361
