! File created by SignalIntegrity v1.5.1: Signal and Power Integrity Tools
! https://github.com/Nubis-Communications/SignalIntegrity
# MHz S MA R 50.0
0.0 0.014449306981 0.0 0.98673358189 0.0 0.988721606674 0.0 0.012009218624 0.0
2500.0 0.022897213742 -58.802422377846 0.981140473758 -7.514009329746 0.980443266074 -7.473428074077 0.024364670987 -53.629827415501
5000.0 0.042425097377 -78.765375159996 0.975941100451 -14.47602715473 0.976847681827 -14.495046274787 0.041212008154 -83.351386129687
7500.0 0.058916165349 -95.884522068015 0.968596549697 -21.434602186609 0.967745521315 -21.44800197745 0.057991392006 -93.741011955501
10000.0 0.073287749765 -103.896045763753 0.964023743359 -28.201971538296 0.964895973848 -28.197710401575 0.072697709843 -107.833246102995
12500.0 0.084996178476 -114.63592517229 0.958022888952 -34.958032263094 0.957069602691 -34.994600213145 0.082170034496 -114.970618757702
15000.0 0.090668480059 -120.093836600999 0.955113831297 -41.661280268727 0.955688015437 -41.661198545907 0.089473681367 -125.642230896301
17500.0 0.09573251143 -128.093770863001 0.94881392622 -48.384706704428 0.947754129644 -48.417350964024 0.089761870844 -131.592655440904
20000.0 0.092621924808 -132.318944326632 0.947176483066 -54.970964098452 0.948148966968 -54.96736365038 0.089682155276 -141.325174988695
22500.0 0.090641106389 -137.714094023617 0.942498931708 -61.756735257886 0.941383687833 -61.783289269314 0.079370404977 -146.824437054202
25000.0 0.080196691467 -139.067462094122 0.940657227066 -68.307138737028 0.941360856676 -68.279370540165 0.071684518067 -155.934618951998
27500.0 0.073474379965 -141.002345254319 0.936409306739 -75.077419910111 0.935773426441 -75.144681392863 0.053456351744 -162.14235397422
30000.0 0.058472354916 -135.049280337206 0.93484914788 -81.662623238103 0.935959420963 -81.648742254712 0.038758091779 -172.876578743519
32500.0 0.052607943697 -127.938342019308 0.930835359732 -88.471348955763 0.930277976824 -88.549596720026 0.014904264272 177.325150827419
35000.0 0.045095233785 -107.661200021193 0.928118575413 -95.096085009239 0.92889656425 -95.036691658121 0.005935200817 51.701270803504
37500.0 0.051361474323 -93.547222844562 0.923235770549 -101.836343887086 0.922320609673 -101.942095059081 0.03186559573 -0.034770139549
40000.0 0.060276022079 -77.119750517834 0.919261663673 -108.341175584624 0.920443644589 -108.327704534446 0.051186855809 -5.874430567986
42500.0 0.0759371734 -75.62056421006 0.913078424731 -115.159780739915 0.913746867732 -115.27557895277 0.079757147139 -15.490902032879
45000.0 0.091192175246 -70.567533430678 0.909245626246 -121.542645794171 0.910451826361 -121.446274058982 0.09444189876 -21.117156078909
47500.0 0.107163032591 -75.393713076754 0.904060201786 -128.234107225092 0.904168117854 -128.34603341779 0.121682492409 -28.136737646088
50000.0 0.116948512315 -74.980086601015 0.899899076978 -134.68003778328 0.899928547148 -134.559306803704 0.129367484888 -34.564269304196
52500.0 0.132487819441 -81.143326657438 0.89310816909 -141.317335915922 0.892554505767 -141.414195958164 0.150448989359 -39.082258946794
55000.0 0.136918313483 -82.091247238461 0.887536296596 -147.452779562478 0.889879452949 -147.333984271894 0.148688954346 -45.939347971129
57500.0 0.151249466376 -90.13022913815 0.882203306046 -153.942541459825 0.882049913408 -154.167174053806 0.165097270988 -48.320029666439
60000.0 0.143462275546 -93.907202162478 0.879332760576 -159.913517701941 0.882365411892 -159.617800614469 0.155357507114 -54.370813452429
62500.0 0.141355245522 -103.746109302382 0.879439181833 -166.673923974659 0.880068471303 -166.944283335884 0.170649140647 -53.779960491415
65000.0 0.127322483037 -106.595353926097 0.875662131182 -172.245534657933 0.876061202611 -171.842601798053 0.150661956168 -59.759892051049
