! File created by SignalIntegrity v1.5.1: Signal and Power Integrity Tools
! https://github.com/Nubis-Communications/SignalIntegrity
# MHz S MA R 50.0
0.0 0.006860545096 180.0 1.6254197e-05 180.0 6.9255988e-05 0.0 0.002450186139 180.0
2500.0 0.012180738675 -122.694736865721 0.000358646885 79.730699711176 0.000341936121 79.163036082696 0.009105313563 -92.757156380501
5000.0 0.022408070107 -110.813847881507 0.000613382136 63.037332613396 0.000735117424 60.218726160575 0.021275791963 -92.805110662917
7500.0 0.032206661117 -108.965652301997 0.000958958721 64.487925466181 0.000940074162 61.435177479111 0.031729760369 -96.156364888525
10000.0 0.041018968373 -108.881536790249 0.001282441743 41.879936165079 0.001264854017 48.258649498102 0.041488685931 -99.631724621719
12500.0 0.048976469778 -109.661916520671 0.001426648664 41.695970027375 0.00145182257 40.826677046219 0.049406281654 -102.464861671281
15000.0 0.055532596502 -110.782591893844 0.001623617547 26.515511897657 0.001745269332 32.606304393215 0.055486515195 -105.418602914347
17500.0 0.060652161596 -111.195680697358 0.001812692907 24.73769201048 0.00186163135 25.639267363125 0.059508068 -106.902976512551
20000.0 0.065099043767 -111.604595640539 0.001975360815 14.735369677331 0.00218284961 18.784402174397 0.062113785675 -108.475637632714
22500.0 0.067881027546 -111.786607933927 0.002272533664 13.567405862315 0.002228161938 11.081697670719 0.062084192998 -108.53513573101
25000.0 0.070103683428 -111.379293284437 0.002856303939 1.035103750301 0.00260141847 1.637045001996 0.061694395487 -108.049368294214
27500.0 0.071405626937 -110.491135686145 0.002986718527 -1.411243261075 0.002783452161 -3.036340932509 0.059126353503 -106.220584799591
30000.0 0.071168485428 -109.599804566995 0.002997528531 -14.3487002238 0.003088974954 -14.504524019852 0.056897276914 -102.327251933854
32500.0 0.07115032082 -107.720961210296 0.003059048592 -22.589345335214 0.003223854836 -20.823903982286 0.05350492385 -97.441859657355
35000.0 0.069864976339 -105.415911175999 0.003491022959 -27.102782830354 0.003580245173 -28.81012139863 0.051240828204 -89.221063560271
37500.0 0.068739207482 -101.992563119458 0.003197562623 -37.022510983674 0.00355078768 -36.665633415091 0.050496165011 -79.892548921897
40000.0 0.066180752244 -98.300592198328 0.003558638573 -48.557394672737 0.003953137944 -43.090161183794 0.052146591073 -68.812017299724
42500.0 0.065407930995 -92.823872169461 0.004221765227 -57.164740895648 0.00393929546 -51.968559694413 0.056993073756 -59.38219136018
45000.0 0.064385127413 -87.462498097484 0.005061342977 -59.647465780736 0.004390719302 -60.685472070338 0.063505334364 -51.074763878867
47500.0 0.064929643985 -80.968061486442 0.00419163179 -63.016921909477 0.00431195709 -70.055229274121 0.072938636825 -45.614996952157
50000.0 0.06491588385 -72.278007629771 0.004883631347 -77.184533095222 0.004571624625 -74.682247336051 0.081141458176 -41.530338583955
52500.0 0.067384190776 -66.116294220646 0.00464064802 -79.242508639516 0.004968434923 -84.083247852728 0.092760529868 -37.739346084861
55000.0 0.070809496984 -60.102453884812 0.005288702804 -85.901216212881 0.004969123941 -87.505225296176 0.104312094132 -35.728552954264
57500.0 0.076674303644 -51.226576169299 0.00531570048 -96.951687532541 0.005133745585 -99.338565816473 0.118315138354 -34.22699408019
60000.0 0.079462548519 -46.225335487647 0.004305853406 -115.966165694153 0.00509956822 -109.39733877659 0.131253288669 -35.160514577096
62500.0 0.091159222689 -41.222128182941 0.004586038589 -112.567516718406 0.005985069773 -115.251414666166 0.144165679148 -35.381222273161
65000.0 0.101481009061 -35.770723340916 0.007473575287 -103.453133744279 0.004982810375 -118.811835936274 0.158236409826 -36.780074699306
