! File created by SignalIntegrity v1.5.1: Signal and Power Integrity Tools
! https://github.com/Nubis-Communications/SignalIntegrity
# MHz S MA R 50.0
0.0 0.005286043574 180.0 0.000382603672 180.0 0.000155936783 0.0 0.000880439698 180.0
2500.0 0.01062513481 -115.348820302005 0.000594480431 30.071645390411 0.000350641232 85.462151243699 0.008695595636 -80.089837045086
5000.0 0.020873689448 -106.473582085118 0.000715050293 88.202215537634 0.000814517869 55.101965377973 0.020807837604 -87.117224150853
7500.0 0.030209588338 -105.525013465984 0.001265087429 32.22810924255 0.000996692404 58.271244489879 0.031012676239 -92.171924997597
10000.0 0.038901945038 -106.244502476711 0.001128938103 56.492196982368 0.001451258335 36.169968605564 0.040518831075 -96.50583287594
12500.0 0.046318337443 -107.266653215679 0.001852593712 24.468981439658 0.0014771656 32.489344701162 0.048073041344 -99.985825350015
15000.0 0.05244147061 -108.674350420727 0.00144551345 34.806247090996 0.001955668669 25.27563003973 0.053691749529 -103.282256614311
17500.0 0.0565739602 -109.085574894198 0.002365126613 7.893078379346 0.001840191467 19.364396305479 0.057064527014 -104.833329902931
20000.0 0.060928429021 -109.731300968762 0.00162440409 22.134610671635 0.002319731487 11.775510177998 0.059145437577 -106.279794760274
22500.0 0.062611282011 -109.264005865093 0.002687526604 2.484706672681 0.002251373215 0.349109867782 0.058320220663 -105.810858081546
25000.0 0.064445803012 -108.475103738097 0.002171626508 1.579373618377 0.00275981101 -5.987325636174 0.057450354624 -104.358831573916
27500.0 0.064345407904 -107.010344207178 0.003292770808 -15.521762768562 0.002808496334 -15.895478689644 0.054441990293 -100.97967030536
30000.0 0.064077804059 -104.869988237419 0.002622277261 -18.234119243677 0.003179639686 -20.775258160571 0.052496650611 -95.131789570113
32500.0 0.062917452443 -101.713339455504 0.003852650279 -28.021274590272 0.003330909778 -33.758988775021 0.050262140954 -87.438418888978
35000.0 0.062829116672 -98.181585757146 0.003396579948 -41.080190277151 0.003723890679 -38.483397394473 0.05057275903 -76.790532112151
37500.0 0.061267931954 -92.795772116298 0.004335893075 -46.50476711546 0.003688048653 -47.178273384865 0.053215967058 -66.312768709088
40000.0 0.06053654145 -85.637450422011 0.003370681353 -54.001837344167 0.004231173257 -55.318226502211 0.059477849905 -55.87608532673
42500.0 0.062019454411 -79.026138726769 0.004394220309 -62.231751591613 0.004258029577 -64.492741240444 0.068156209389 -49.089284772367
45000.0 0.063379156346 -71.127481594203 0.004291854945 -72.10523936505 0.004707910534 -66.949323885146 0.078374153321 -43.827307804591
47500.0 0.066745660239 -64.156274139169 0.005977643092 -72.105114857935 0.00476394713 -80.246088281295 0.090291492748 -40.847087094034
50000.0 0.07116770011 -56.223246055516 0.004345846458 -98.955384520353 0.004771576632 -82.769836534512 0.101291485396 -38.507279944362
52500.0 0.077987810396 -51.050502671163 0.005611781637 -83.09187773092 0.005217907452 -101.264601186569 0.116815819629 -36.923655106147
55000.0 0.086341347309 -45.600632269084 0.004528947224 -107.60643272556 0.005309829867 -103.187570907088 0.130178789724 -37.124242779843
57500.0 0.097203106357 -39.641214275854 0.006019935277 -92.678869075572 0.005897103912 -112.193638682952 0.144684742457 -37.529309809655
60000.0 0.104454055101 -37.387560496532 0.006293529766 -132.957755695896 0.005773736314 -119.336572861232 0.157682672267 -39.1750322514
62500.0 0.11528970642 -33.856249122935 0.006922051852 -111.192080311683 0.006707288297 -130.175221862947 0.170779838118 -40.194450774809
65000.0 0.127810572637 -32.169039646589 0.006377630615 -172.506075570735 0.006075333169 -138.154894401155 0.185085173337 -42.212020463166
