! File created by SignalIntegrity v1.5.1: Signal and Power Integrity Tools
! https://github.com/Nubis-Communications/SignalIntegrity
# MHz S MA R 50.0
0.0 0.007513317207 180.0 0.000109832233 0.0 5.7427895e-05 0.0 0.001472195772 180.0
2500.0 0.014445338608 -126.150542808377 0.000305798438 90.497874160506 0.000346721895 72.747679214029 0.010436569469 -89.510281053096
5000.0 0.025133015313 -112.208152989 0.00079815653 63.317053397693 0.000697309474 66.021940875322 0.023295408854 -92.637226346929
7500.0 0.036144929833 -110.976147265659 0.000944754723 64.077265730536 0.001013017673 61.380391171334 0.034601942863 -95.971955813201
10000.0 0.045490949185 -109.344113606469 0.001547775599 46.175309966579 0.001339612064 51.219625161126 0.045078007414 -99.54606018313
12500.0 0.054733586078 -110.44536526338 0.001545950806 40.80812355866 0.001513832228 42.648329722874 0.054027136124 -102.3256644066
15000.0 0.062080290466 -110.318488429698 0.001950838796 33.611214173548 0.001802343 38.165620158485 0.061346725555 -105.429830978907
17500.0 0.069088514689 -111.193827688814 0.001743308535 33.604587172541 0.001952971846 34.079508854503 0.066540217581 -107.221923183204
20000.0 0.074629955255 -110.951762940753 0.00245236648 23.401320833061 0.002336295312 27.605370424213 0.070775729144 -109.293477884187
22500.0 0.079475762297 -111.7642006623 0.002429766825 17.812693628063 0.002392159942 20.274351269894 0.07219504007 -110.182019751336
25000.0 0.082794276647 -111.082947376859 0.00265736662 13.656816861834 0.002678511886 12.78823244542 0.073314278016 -110.991055785855
27500.0 0.08634346962 -111.2965268657 0.002752299406 4.603223443011 0.002955300578 6.488742545262 0.071831486809 -110.976860243679
30000.0 0.087273006174 -110.382659412605 0.00310424796 0.629116036122 0.003060004232 -0.721890411382 0.070393318623 -109.892975350983
32500.0 0.089307226441 -110.255371652427 0.003080142808 -6.172737243972 0.003340578879 -3.954593393567 0.066950057258 -108.666947876352
35000.0 0.088876558791 -108.670556159618 0.003703531064 -9.381830476061 0.003447670821 -9.31978483711 0.063278394452 -105.35368386628
37500.0 0.089406820312 -108.043130923115 0.003537728432 -23.420483944936 0.0037502112 -16.323898828147 0.059424031209 -101.122779380369
40000.0 0.087117366128 -105.409809806017 0.004345848778 -20.164963771654 0.004064066922 -22.6562708935 0.055898527652 -94.415285631666
42500.0 0.087793318138 -103.894678114675 0.004693639283 -28.360441412269 0.004180121766 -29.897948442855 0.053967312905 -86.425521928164
45000.0 0.084403559983 -101.010904467074 0.004722333573 -27.478665810273 0.004589440984 -37.406556060466 0.053194451881 -77.431769471938
47500.0 0.083364587216 -98.654939190068 0.00527673903 -48.44746882846 0.004584088609 -39.089285793325 0.055181125069 -67.701366491014
50000.0 0.078661427825 -95.991339406661 0.005036629271 -42.762264822763 0.004721540665 -52.81755786776 0.058067008176 -59.312459233387
52500.0 0.079845962923 -90.497571052946 0.005536552821 -68.106660219055 0.005321389655 -57.034604908357 0.064609884662 -51.557724333874
55000.0 0.075832012742 -85.036150019868 0.004862475832 -61.011354190785 0.005624581126 -62.426064252112 0.071109246889 -46.604014315692
57500.0 0.077515732518 -79.052369444315 0.006268390614 -67.371066852284 0.005245306243 -66.678593841354 0.079427136634 -41.751182599079
60000.0 0.076190521537 -75.252490003405 0.004702792544 -58.224938753704 0.005717118033 -79.821123534652 0.087044023126 -39.427172499024
62500.0 0.077531170861 -65.921561990519 0.007379363649 -94.714045164503 0.006305529452 -86.547360860577 0.09591802368 -35.871496140579
65000.0 0.07448842909 -59.697105761251 0.006513607092 -84.728012724357 0.006363798849 -91.515427529253 0.107274714999 -34.314160448689
