! File created by SignalIntegrity v1.5.1: Signal and Power Integrity Tools
! https://github.com/Nubis-Communications/SignalIntegrity
# MHz S MA R 50.0
0.0 0.007237563202 180.0 4.9337277e-05 180.0 8.9973091e-05 0.0 0.002313013384 180.0
2500.0 0.013835896568 -125.085568480937 0.000378477334 52.027149892588 0.000284612384 87.999290067582 0.009870252066 -93.676470429871
5000.0 0.024497497599 -111.371772101704 0.000653035738 74.721325546914 0.000712294072 60.223236439071 0.022395971959 -94.27994322236
7500.0 0.035278286088 -110.462458615424 0.001010979583 54.628944827132 0.00090092527 61.704618820159 0.033331727863 -97.302597545875
10000.0 0.044499779181 -109.015143626115 0.001245295793 57.565967021402 0.001274021423 49.041880851208 0.043421958786 -100.652499287329
12500.0 0.053535524405 -110.484010887031 0.001453346309 40.963864928375 0.00147829032 43.104592631921 0.051867107614 -103.428894363529
15000.0 0.060644557552 -110.4203403184 0.001597702639 34.6135566386 0.00178083461 34.993096348686 0.058559600753 -106.509454055909
17500.0 0.067169913571 -111.447382028444 0.001873276142 27.316649693528 0.00184493603 31.164263217478 0.063125597374 -108.2045090261
20000.0 0.0723226846 -111.660470132111 0.002104215563 25.418431658704 0.002227974651 24.232590141735 0.066685263781 -110.190193324062
22500.0 0.076561078493 -112.067099661367 0.002479192888 14.240520045795 0.002356418218 18.660526116778 0.067323205852 -110.919494210883
25000.0 0.079591625251 -111.347881736831 0.002395010052 8.529641907277 0.002626608494 9.425902240317 0.067690484206 -111.300129279292
27500.0 0.082305563742 -111.610879834457 0.003002782239 0.353909257156 0.002832239413 0.844882804944 0.06551393177 -110.922001274344
30000.0 0.082671670574 -110.462485719657 0.002879858665 -4.746699042388 0.003073545265 -3.186032192379 0.063492453256 -109.041511406236
32500.0 0.0845553126 -110.086303029048 0.003626230316 -16.483311187746 0.003188447731 -11.132628007567 0.059444265591 -106.82184072841
35000.0 0.083935500644 -108.339934572834 0.003090779929 -19.581857395811 0.003356877182 -18.943892515007 0.055468747139 -101.79832386571
37500.0 0.083729605086 -107.145144136574 0.003700013527 -25.010857291349 0.003441756226 -25.572941178675 0.052058517094 -95.412550303139
40000.0 0.081463069497 -103.844403637623 0.004042754136 -34.505351733747 0.003687310046 -33.786330975616 0.049624467864 -85.993464235018
42500.0 0.08095740733 -101.797592706026 0.003894083173 -35.091934120714 0.003829163236 -40.072399066249 0.049167598695 -75.489474217375
45000.0 0.078990882309 -97.830529710669 0.003995001385 -41.672775128736 0.004296127434 -42.814490101158 0.051281657466 -64.976201700501
47500.0 0.0770516964 -95.247131259123 0.004171130848 -61.96470387447 0.004409979032 -51.677372941574 0.056459204525 -55.944540482457
50000.0 0.07431399087 -88.963420562263 0.004957502931 -58.524310254365 0.004495109352 -58.244640716158 0.062234281283 -48.408992733993
52500.0 0.075655719309 -85.413278121304 0.004862579183 -61.023685264397 0.004882854019 -67.14023890896 0.070773047405 -42.390122901354
55000.0 0.073233979684 -77.814961863679 0.005177464368 -68.252813259773 0.005364979244 -73.030798101233 0.078683680222 -38.864027938271
57500.0 0.075749608717 -71.609409210032 0.005448967994 -80.057075942174 0.005260369179 -79.198587707593 0.08870059454 -34.084715312029
60000.0 0.077164132197 -64.307369723841 0.004182715638 -79.860191519911 0.005697686973 -91.971603937455 0.099868818872 -32.528485789344
62500.0 0.081184640271 -59.037218866237 0.006084429073 -100.458955741777 0.005988075899 -97.982509861511 0.113027576716 -30.745117384755
65000.0 0.079362070206 -51.241890934877 0.006008614654 -124.465715924744 0.005348236025 -98.651428083365 0.126753739004 -31.812457441256
