!Pstart = -2.000000E+001
!Pstop = -1.000000E+001
!Pstep = 2.564103E-001
!
! 4/30/2026 12:14:51 PM
! C:\ANRITSUVNA\TEMP\TEMP.S4P
! CHANNEL.1
! TR.MEASUREMENT
! CORRECTED.DATA
! RF.CORRECTION: FULL.FOUR.PORT.CAL.PORT.1.2.3.4
! AVERAGING.OFF
! IF.BANDWIDTH: 100HZ
! SWEEPTYPE:  FREQ.SWEEP(Linear)
! Reference Plane Port Info
! DISTANCE:          0  m               0  m               0  m               0  m
! TIME:              0  s               0  s               0  s               0  s
! PHASE.OFFSET:      0 °                0 °                0 °                0 °
! LOSS:              0  dB              0  dB              0  dB              0  dB
! REF.LOSS:          0  dB              0  dB              0  dB              0  dB
! REF.FREQ:          0  Hz              0  Hz              0  Hz              0  Hz
! Power Info
! POWER:             -20  dBm           -20  dBm           -20  dBm           -20  dBm
! EFF.POWER:         -20  dBm           -20  dBm           -40  dBm           -40  dBm
! SOURCE.ATTEN:      0  dB              0  dB              20  dB             20  dB
! TEST.ATTEN:        0  dB              0  dB              20  dB             20  dB
!
! Created with skrf 1.9.0 (http://scikit-rf.org).
# Hz S RI R 50.0 
!freq ReS11 ImS11 ReS12 ImS12 ReS13 ImS13
! ReS14 ImS14
! ReS21 ImS21 ReS22 ImS22 ReS23 ImS23
! ReS24 ImS24
! ReS31 ImS31 ReS32 ImS32 ReS33 ImS33
! ReS34 ImS34
! ReS41 ImS41 ReS42 ImS42 ReS43 ImS43
! ReS44 ImS44
!
10000000.0 0.9989473277542344 0.0021173312290693326 -4.2963020641926165e-05 6.044679924786935e-05 0.00010715957821674446 0.0002829454167320022 -0.00024319502134631193 -0.00013294960464408105
 -5.3115631194620214e-05 7.297339251660665e-05 0.9995790706152142 -0.005689840382890365 -6.322953325852829e-05 0.00015858256978644434 7.356412753132342e-06 -0.0001858375621097171
 0.0005437023050997186 0.0007164360821201683 -4.196095074610631e-05 -0.0008581811610346955 0.990201360820216 0.001841673827003047 -0.00035923140410307723 -0.005301493779080844
 -0.0007783234792289727 -0.0002984306666080645 -0.0008985497490689728 -0.00040274652212667934 -0.004905248089988677 -0.0037874062208996095 0.997588275263906 -0.01013545175922572
79990000.0 0.9969879520754141 -0.005800354372375694 4.395927610711031e-05 0.00040263535235102963 -0.0001339106540772207 -2.7207436834196717e-05 0.00028869597968532635 -0.00010630108158183734
 -2.584356707224552e-06 0.00041984479401241734 0.9981377297045404 -0.007717964359148282 -0.00012043462496869837 0.00014741459557165724 3.469547453814946e-06 -4.391778848726715e-05
 1.0400765764928583e-05 -8.651786869613056e-05 -0.00026029222976860705 -0.00036717937578239845 0.9961733275926918 -0.006133074797219472 0.0007468678729133341 0.0012902284911072688
 0.0001137721217886808 -6.918089871965052e-05 -8.976465807822778e-05 -0.00021222984910531848 -0.00029498128434867556 0.0006422592754490669 1.0002233815709602 -0.007132767891966348
149980000.0 0.9982880364827929 -0.007229642358994305 7.281157922273339e-06 0.0007970652590885992 -8.212087969592406e-05 -0.00019388131790230956 2.2942605799635623e-06 0.00014614097116982995
 3.633963856295842e-05 0.0007869369445750983 1.0014597199199888 -0.008660505676674464 0.00014508495388635494 -5.48355949308036e-05 -7.321097775131535e-05 -8.735962259975146e-05
 4.431810206677988e-05 -0.0001408040977053091 -7.413258919058411e-05 -6.413078488867993e-05 0.9977567766093762 -0.015417047992805284 -0.0010310173506232097 0.0006080939393214253
 -0.00015866612242794667 -0.00016533646776356842 -6.726015362060112e-05 4.871536014544142e-06 -0.0006582867818607839 -0.002527418882708584 1.0017196072792705 -0.013363164001616105
219970000.0 0.9969127686452028 -0.013837330999196337 1.595703473352715e-05 0.0011690566248982984 -0.00026977530617940473 -9.363010422232578e-05 0.00026620218243978403 0.00010378136413354206
 1.55090811167776e-05 0.001162341766769261 1.0006794021580014 -0.013218067850333966 -0.0002208203890183584 -0.00018323163395056675 0.0001505014196164533 -5.328538589725063e-05
 0.0002703944604847292 2.3987161235067153e-05 -2.0743760522557366e-05 -0.00013017136339609468 0.9949795483175037 -0.021250647462850783 0.000978153877002508 0.001733222831625815
 -2.0938887330185933e-05 -0.0002295075759231887 0.00023663475225663326 0.0002528933156968631 0.00207434216212684 0.0030459326838214347 0.9984214298758626 -0.018287781237198722
289960000.0 1.000620718341949 -0.018151443951446224 2.678316880382558e-05 0.001542444468262099 0.0002752071866769122 3.502377437405958e-05 0.0005906156156885439 0.0006097997488044825
 6.955627265970937e-05 0.0014808308003902632 0.9959682745463628 -0.02119474058287827 8.26848286668163e-05 -0.00012811534885064413 6.0533075662311626e-05 9.381469964033e-05
 -0.00020558943914910082 -0.00010434659700772382 8.425633752237852e-05 3.519597265409065e-05 1.0027796031848695 -0.027580871695283213 -0.0007252670569716073 0.0004884827002373882
 -0.00020853277284041175 -0.000226338057158977 0.00023338308910627716 -0.0006007863992519454 -0.00250712692368084 7.949045723743947e-05 0.9968576401136447 -0.027534249225643303
359950000.0 0.9967636027285941 -0.02267593374557349 4.2395809344809565e-05 0.0019528805647870313 -0.00012173008053655457 0.00016540119567057748 0.00031396072957088446 -3.745804130946939e-05
 2.8235520042848465e-05 0.0018794855774272676 0.9970548163779095 -0.022157034505334783 5.45214576135485e-05 -0.00034810434067186806 0.0002302584133727355 -2.290814011688371e-06
 0.00011186542783353478 -0.00013599264952539832 8.767201193456888e-05 -1.2436409972722926e-05 0.998987127687141 -0.02980825980049586 0.0008090299631472893 0.00046563853322786853
 -0.00017456645616036246 -0.0001069509943216401 2.9526197830370173e-05 -0.00038785886570798304 0.0008918373087057665 0.0027743887038824623 0.9980993220152384 -0.030874304201647895
429940000.0 0.9994010257717074 -0.026505930535485455 3.298401753358288e-05 0.0022280601755408002 -2.9923324114457263e-05 -9.534430119798978e-05 0.00038010094392227527 -0.00026627354327304334
 -1.4990110831261317e-06 0.002229094097061357 0.9967140054578856 -0.025589883204180167 0.00021009752049194551 -4.628151285037313e-05 -0.00020893740076328526 -0.00015805881937119018
 -5.527454663068584e-05 3.685559594828785e-05 3.4787437330828e-05 0.00017947839245105885 1.006678231215779 -0.03714761486075788 3.259390449845119e-05 0.0038953079482242268
 0.0005029448352189661 1.5272781604900107e-05 -0.00012492234494316439 -0.00031546795794007453 0.0027481716787449172 0.0033398228848099203 0.9939147387566234 -0.04243571910814086
499930000.0 0.9999479434736642 -0.030039034168447654 0.00012483145057522088 0.002574596133911203 -0.00021729523355939584 -0.0005954740299183253 0.0005366573347403619 0.0012331230871319469
 -9.049369280405987e-06 0.0025545080461535827 1.006898890007487 -0.04260311660024447 0.0005022742296374989 -9.240596454623061e-05 0.0001278054293662376 -6.592191713965447e-05
 -0.0005174009089379803 -8.540839345611962e-05 -6.664663772567333e-05 3.4325421144797524e-05 1.000456097588572 -0.04288979809774002 -0.004375236363615191 0.00342363722043228
 0.0004213582523521885 -0.0003247634148376226 -0.00048364452368734157 0.00041031714026824845 -0.000639724267758434 0.006161883747320936 0.9917686006027535 -0.04469523977821411
569920000.0 0.9991573261155595 -0.03634475794570586 0.00019192440478959887 0.002922986628393266 -0.0006593723761725987 -0.0001995786531443245 0.00031743494391175704 -0.000276772373156715
 2.0536932787637287e-05 0.0030206434330304196 0.9911529970485665 -0.04264280694718627 0.0005212079863167395 -0.0008585102585343998 0.0003023875144522813 0.00042477242296898315
 0.0008688884564545179 -0.0005745202154604647 -1.826670828061997e-05 0.00040648162538374835 0.994544871939339 -0.03681559018326693 -0.004526208645051629 -0.0006106884492342367
 -0.0011771928162926627 -0.00012064609051876311 0.001014058158675041 0.0005824688968005753 0.0005685824578002235 0.003280747524990089 1.0070904245820433 -0.049459622016854735
639910000.0 0.994011355107356 -0.03278395066227618 3.6724197749707935e-05 0.0033313641904309946 0.0004818781829165666 -0.0012259002622532161 -0.0001497209037188527 0.00011077955324253503
 2.1451308459299737e-05 0.003249997598767093 0.9917985077416177 -0.04453527741446664 0.00053815146490104 -0.0007617402922755268 -0.001779877232988938 0.0005774140492190594
 0.00109543924809688 -0.0008935435743993115 6.511506496871993e-05 -0.00028403370029442997 0.9830838908404615 -0.05074564882334653 0.005433652449253508 0.005695718774896149
 -0.0005302157481118449 -0.0003893383070532658 -0.0021739611012663806 -0.0023228041771594285 0.005182253270566446 0.006486695809775118 0.9888275251929575 -0.05901985788841194
709900000.0 0.979610496716047 -0.03390956225920952 0.00015982471068089543 0.0035122815823417117 0.0009310778135751647 0.00035676772714576864 0.0009372696948434757 0.00117044795683685
 -1.7079015791018226e-05 0.003785049634243661 1.0061776841281875 -0.03280147786406738 0.0004068247526174935 -0.0006007382898871278 0.00043281280172655757 -0.00030369472066492994
 0.0007614148046119134 -0.0018525330475545408 0.0009240374281566811 0.0026844488092130536 0.9775272071445195 -0.05364759501274472 -0.005040400729005054 -0.0028636835906964402
 -0.0008938748546368385 0.0016536284244097845 0.0004922601400040655 -6.992399904132475e-05 0.00829275234858539 -0.0063624800678436745 1.007146344887221 -0.06392748475567998
779890000.0 0.9954652789700933 -0.05584369255621536 0.00033086611201393066 0.004069205325705816 -0.00011602606293018834 0.0010400124529754407 0.0004867719318540035 -0.0005274431914999747
 0.0003493086592408597 0.0040297956553305165 0.998943551805337 -0.05220823410773743 -0.0007760946576231081 0.00046242865996834595 -4.8098430157303236e-05 -0.0002496214394862719
 0.0002867652372549596 -3.11301238877249e-05 -0.0010514917829564053 -0.0003021381222196307 0.985852120142593 -0.08771444168200147 -0.0020107160015301923 0.00947235598540537
 0.001235515557798443 -0.0015268317082720241 -0.0010908857641597582 -0.0007188204766008074 -0.0015572678886803493 0.01306334477368391 0.997468651754116 -0.0667122479335299
849880000.0 0.9926121202156765 -0.053511678544792114 0.00014365755725654538 0.004428321010476247 -0.00018979881671645434 -0.00026671978359643677 -5.827876469929022e-06 -0.00042509078407090053
 0.0001835070038670259 0.004407541508367147 0.9941701451719642 -0.04952168362039981 7.307373826062339e-06 3.9868319289642385e-05 -0.0003374596779258244 1.0525075406184381e-06
 -0.00023836002749178173 -0.0002705405233976776 -0.00020408825588739366 -0.0005730926004704933 0.9932582525082762 -0.08043979958689276 0.004321599859640099 0.007375508878675206
 0.00027516732021635467 -0.00017250453959805778 -0.000251116327834516 0.00032880675278668245 -5.829199375683549e-05 0.003619413342317828 0.9907099135757593 -0.07262829993260263
919870000.0 0.9981746049637914 -0.055072632046590936 0.00025427341916074047 0.0047197517428537875 0.0004095247858336186 0.00021265458562142017 9.222602760305906e-05 -0.00032361042338454254
 0.0002047345196489329 0.004775135391561976 0.996557594094267 -0.05429977925102576 0.0005297614102789751 -0.00021745809091061036 5.844690969296359e-05 0.00010944928900695036
 -0.00031863663583149197 0.00032569131026942416 -4.9874777427125616e-05 0.0001787783415266426 0.9893576493695571 -0.08105829979343218 -0.0036819820453615065 0.002450380818801219
 -0.0009884278846506757 -0.00026308899573680684 -0.000686693533916695 0.0005854767721700388 0.0009819394454241477 -0.00020201155237154956 0.9887021859227145 -0.06965555146911123
989860000.0 0.9927783688145381 -0.05975196700647436 0.00023984058841785576 0.0050685861337903945 0.0001561732907738167 0.0009682052880206438 -0.0005246220130304059 -0.0003942124390742254
 0.00025665711167257747 0.005060368255999196 0.9926267222133389 -0.060595612431250466 0.0004751481640912573 -0.0002722043947703636 -6.592094921120976e-05 0.00016890774108644326
 -0.00015528184851662727 0.00027570351020805964 0.0014203238741645986 0.0006288618131710202 0.99004769767831 -0.07889069154917215 0.003922944735347187 0.0014332551442925979
 -0.0005156264139447274 0.00043032996700485116 -0.0017503003337434018 0.001995799882669033 -0.004927684803729211 0.0075933937193091465 0.988545228468157 -0.09372043089528996
1059850000.0 0.9953739101794207 -0.06249710004534394 0.00033680148222833475 0.005481409206894297 0.00017418156951970657 -0.00022012605408812394 0.0004176385221182907 -0.0002013079053837134
 0.00029586898024155423 0.005450169513050082 0.9935250741209838 -0.06140951623588306 -0.00010583588638878987 -4.050392640158522e-05 -0.0002522229045183421 -0.00013991246609552989
 -0.0001324020630208851 0.00046407854448316134 -0.0004087718121780579 0.0007332941982766476 0.9902635291228821 -0.09423177370902187 0.004650303836024847 0.008920404852203346
 0.00012773976182507563 7.937366245051325e-05 0.0012418670415300422 0.0007227888107848524 0.003368496742935748 0.007086273301502829 0.9938178111682214 -0.10045949661365154
1129840000.0 0.9971917398490997 -0.06391976780474178 0.0003953588127268856 0.005771616390108227 8.997951166816766e-05 0.00016579540514405372 7.431296444913932e-06 -2.1511677420964827e-05
 0.0003682111766787641 0.00583151618884536 0.9975762329045282 -0.06537533326553417 7.480793114519997e-06 5.113065166957152e-05 0.00011538850291140585 0.00017930552957893842
 0.0006141401343315505 -0.00020405154342678847 -0.00011947156785317615 8.332530196490773e-05 0.9952930206836469 -0.09352668560422474 0.0019922784092181022 0.004382142454966965
 -0.00014055657804235691 0.0003504812534261786 -7.408710208389267e-06 6.800057503348676e-05 -0.0015088600517388744 0.006901619845198704 0.9955828660162458 -0.09251931770396478
1199830000.0 0.9914665713913663 -0.07090032093786165 0.0002579271616081783 0.006248097116347873 -0.00032703890897617545 -5.896334608402486e-06 0.00015512598156441847 0.0001698000945719049
 0.000404997132519778 0.006269954398452622 0.9937372826286919 -0.06827726272418767 -2.855285265756534e-05 -0.0006036883234371883 8.58037113326877e-05 -4.565497704253229e-05
 -4.122370226360465e-06 5.5247209833042646e-05 5.628684958693984e-05 -0.00040417874186803764 0.9912703163543193 -0.10034717406763273 0.0008277547860998796 0.006521813360556375
 0.0005861454320003052 -0.00035387190554415454 -0.0007722088591492905 0.00031165247836893034 -0.005193514715273518 0.003152283479354474 0.9880940403227583 -0.09732348754723065
1269820000.0 0.9950438221440235 -0.0720663440603427 0.00045344038302931464 0.006581908428476359 -0.001041251131677149 -0.0003851994135063643 8.001578733571656e-05 -0.0004380330458385626
 0.0004143573304208934 0.006512522548618433 0.9926992680397607 -0.07550257435737626 -0.00013946761994133763 1.2520763653128492e-05 -6.796857811720166e-05 0.0005091012117160865
 0.00018664584359830293 0.00012697886392558597 -0.00031081615401269794 0.0008902903788211778 0.9823003348563619 -0.10755308055431184 -0.002783923626601055 0.010153470103951956
 -0.00019344092790716768 -0.000425768367042658 0.00022102351468758459 0.00025360274916296795 0.0004903946477022384 0.002159633311109589 0.9912464022820614 -0.10528648805550715
1339810000.0 0.995150150430454 -0.07538897535880186 0.0004951402107325524 0.006789034682768491 0.0001947277354787882 0.0005595032076285802 0.0002272975109519355 -0.00039614503950035333
 0.0003721641455802306 0.006863029914529257 0.9886926994745349 -0.07357793405639948 -0.0002759430263386018 -5.50046447226974e-05 -0.00024867326143498286 0.00010716766582731363
 0.0003663087326389358 0.0009445332868815333 0.0007983768235421595 -0.0010302585002787575 0.9869705480376638 -0.10988297281736852 -0.0003953502965093664 -0.0011047173044163362
 -0.00038821743805246306 -0.0003509857326791462 4.789918918602452e-06 -0.0001723980848443642 0.0012151701297618792 0.00491162010101495 0.9869477668955632 -0.11179559743754795
1409800000.0 0.9926256654628576 -0.08788599219765568 0.00042105879579778014 0.007372884622240257 0.0006027168756376742 3.0727146400310195e-05 0.00039734631021250903 -3.0805929269362707e-05
 0.0004358825950671147 0.007207393537996725 0.9919356173362031 -0.08531888276949072 0.0006390625222437418 0.00012606435965621725 -0.00048044308960460086 -0.00034598539889752264
 -0.0003348388112681168 -0.0009621370298802522 -0.00022548259085619768 0.0004606334650564697 0.9883120756978157 -0.11827871609821383 0.003389152590870033 0.007997507598454792
 -0.00012283355922447042 -0.000801354218501484 -5.6264399287306407e-05 -0.0001559881744177601 0.008022201439295705 0.004399649610339687 0.9808243980309951 -0.12812485230206969
1479790000.0 0.9891753951967334 -0.07295627477474977 0.0005698957725575396 0.007359721044081719 -4.728786715995927e-05 0.0006423189626786682 -0.001207763222929086 0.0008299857665374687
 0.00044182251999861033 0.007591879312932721 0.9832265429020535 -0.09670577257218411 -0.000608253737247163 -0.000852475900096077 -0.0009496790568330534 0.0008951357041843184
 -0.0010915845642590714 0.0006252727623472889 -0.000873633585760871 -0.00223640515407207 0.9843642076419202 -0.12597379993767174 -0.0070295177222723625 0.012516930383690648
 -7.661031638253442e-05 -0.0005254759225596529 -0.0006977265662050066 0.000475312891110017 -0.014435405261653173 0.01193937493437312 0.9737715733029487 -0.11028526023958968
1549780000.0 0.9890203594146472 -0.08239629415240875 0.0005596268995308796 0.007918741670335763 -0.000427847709045277 -0.00038372138180605455 0.000328885269193497 0.0003836149831472466
 0.0004162773084140232 0.007952126207463212 0.9900784587527282 -0.09267454354757516 0.00025148874557728775 0.0005504309265870897 -0.00031875552774386987 -9.992675368070222e-05
 9.946254077541795e-05 -0.0008223293126337078 -0.0012437903276840724 6.732644127619557e-05 0.9747262534296522 -0.12312332247301032 0.011737507445757236 0.009865982762903593
 0.00014459116327833019 0.0005760704692856415 0.0009023028827288158 -0.00011602555215075107 0.007831066944238406 0.012167320576611395 0.9775755515540411 -0.1253752627009181
1619770000.0 0.9986021084510728 -0.09375663393448368 0.0006641791212105039 0.008419150529785379 -0.000909255046064655 0.00023345870784152045 -0.0002072047592846946 0.0003280608138267849
 0.0006071387440063346 0.008463145684844828 0.9856764079783021 -0.09081370217067088 -1.17989966503031e-06 -0.0003525397300726919 -1.861542670543584e-05 -0.0007708162982447093
 -0.00033285027676731863 0.000979607147491559 0.00044282713534868183 0.0022542367819568393 0.9853470486432028 -0.12470096721091307 0.002314861274840536 0.00871322853216864
 0.0009700957029215717 -9.99820462246411e-05 -0.0003434536731932299 -0.00012619758818198878 0.0004669122725142564 0.008516247154758025 0.9803277069517834 -0.13591172956850855
1689760000.0 0.9873768787594677 -0.1058873385735563 0.0008058596543147621 0.008628235685570168 -0.0003937618294824429 4.042511455429544e-06 -0.000161135708058417 9.335863900638014e-05
 0.0010023596522248665 0.008567184874907964 0.9846713539533385 -0.10760814570098261 -0.0004213938038406614 -0.0007368652674269805 -0.00045742831752645826 6.610450434445477e-07
 0.00014191778095749033 0.0004179071157613548 -7.718790780251288e-05 -0.00011746848482929717 0.980637004303167 -0.1505400139456933 0.0011938569868828162 0.007143889283405045
 -0.0010160964824269128 -0.0011043774928104898 0.0004421607966679321 0.00038979427513393696 -0.00023221304583819413 0.019513346249198447 0.9837425300439717 -0.13649659639982648
1759750000.0 0.9878880314950479 -0.0967773971156655 0.0007469667016067612 0.009187691802449422 0.00010326844196927357 -0.00015450754135792126 -0.0001655178018621591 0.0003686620189904506
 0.0006102186042320882 0.009011968669310838 0.9956179089371264 -0.10388242933663994 0.0002559916807437458 0.0005870502294314964 -0.00019635168222688766 -0.00037720736070558157
 -0.0011101430840606337 0.0009587334201560898 0.00031197918949665626 0.0018402225767405176 0.9784335077118291 -0.14448118140587893 0.006357273438624159 0.005078200934309087
 -0.0006606523976833301 0.0006724256035161627 0.0004360596639658301 -0.0016070600806749535 -0.003930659336650437 -0.0017219461448607103 0.9927052456536493 -0.140141927469503
1829740000.0 0.996513072650588 -0.1013732974578647 0.0006659301697296259 0.009420318258375854 -7.928564990229841e-05 3.670953049892474e-05 0.0001326118757177286 -5.6175849035684576e-05
 0.0007805651863512378 0.009540359705134716 0.9860321808430217 -0.10385193591206893 -0.00012095428676644746 0.00022485832031322119 -0.0002553114819124336 -1.491342192584857e-05
 -0.0015624493327837962 -0.0005081891732987875 0.0001787349660515179 -0.000616312551302096 0.9871166269779995 -0.1430705160132302 -0.0012426637380497853 0.012737183247274454
 0.001444569400651316 7.111269381933572e-05 -0.00038643353465457874 -0.0008381160163232632 -0.00026593760595163755 0.007841224174924442 0.9778002575281725 -0.14671176820494192
1899730000.0 0.9848442155408479 -0.11457998046221746 0.0009177540136939121 0.00976179338587572 6.904839894462642e-05 8.787910668750454e-05 0.0003258051989135721 -2.475976328537485e-05
 0.0008035622093262556 0.00961830677803615 0.9872460980369275 -0.11298383787708105 0.00015924028751429254 -0.00030467952024741397 0.0002435776029883235 -0.00017608279063135277
 -0.0010936757951163219 -0.0001869709670991422 0.0007123308069753208 0.001406529961680381 0.9827221676734973 -0.1591765745120665 0.0006850231088665671 0.005308972430208861
 0.0022758221188996664 0.0026726809981401467 0.0009975705919956052 -0.0016833439659872456 0.007097034746114029 0.01181207505840242 0.9821507251733356 -0.15568234827602176
1969720000.0 0.9832842950524345 -0.11580898538963405 0.0009909767750237942 0.01020298255540977 0.00044494078042459144 0.0005736044818150202 0.00026378287225812776 -8.886941824173177e-05
 0.0009353572081918184 0.010149886267379527 0.9862539213333663 -0.11648826815419618 4.9722567054141455e-06 -0.0004060073860159513 0.00014605126564247158 8.947803203813058e-05
 0.0002492944368326202 0.0007211472489990935 -0.0005095384443810073 0.0002910624209609653 0.9737350170047002 -0.16960511773712011 0.0030200717983071227 0.01645917043724914
 -0.0014489153572832686 3.846501654037796e-05 -0.001550966029459823 -0.0011358839609995667 0.003193832523840567 0.0136567554914853 0.9878978008126273 -0.1588650596991161
2039710000.0 0.9895875576417232 -0.11568006860674286 0.001165090959519615 0.010523421731227535 -0.000368633788356476 0.0002631905703848546 0.00044556397405494554 -0.0005914807291127164
 0.0009375960244773369 0.010451168228739443 0.9854559249591391 -0.1124111091874255 -0.00039837394660755074 0.00018641617353438653 -0.0002077016584116847 3.2625727043818127e-07
 0.0004165258229761816 0.0005818119162394435 -0.0008403423969596155 -5.303625454972117e-05 0.9794172657130021 -0.16584579340369685 0.002218813143690047 0.01024404765173447
 3.357777726693082e-06 -0.0006507620505303817 -0.00018794870256492527 0.001320771582345014 0.00544137358609184 0.008503856796813288 0.9788314128901887 -0.16178494114648834
2109700000.0 0.9829094932066552 -0.11646451504164997 0.001077061984498821 0.010699740280733094 0.00027841517881687587 -0.00015363834540421954 0.0003667253212744229 -4.624993684280147e-05
 0.0009003014780738568 0.010757949561888452 0.9849479703720109 -0.11478174300089608 0.0004893633750193467 -0.000363555379657265 -8.46012977398062e-05 -0.00027205825800999926
 -0.0004805497054307494 0.00030506965893301914 -0.000456783189161257 0.0005158765968701161 0.9699719638853231 -0.17357228049569845 0.0031011455403097965 0.012043819085345861
 -0.001170615724329177 0.0006303880560987367 0.0003517171216685418 0.0003992277124315796 -0.002824378431038437 0.008144455620283398 0.9744596949291068 -0.16721413210235922
2179690000.0 0.9859568312292568 -0.1284603652677323 0.0011847962871061016 0.011156792371141706 0.0002960228949842336 -0.0001241389593567668 -7.268213476935996e-05 0.00027092995629198835
 0.0011037392063722527 0.011060912253919438 0.9867699641058986 -0.12864633408536774 0.000528081391276925 4.4755432399818886e-05 -7.238189116267713e-06 -0.0002515201258813581
 1.2870803828273977e-05 -0.0006841875523310513 0.0004977919218868734 -0.000145444495660654 0.9769445230968853 -0.19560166487483804 -0.0008023814540980369 0.011904750088100128
 -0.00035160042503698514 -0.0011156025250655868 0.00032313285181804336 -0.000983773518306953 -0.00107385115701352 0.007589268504142957 0.9851056803501188 -0.17311970148718614
2249680000.0 0.9856217426603082 -0.12907740302041062 0.0011765418708293421 0.011389379061049148 -0.0005230765238179657 7.081847494938916e-05 0.0002738635263355053 -0.00021951264951692787
 0.0012490221639743834 0.011588669040119182 0.9882562138427813 -0.1337587670040694 -5.881750855456246e-05 3.3555037293636305e-05 0.0006435896286446556 -0.0006573768641651336
 0.00030915173414232665 -4.804549373480495e-05 -0.0007534920185422869 -0.0007989239448819219 0.9766320181938732 -0.19644448748270676 0.0017267565782999484 0.014534565557018623
 -0.0002770163263042687 9.697608687656864e-05 0.0001698743846179365 0.0007590843446184376 0.001598786244183164 0.012236359227271962 0.972840955322365 -0.19161260632911847
2319670000.0 0.9807068724457052 -0.13862480736381913 0.0013061720544561542 0.01176335207469146 6.647786802427009e-05 -0.0002498981864256911 1.532556844824085e-05 -0.0007500027387768796
 0.0013309496384126727 0.011554421230914593 0.9793826993816414 -0.13025654985910268 -6.960551942843705e-06 5.642412652561404e-05 -0.00012677528797638236 -0.00020877704561867753
 0.00019502724678991065 0.00035331106922166516 -0.000554583430303111 -0.00017658069504059725 0.9582572573218143 -0.19851024870371453 0.005006514395731603 0.01133252826512876
 -0.00039789656170118796 -0.001089229278545098 -0.00020864715559241207 -0.0004120927903670362 0.0042648859949800345 0.01921326481882302 0.9722071233125701 -0.18167123718593695
2389660000.0 0.9902238667110145 -0.1408230847343154 0.0014294747419712848 0.012203553657621675 0.00043846309908616445 -0.00010108145914183407 -0.0008862155834129148 0.0004135278405311311
 0.0012181647495748675 0.012000879232750061 0.99477423488342 -0.12716734006610547 -0.00046763011407658934 -0.0006250008283310162 0.0002478929916755626 0.0001782375219245587
 -0.0009684439981946069 0.0007454630598668273 -0.0008372704464627166 0.0016706792899724547 0.9768757359242615 -0.19204513735940698 -0.00043424727178510724 0.0029879881839476336
 3.162062846268476e-05 0.001318922337802672 0.0005794999923662234 -0.0005766326470521685 -0.0027172537136997722 0.01670670943145283 0.9810529272504727 -0.18128480815265807
2459650000.0 1.004174578300601 -0.1621064577755575 0.001326308224532841 0.012527898540194333 0.00035928903243749474 -0.000537753451916518 -0.0006008530819387599 -0.0003732666454287926
 0.0013450776598169254 0.012432313112624101 0.9913950156359155 -0.1400518542954412 0.0007151288957486244 0.0008097853342013909 0.00046905822216783297 0.00022004666176787983
 0.00019705345698196414 0.0008246108553292303 -4.768386832571433e-05 -0.0002394521456285628 0.9938117069650514 -0.2339088939674054 -0.0007119454913725914 0.008094501831495593
 -8.050202527466426e-05 0.0003499854425965144 0.0007446761632633274 0.00046423935982395733 -0.002387285695091503 0.010570166367685645 0.9898300826342324 -0.20214703482781576
2529640000.0 0.9909096108557699 -0.15467118594533538 0.0016355133620723306 0.013026498606185526 0.00021877483105486731 0.00036019161290092613 0.0005975450042781741 -0.0006238504440406156
 0.0015957132499564792 0.012951134289044836 0.9885114565143013 -0.15078571595436915 0.00012593031724081045 -0.00022070263743642984 0.00010401385947120416 -2.047801772787065e-05
 -0.0006254613407131717 0.0005883526440264248 0.0004131970492653663 0.0006014282610591666 0.9691919811202081 -0.20678951560023814 0.0008954155449793074 0.016545406506549197
 6.445268277078739e-05 0.00012830237778322065 0.0001417070981105251 -0.0005488823489390197 0.0013247010475785092 0.005642190715141706 0.9727318522815237 -0.2096681378927611
2599630000.0 0.990344685820784 -0.14333667437694098 0.0015550313842400624 0.013131521428916108 -3.210642376030676e-05 -0.00016799870356516765 9.72807561123415e-05 0.00034619701949964714
 0.001565116753711104 0.013138589470157109 0.9876000474605687 -0.1491658930694315 0.0003774986608692411 -0.0006443664013931091 0.0004522463047288478 0.00015260271816469438
 -0.0004728290174899963 0.0013700019051866349 0.000550262649116952 0.001239783644950648 0.9645280197937157 -0.20696371762570184 -0.0016588370447238902 0.009312093182155978
 -0.0002074295075619187 0.0006501741020719916 -0.00023855214568534893 0.0001780199271513881 0.003578896074997899 0.014865791885468809 0.9737125754026545 -0.20432528900987698
2669620000.0 0.9848087263130674 -0.1438948781051502 0.0015862841703241305 0.013662504960978233 -0.0004333886638276933 0.0006370804227871088 -0.0008356956310977943 0.00047899874571173077
 0.0015832916271690243 0.013563841604304296 0.9883838174499566 -0.1442779415424927 -0.0001901820408956387 -0.0002501437590162875 -0.0011133380371377629 0.0003786837945406951
 0.00028103193748939666 -0.0003552877519619822 -0.00040677760814109503 -0.0006343589105541322 0.9636978089095345 -0.2219789511013118 -0.004331837563619257 0.013947272634900807
 0.0009964552760967148 5.350556752208594e-05 0.0014837702450433998 -0.0004844865086328945 0.003050143836923353 0.014411826840709945 0.958022679225216 -0.1983017510402231
2739610000.0 0.9761986905164141 -0.14934228546097947 0.0017565216778418534 0.013981833091617999 0.00042899324496147414 0.0015016843126949139 -0.0003169289206013683 -0.0002971209697591234
 0.0017306820650131555 0.013892808324462705 0.9788985391807764 -0.15415388711947497 -0.00046819545638974075 6.688053219281418e-06 0.00011604140144871242 -0.0003262478438299837
 -0.000969989151904104 -0.00018091707246811734 0.0008668525108715121 -0.001051784866913807 0.9516787678810987 -0.21595516538868284 0.003236059720204448 0.007718274806307303
 0.0001590332877803751 -0.0005021126010140319 -0.00016155791441438633 -0.00012269892120557747 0.0032060056945649065 0.008538307370412937 0.9731272382578762 -0.21855692650109687
2809600000.0 0.9755902995214271 -0.16488303246943925 0.0016594447397279219 0.014097195085539823 0.0008787197217200401 -0.0006613533174052159 -0.00012968921676055915 -0.0003055034456182663
 0.001891086418701408 0.013968690363872367 0.9806393227929044 -0.14992555530438448 -0.0007649808428281772 0.00017319574036665032 0.0006022310264378718 -0.0007800917380208012
 5.5745592649770367e-05 0.00026697853333114554 6.02022069609695e-05 0.00041779865115122895 0.9568036726738757 -0.24461833694564816 -0.00042384579252517955 0.007672259776829843
 -8.597664914731829e-05 0.00022586000760556823 0.00030648447579362817 0.00042431838500497286 0.0010589241680687912 0.010043894343846156 0.9662353378134968 -0.2254651848082937
2879590000.0 0.9806524638004223 -0.16538332582364398 0.001864447511374073 0.014726808257525504 0.00017339171592315887 0.00019390676113686942 -4.361397096531833e-05 -0.0005167801520896587
 0.0021892524766620597 0.01448795102757097 0.9893461164274306 -0.16076338716384259 -0.0003417053178261527 -0.0010143552635307471 0.0005519138411811846 0.00013657188445170016
 1.918936380507285e-05 0.0010208661140568213 0.0015453959193701045 -0.0007360485764513617 0.9751472041028364 -0.2345868562969881 0.008703609276389239 0.013183443268156982
 -0.00076952120169453 -0.00033199904854694525 0.0002865713695718505 0.00038377119382346594 0.0012156119167461524 0.01180953520391816 0.9781883170798791 -0.2338623457651458
2949580000.0 0.980268069870858 -0.16609896210887978 0.0019224413387250456 0.014902115905992355 -0.00018744423973871937 -0.0005021009585552444 0.0009679884315762213 -0.0006972911833558726
 0.0019158657331980566 0.014771756163262477 0.9873214315299054 -0.17064774474440092 -4.610395070674525e-05 -0.00025077418958101565 -0.00011705603400880292 0.00019599060144974114
 -0.0012028264461284982 0.00020247558871200607 0.0008024426759169429 0.0005343593960947463 0.9516816929135832 -0.24621111310798832 0.004198403322132938 0.008962981585974274
 1.540939373309635e-05 -8.67912965758861e-05 -0.00015583728682967506 0.0011113562624646002 -0.006594371329485588 0.013681003804519334 0.9777596665745989 -0.23492054422364836
3019570000.0 0.9752003583059112 -0.17301362845554105 0.0021992124002219063 0.015064873881567587 -0.0005296449506846225 0.0004063535889524958 -0.00021118430615544 7.076293813203074e-05
 0.0021815032536768794 0.015309594146351038 0.9770367023816501 -0.17200943911967378 0.00010831712648609387 0.00027707435445106755 5.131834020158122e-05 4.0097945398299955e-05
 -0.0003742886900592845 -0.0006391603164091365 0.0008828587279763755 0.001048923643785769 0.956666895086698 -0.2461822940143666 -0.0006253507571854859 0.015358694640463298
 -0.0008302726652494527 -0.001161686182424449 -0.0002872709387804342 -0.0003161564061609528 0.004908700140335532 0.014372647915895839 0.9589340088391858 -0.23858305346804384
3089560000.0 0.970097370013703 -0.17619495285029857 0.0023897614568962997 0.01581819801685361 0.00011753269554219824 -3.43186468225057e-05 -7.978661233833469e-05 -0.00034857071766792973
 0.0023632036566366833 0.015416053689020716 0.9828258772870803 -0.1674303288836496 0.0010950692642698195 -0.00011768177527514785 -4.5065289822214265e-05 -0.0001870473139055167
 -6.886118145137034e-05 0.00015496891403649402 -0.0005661457135915043 0.0003096732409872278 0.9502974180268917 -0.25864466400853553 0.002530011207721207 0.016789382033432457
 -8.737809445232541e-06 0.000592240683521819 0.00023132022695107715 -0.0001732630678386321 0.0025988476951330506 0.013565960498440041 0.9628676177536991 -0.2378057763847879
3159550000.0 0.9717327781408861 -0.17756595934833894 0.002072047035128031 0.01585707478706727 0.00014835824752472887 -0.0003187385293413243 0.00011767239321718012 -0.0009002472142260489
 0.00236256679559461 0.015833217451081173 0.9785616224856377 -0.1761764679434909 0.000393608471138972 0.00035423901343708224 -0.00023646892359484794 0.00021018027111475478
 -0.00021884378423556782 -0.0003434762433100484 -0.00032391673900780975 -9.27372565357945e-05 0.9498767177165541 -0.26455799582506795 0.005012396903997909 0.01189071927768506
 -0.0004115073775670239 0.0012675658475266418 0.00048540394164380094 -0.0006519870479160379 0.0006694028110272397 0.015672353169645676 0.9545350869174059 -0.25065941802610003
3229540000.0 0.9776040777738745 -0.18765831399964022 0.002552257719627439 0.016113119748989956 9.898609181057813e-05 -0.0001990170556378481 0.00042045470166430235 1.2820036438200812e-05
 0.002471456435000645 0.016188074541560037 0.9747496603560546 -0.18752653540578398 -0.00012400127114490863 1.6084926940430805e-05 0.0004724943803784554 -0.0002769822786693691
 -0.00034839108038465757 -0.0006636435070825168 -0.00045706719059860306 -9.950635607267631e-05 0.9601746928366014 -0.2648560971329195 -0.00045055015715449355 0.015454128264792139
 -0.0002591251322575771 -3.984659839438019e-05 0.0008264657993301668 -0.00038087548343863914 0.00027539183700909717 0.017726157131696004 0.9487036944335483 -0.2551281580641515
3299530000.0 0.9730820596093286 -0.1842019270743042 0.002611259806883267 0.016341117263259503 0.0003750020200098832 0.0001228126438932751 -0.00011002311199540335 -0.00021397984545289475
 0.002466171959610795 0.016314120073207147 0.9718902139432615 -0.18709428181419108 0.000162437075012825 -0.0005103945574940103 0.0003992777602369506 0.0003178343239029591
 -0.0009438266675914584 0.0002109910106910231 -0.0008865438843981008 0.00022339353312566734 0.9492805284889299 -0.2673503057187907 7.22954918394264e-05 0.013965104200760206
 -0.00021680718148924707 -9.549592175881766e-05 0.00029662005382271196 0.0010603891363607843 0.002151213135840594 0.013494621893022595 0.9537318648144806 -0.2551453111540137
3369520000.0 0.9728752517756366 -0.18768137516061398 0.002471717490642389 0.016815438999394455 7.782827860454639e-05 -7.285464893459133e-05 -0.000295585391316093 -0.0002963395575918434
 0.002638857473210965 0.016567392391074104 0.9697217302180187 -0.18227075206745974 -0.0008005609755906941 0.00011032234806928408 0.0003098064835067474 -0.0005214774776098424
 9.05368511508627e-05 -0.0012576798840439585 0.00024054673771269116 0.00046613979210031743 0.9515410321833041 -0.2793064449316121 -0.0017691553499971037 0.00947195708786828
 0.00010713153672757909 0.00048537026260990485 0.0007530995680487944 0.001843642373944314 0.008851881349624207 0.011256171007800481 0.9494722649094558 -0.26676857508441837
3439510000.0 0.9703406601232645 -0.18821512927171127 0.0025968989634044676 0.017103733629335746 0.0006064744379228978 0.00033678738725703196 -0.00029183737971351094 0.00017420134345290595
 0.002605188583488405 0.01712731104277223 0.9704747650884918 -0.1868532427685286 9.054818740328382e-05 -0.0007296095028271963 0.00036576511506851233 -5.2592523395353595e-05
 0.00038232765218903283 -0.00016910594142724978 0.0002287117623521676 -0.00021018081247367015 0.9452260532351228 -0.28277850849980235 0.00064607095526998 0.017780070384495743
 -0.0003549966081463345 -0.00025027134153449257 -0.0006584721912080546 -0.00028676292528322355 0.0031113457731618793 0.020847596411733223 0.9506270274068308 -0.2779134581958835
3509500000.0 0.9717101455055458 -0.1979423477068844 0.0029145256180047787 0.01741201913370164 -0.0006841320461478538 8.157417449718797e-05 8.200671988662099e-05 -0.00013191850131245457
 0.0028899884147333917 0.01740867231168055 0.9678244946575053 -0.20512202164537438 -0.00040978432168082527 0.0001786650987262219 -6.921595110797204e-05 -0.0007404930549443135
 -7.890061133514954e-05 -0.0002295030935283713 0.0002885138348847314 -0.0010090314008093075 0.9425838568817119 -0.2892111247561301 -0.0014545834880145539 0.011703256392396591
 0.00036338337007015876 -0.0004220483608440082 0.00023305722599522815 0.00015112975969608635 -0.005480698018786879 0.01634821290124933 0.943010461250801 -0.2932207706670217
3579490000.0 0.9738916796992151 -0.20206938656564874 0.002763440795108684 0.017695434829013666 -0.0008414964801223411 0.00017762872187560754 0.0006446673128264135 -0.0005028399452569262
 0.0030960131444330873 0.017912149663570822 0.968858525588333 -0.20060709620381093 -0.0007221167744285245 -0.0002256666848419729 0.0005881188529033735 -0.0006854910592164781
 -0.001171929398569234 0.00015368402471093096 -0.0005665598137915981 -0.0005511073567602454 0.9522325753019351 -0.2936535557406259 0.008265949604765427 0.017824054414175713
 0.0007131677849769439 -0.0005856940266551572 -0.00035103493421681167 0.00022233977883591433 0.00872472261819087 0.021081334916784874 0.9464353252804817 -0.2814035626708435
3649480000.0 0.9622347394173316 -0.20564857216232463 0.0030098260935432996 0.018044356017424545 0.00013119015160608657 -0.0004588149405540791 6.273689228993105e-05 -1.3587533649353833e-05
 0.0030931514371043676 0.017881980437903833 0.9694652008254648 -0.20128490992477177 -0.0003056143009031977 0.00014629075850856407 2.967475853956802e-05 0.00011464810007840747
 -0.0005060755528862235 -0.00016102088590465988 0.00028416232288319834 1.0679770496287856e-05 0.938268894580133 -0.30673027958292653 0.0011377177450251359 0.01606330508922984
 0.0002890130019587085 -0.0001196857442050547 3.35223864604927e-05 1.4250998687294201e-05 0.006893958776410456 0.019308206246664537 0.9416659926010613 -0.2902083571384102
3719470000.0 0.9674509922829849 -0.2063066599678712 0.0031743574220905782 0.01831539368339651 -0.0002936215024232489 -0.0012253956362649546 -0.000447490673969126 -0.0006506528044873326
 0.0030658058406023217 0.018349787515877517 0.9699222429755568 -0.20519624763534178 -3.321853207170318e-05 -0.00045843613722898284 -0.00027502323222213583 0.0006338771500201986
 1.9333654868314188e-05 -0.0009959067578148306 1.1131525499663728e-05 0.00023859033322939444 0.9488786368190004 -0.2943238156139569 0.0044958152054056745 0.018933141224398074
 -8.854353323634859e-05 0.0001516559244281597 -0.0009392371417590556 0.0008425813517840534 0.003551941889203283 0.01802003058765077 0.9456053837574571 -0.3096170279828554
3789460000.0 0.9598783796699555 -0.20459741476632373 0.0032547047004818203 0.01870994207960483 -4.380276458577467e-05 0.0008482614779939918 -0.0005883787895624354 -6.311637392638734e-05
 0.003183610029856809 0.018461006776057817 0.9651734300517819 -0.19723492098471118 -0.0002208633451848267 -0.0009542097212420638 0.0005961821536574777 -0.0005388527796667252
 0.0005573659668907675 -0.001037145696276622 0.0004900959708686812 0.0017859914619506132 0.9399699202655228 -0.3048493120096576 0.015263110203749975 0.016735048310561645
 0.0008547346919932199 -0.00034698714140008597 0.0016688097865336083 0.0007969888241505694 0.0030961397393240862 0.016277062834538336 0.9475454118727861 -0.28542644922497423
3859450000.0 0.9703852443250187 -0.20831336706893414 0.002982086210960005 0.019375554984492605 -6.0260727218040515e-05 0.0006627844660637554 0.00023399009947020242 -0.0008803831897588898
 0.0034739850265645762 0.018990018247870367 0.9701348583662411 -0.2025697715210928 -0.000245394159359498 -0.000434392296439546 0.00017568292353677524 0.0012489670634842306
 -0.0005477327606470727 0.0009942330892834324 0.001051484028984355 -0.0008358747116877861 0.9351155950639427 -0.30905315865582544 0.00010674598484461669 0.01981543900795993
 -6.021685352211668e-05 -0.0004541603638851467 0.0005963756169742811 0.00012088215595929872 0.005654092806028616 0.018079424115729426 0.9382264514562079 -0.3034497954403805
3929440000.0 0.9745008356024588 -0.21939879368111387 0.0034947451289416157 0.01962974551541083 -0.00015824251011377718 0.00036536015811189013 -0.0006896505624372528 0.0005001286686099467
 0.0036258894575737165 0.019382177663181507 0.9770268938117348 -0.21049612917390684 -0.0003603546861359404 -0.0007402395180525428 -5.152636670335204e-05 -0.0001437857754618808
 -0.00027334569258231987 -0.0008540549106725965 -0.0006699212568966791 -0.001411499346789705 0.9309244761506252 -0.3181453815437568 0.011331682569681006 0.017645577731103007
 0.0005475953839579569 0.0006688293121989411 0.00046446236596956884 4.293252614794052e-05 0.006997171583050878 0.017588619873345583 0.9461304904291624 -0.3021045121980018
3999430000.0 0.9743672208394789 -0.22062088279905662 0.0037982504825356186 0.01976056749355613 0.00019920426108065446 0.0002148351977540055 -6.0917308172091313e-05 -6.255520568013192e-05
 0.003842282945550331 0.019634538924345767 0.9722682705131198 -0.2217669092626489 -0.0007350836575185619 -0.0005806111726078662 -0.0003156204058510283 -0.0003572236005105841
 0.00021085246440061652 0.00019035397425166528 0.0011367345875097088 -0.0003706126027547626 0.9325222541298598 -0.3289312310426551 0.0023046498472153874 0.017377176362921708
 0.0002992900606447685 0.0001723458419887765 -0.00015416275600159518 -0.0018220383389462886 0.002461753121672982 0.02646627860656715 0.9428777641861203 -0.3160441737514716
4069420000.0 0.9702124609840574 -0.22765382071940454 0.004011183254876581 0.019786096055787683 -0.0008213275237555274 0.0006139285970212038 -0.00012888401455772008 -0.00016074586738117676
 0.0037183933610203342 0.019969024461679037 0.9629281922370924 -0.23267489567372865 4.619170948284357e-05 0.0004230123547921073 -0.00038238046221529857 -0.00048718963480387365
 -0.0003311689665383417 0.0009955480450931473 0.00016926144953868368 0.0009636090643910763 0.9326603325348113 -0.3317512646963016 0.006192084120864369 0.018903313751200173
 -0.00011243821800321937 -8.016913237010985e-05 0.000373223057990769 -0.0012219810416065685 0.007652436578943623 0.011454749305222268 0.9405124258691435 -0.3179646572707778
4139410000.0 0.9610328694351996 -0.23045022362647336 0.004046125281620479 0.020102523278692074 0.00020883357117846117 0.00032988588868826634 0.00032106227768673927 0.0005588187293817789
 0.004179098273953013 0.02011601934294269 0.9569846395448702 -0.23424877422315185 0.00011918846133211056 0.00046838385983269024 0.0003054471841882892 -0.0001767087990742002
 -0.00037493428934006054 -4.5746556388790115e-05 -3.0450257571550607e-05 0.00190996458179563 0.9370783928607301 -0.34597722213673904 0.004839537278826503 0.01922945866031719
 0.0002267811738087577 0.0006203255480199375 -0.0002616101141164249 0.000919564964430113 0.005595408999822106 0.01946429207808483 0.932162039202493 -0.3180186125771316
4209400000.0 0.9622655024744198 -0.23277803656888388 0.003975718737882581 0.020446345619996253 0.0006711053545813019 -0.00030477113896925685 -0.0003330797684581209 0.00010971529649111893
 0.004031689426151733 0.02047807675917409 0.9567268304666336 -0.22500998887999663 0.0005555539768375521 0.0007428208108293577 -2.4697319632521393e-05 -0.00029147313445008875
 0.00032148111040603564 7.348693727921928e-05 -0.0007396942342270603 0.0007845959459388599 0.9213501859635232 -0.3392170909110459 0.007098271698392777 0.023769185237866385
 0.000146348220645414 3.273775270656729e-05 -0.00046101952562648235 0.0004891758497250115 0.0004190752784556124 0.01562827034521376 0.9210078598653785 -0.327154512991693
4279390000.0 0.9586473126379504 -0.24496455679315435 0.004212029867045867 0.02061112910431381 0.0005069619474503842 -0.00029781948529481524 6.595821871965126e-05 0.0004994886328607501
 0.004334007922624573 0.020574047256723054 0.9602042425799694 -0.23677764076017993 -0.00010208960182047509 -0.0003577365703344645 0.00025530176035909674 4.453514515835071e-05
 -0.00040028436345784546 -0.00016464867535411032 0.002365611549158011 0.00023778933642173587 0.9370089113992341 -0.3538437815234383 0.009777804748358375 0.017776918445124846
 -0.00101492780545591 0.00026070812677532495 -0.0004443462554368961 0.0011591637463946763 -0.004613987893075405 0.02520256333080329 0.925728588171534 -0.33571608541364995
4349380000.0 0.9572185572240389 -0.24225104007979006 0.004641654610701665 0.021208082927921847 -0.0002677317642921782 -0.0010009563003873267 0.00011006143796713425 0.00022645865542544603
 0.004478082302975163 0.02101370242935172 0.9597455884451012 -0.24289057630377608 8.282417543328296e-05 0.0002333787525788405 0.00012896398436833324 -3.16270027533796e-05
 0.000823550953613866 -0.0006596204817730531 -0.0007020514972306091 0.0008958520304366259 0.913889204277003 -0.34686340207163846 0.008129947699436467 0.012618299801811856
 -0.0007110849727448663 0.0008186327838229095 -0.0011718999199700894 -0.00034572249974235944 -0.0035043716211355185 0.014467878352195864 0.921580041947167 -0.33751488837234106
4419370000.0 0.9537477821608464 -0.24527350987572086 0.004445522930376676 0.021189288414959307 0.0005298080645846358 0.0005605360984435162 -0.0002563233353288339 7.874126651086089e-05
 0.004471327542820805 0.02113723428517648 0.9579302682266261 -0.2354217850531942 -0.00032323613557474134 0.00014415674598962377 0.00012139357715565585 -7.821282230599e-05
 0.0003726037418207529 -0.0004486476923174243 -0.00041140391464259687 0.001098975435777216 0.9133744017864694 -0.3510734936324399 0.01093883778761019 0.029921128902364105
 -0.0005566405983794762 -0.00032726769683238775 0.00022392737148540392 -0.0007846927487786324 0.009886025599248808 0.027699787622032398 0.9237121597613447 -0.35394685614797905
4489360000.0 0.9454228948442789 -0.24650651279847174 0.0046591635257338575 0.021357856875332298 -1.1188553479591093e-05 -7.169180381773486e-05 -0.00019342527726533905 0.0007052299128064676
 0.004482660498220028 0.021366970225642747 0.9539850317669624 -0.2443300515389164 -0.00015855771455304898 -1.5038375841767318e-05 0.0002380669893239531 0.00048646935366232204
 6.893689369833987e-05 -0.0007561116415727191 0.001106453725137104 -0.0003295313221053568 0.91184738629244 -0.3629424419374717 0.010404071280451408 0.022500938866576038
 0.0009913732783172558 0.0005324970099004531 -0.00047717205269835934 -0.00018841345351985203 -9.003518041372048e-05 0.024095529156424905 0.9101732856007578 -0.3445475490200858
4559350000.0 0.9526216129369038 -0.2521552936323873 0.00488170998773776 0.02197953781393833 0.00018147604632160445 -0.0005767219484679593 -0.00014208653751886116 -0.00012134779198268474
 0.004768094889472294 0.021817355515432124 0.9595926556146078 -0.2517777161885249 5.808848082187163e-05 -3.845390476527587e-05 6.486194176359056e-05 0.0007783091091261764
 0.0011892611404620175 -6.864542212806218e-05 0.00015067425106726954 0.00037210681613998413 0.919267255513279 -0.3718747435024387 0.016184164807178592 0.014456128489908057
 9.812765208557594e-05 0.0010462675880939525 -0.00013920215667835074 -0.0005376431304799832 0.004475352883455708 0.018803149391344712 0.9229178788313436 -0.35527186326146837
4629340000.0 0.9513032325223256 -0.25211726531731693 0.005041820442524268 0.022204014359492222 8.974066010707332e-05 -0.0006199423721760083 3.2758139776201566e-05 -9.492568063380869e-05
 0.0046822022232472 0.021896901442015625 0.9531685985242785 -0.25667444656559885 0.0010690097386411835 0.0005842151682339442 -0.00016785187770024178 0.0005247570769530648
 -0.00024604877242051087 -0.00042797489453997114 0.0005595262446180161 -0.0001038397428792171 0.9173671914949804 -0.3640117099369746 0.006942170641610386 0.02161653560078461
 0.0006528574272865448 0.0005731333045045991 0.0013287927732852994 0.0002881847598636545 0.013234234589585668 0.027652614073330667 0.929746388043075 -0.3651049245419726
4699330000.0 0.9557152306956169 -0.26103515325472143 0.004675587627224411 0.02225435014375419 0.00023855262616177497 0.000657318821107409 -0.0003766956449250535 -0.0011480286462291316
 0.004813237913109275 0.02255667955622974 0.9421401603918279 -0.2545074274098546 -8.149223783130311e-05 -0.00012482636687751944 -0.0007615883388934571 0.0001176102110413936
 0.00029063870003472785 1.5415826819305354e-05 0.0001698301632812491 -0.00044034504632184954 0.9067261475656185 -0.3780721753176577 0.009734166388423948 0.02031157755972813
 -0.00014000734014562146 -0.0010473734766050114 -0.001784994259179934 0.0018315354630841303 0.007423396666056612 0.02011227842782268 0.9061422162995877 -0.37095241422702874
4769320000.0 0.9524922467548709 -0.2552446514154566 0.005407195526418884 0.022576464603518625 -0.0007135053870079941 0.00022998160342371622 0.00025978949273743876 9.919653133794648e-05
 0.004983122944555362 0.022404253490966936 0.9492737654122326 -0.26165948174502374 0.00011186872687765149 0.0005533912283156663 8.751491829048112e-05 -0.0003326740046788739
 0.00035674638614858903 0.0015948370313982013 0.0012545236397352604 0.000981339651813072 0.9057782179469821 -0.36942346676907345 0.005722662820812677 0.03180624200550353
 0.0004243384809311772 -0.0016580113963168392 0.00021439822501943413 -0.0005381322363354776 0.004182027914887121 0.03348830813957112 0.9141789976559731 -0.37952063794384916
4839310000.0 0.9504710991651781 -0.27131654481337886 0.0051669741297655355 0.022729061867298433 -0.0005918767343828345 -3.986235910694833e-05 0.0003065123895147733 0.00023560448719286766
 0.005306751933364906 0.02305779093143005 0.9535753695441342 -0.2664832652784994 0.0006232914978581732 -0.00016517949951342221 7.584874899673773e-05 -0.00044543812172971494
 -0.0013084350966855488 3.5889706364013133e-05 0.0009968614927981132 -0.0027325135347406886 0.9094223355965686 -0.38543245566364065 0.0008094188994625282 0.020607045931661516
 0.0008066980643583607 0.0007015721010787415 -0.0009954373218023149 -0.001487505606718428 0.011895757842870997 0.015533885062521825 0.9043292493047436 -0.3828332719560257
4909300000.0 0.9458984481179418 -0.2675426393336128 0.00546599630658481 0.023168193614168053 -0.00016263072508266723 -0.00041109998029333143 -0.00020505318386539146 -5.4790961344532214e-06
 0.005492408287463866 0.023077334382836587 0.9449850078381823 -0.27225141079177895 2.332503155315515e-06 0.0001540484107780299 -0.0005207710324679934 0.0007808720790821484
 0.0004565317867864089 0.0013572619727799879 -0.0004370641930003296 -0.00039835368106052037 0.8964307269945252 -0.3862823878133062 0.007508209349016895 0.021597457531817993
 0.001019712849632579 -0.00029568105162541564 0.0005592494268886149 0.00040140801360806006 0.0009603459759177147 0.019618997850547427 0.9190952466542262 -0.3847320336394148
4979290000.0 0.9437285004761967 -0.27967985391392436 0.005417165618039483 0.023509114394627106 -0.00014656573740016657 -0.0003225007231811975 7.786093930722232e-05 0.00021741113691763593
 0.005594861494159633 0.023459922699296507 0.9434955605189389 -0.27438992695206854 0.00041522336138018683 5.6463619463363544e-05 -0.0003333802313451825 0.00014876243180807596
 3.633041808523831e-05 -0.0003236196721926684 0.0009348009239900211 0.0007992425746864405 0.8947685294305929 -0.39656494116986535 0.003570940860236891 0.01110639918106182
 -0.0004067813511163533 -0.0009498427726956083 0.001221122187039051 -0.0002954970274357484 0.004047964932671289 0.023057999084133363 0.9021839015014774 -0.38082521725691737
5049280000.0 0.9503326883748969 -0.28029496974456514 0.005601017245993128 0.023693730214435337 0.00020485642630985236 -0.0004597694873046612 6.99505293898309e-05 0.0008252622465961022
 0.005879973246694514 0.02382185304291503 0.9419491823799493 -0.27429649630253605 -0.00029159883538861983 0.00027722714868776713 0.0001877247945285312 0.000494277623653291
 0.0003298088384225146 1.1343182734453479e-05 0.000920678450732164 0.0008097407413059993 0.9141279575395543 -0.39427594170760516 0.00791092639906581 0.014757779592103296
 -0.00028943808337355013 -0.001453472716278914 -0.0001823376721659501 -0.0001469457153168467 0.0019146060691225516 0.01647106111610669 0.9037856253345823 -0.38928936700064004
5119270000.0 0.9433019595689215 -0.27903951412717226 0.005756284615777511 0.02431080466723943 0.00023416285505986563 -0.0007981948552701942 0.00020030486446475217 -0.00020167239467894807
 0.0055662799666077855 0.02371452922642744 0.9596700465359611 -0.27640346522710235 -0.0009922888953895824 -0.00022622396172749238 -0.0007543615343862113 0.00041037965784931647
 -0.0003740063405294146 -0.0010731374488208568 -0.0021891810770301016 -0.000480906116438569 0.8892577398586682 -0.4122197434227584 0.008806614561477358 0.010946660797336052
 0.0013591000118396556 -0.0003640553457116279 0.001742619210664669 0.0009154306286524027 0.004871299855099629 0.01681071275237213 0.9162581391235404 -0.3939609702633358
5189260000.0 0.9545548125782142 -0.2832259695935401 0.006246412281085997 0.02443324842708182 0.00048620452681141145 2.1634118657002253e-05 1.8059805739151958e-05 0.0006286216693709503
 0.00600774592360504 0.024557404655839225 0.9464269747717166 -0.2938311891448413 -0.0003050131331635812 0.0001878574740729245 -0.0002978145831158849 0.00022490955237016588
 -0.0011321655351825746 0.0005787501069668866 0.0009045852203495951 0.000798221679364144 0.8993498312323102 -0.4080025445391166 0.01317054911014237 0.013039938820632032
 0.001724435901011979 -0.0009446327662719668 0.0012863474273148605 -0.0016141107350227195 0.010870730979711758 0.021761570356421574 0.894216929578548 -0.4050205237225055
5259250000.0 0.9485005720754351 -0.28284844911333024 0.0060513767219526745 0.024761530664446828 -0.00011351503986612792 0.0004410124830382073 0.00015785701136947458 0.0001408118096214157
 0.005981836237366491 0.024609811219008043 0.9451712818087311 -0.2836550620408866 -0.00029130122304788105 0.00018771068024007456 -0.00046480458500712643 -0.00026962207760021956
 -0.0004844932191219365 0.0012350435250894224 0.0006743259963221075 0.0001232671454088104 0.9113893213860564 -0.4077249976188584 0.021385112906254163 0.024991980029552503
 0.0004727245396348006 -4.48323376158565e-05 -0.0016352175439407453 -0.0017247747665946596 0.016950858920844063 0.01374703258559791 0.8941058777469072 -0.4012334163854289
5329240000.0 0.9436809353855682 -0.29427642746901733 0.006120169702668036 0.025039707171535523 0.00024620129562553245 0.0009590526479404781 -0.00010532055208838658 -0.0003201854819394175
 0.006275723546286959 0.0250515513693175 0.9419585566428071 -0.28826249954873023 -0.0006558248066838632 -0.0003639636833359816 1.664617934937534e-05 8.681893313643918e-05
 -0.0007931236857590029 -0.0006072074025853512 -0.0005107150443781151 0.0009801428815781623 0.8929062924394843 -0.43050573360992234 0.0024122255307565785 0.024872133312593196
 0.0008207681474563095 -0.0006337159920131583 -0.0009942177099945043 -1.1687361198831038e-05 0.009961295044274872 0.025437437962857464 0.898033554454055 -0.4140751604645801
5399230000.0 0.9363932411390017 -0.2904946225258993 0.0066422128533830446 0.025438608854495164 -0.0001230656394137772 -0.0002673413960364351 0.0002393246454431848 -0.0010570327877177693
 0.006364199629790721 0.024984127720569335 0.9444810754381042 -0.28963886180217396 0.0010251939024001225 -0.00014597535833426077 -0.0003122133979226254 6.892282151327295e-05
 0.002259978606695483 -0.0007799841968060692 -0.0011205303120829918 0.0005082054867115497 0.8720121283506457 -0.4237568442256478 0.014281664579922465 0.018052227331424753
 0.0009604616842401393 0.0008662151487547698 -0.0001261546136029464 -8.648954708173743e-05 0.004675610517626418 0.021036394322900227 0.8933029293134191 -0.4034519210496087
5469220000.0 0.9283220191399989 -0.29051266815241483 0.006560393848476732 0.02479187854755937 -0.0007083296869385422 -0.00102259948181636 -0.0008949043243666498 0.0007038359181382042
 0.006476294644819053 0.02475709782343694 0.9376162933546096 -0.29349995203110507 -0.00028001253731594456 0.00019080900587691913 0.0011650953907382192 1.2875095245796062e-05
 -3.704012046061086e-05 0.0010126343666294036 0.0020327265801346893 0.00041831119206806825 0.8706320102798566 -0.42470200579000456 0.010291902172094797 0.023403200514973767
 0.0010761155102325698 0.001353631548174451 0.0010206855458417873 -0.0007640964265469325 -0.0024424021244804045 0.018071379422002085 0.8875974429837727 -0.4274878040007437
5539210000.0 0.9383616462295241 -0.3026989941435665 0.006696082576345744 0.025608768960962692 -0.0003523856060013356 -0.0002478179029271193 -0.0005283449578565565 0.0007030554202840704
 0.007149453440792175 0.02552781880816627 0.9446455977776091 -0.2924943496314289 0.0002713803886211858 -0.00041909619228986056 -0.00039769575057543323 -0.0003555298341475017
 0.0005997957195405607 0.0009325351776891831 0.0006795006984875276 0.00020255258914258616 0.8755868967776158 -0.4431840209345487 0.003562890511828701 0.010354194789668505
 0.00030192019053603406 0.0005236965200688657 5.345090163434542e-06 0.0003137740303124314 0.010787910876522078 0.02483926434873101 0.8777405333629268 -0.4108693355880577
5609200000.0 0.9498636666462023 -0.29398232713310485 0.007005103458421008 0.02611774561838385 -8.633417751320004e-05 0.0011622030773121481 0.00014087336515154484 0.0010000900593978067
 0.006777196053503292 0.02575057446978712 0.9395926530139208 -0.30948813175749657 0.0008474604876390133 3.036172565159408e-05 0.0002655403208752936 0.0003447797642189457
 0.0005639167195061327 0.000587358062663223 -0.00027677463065188377 -0.0023176783455575852 0.8745067431542054 -0.4328700062198553 0.011631172873475447 0.020045678666791713
 -0.0012123684961693564 0.00015139098191829467 -0.0011600566199984291 -0.0013241844027977918 0.00340911234226951 0.011377995477281664 0.8904001296785834 -0.41844680379737087
5679190000.0 0.9321840927103698 -0.31014209254243774 0.007430036051873595 0.026149484123050543 -0.0007489787067055739 0.0003003012314164458 -0.0003152360989104249 0.00023124051247474202
 0.006995068254087251 0.02595603360550703 0.9351330953257811 -0.30982383707646655 0.0006228986787227904 5.478189232089448e-05 1.7062285261190683e-05 0.00012172246073878295
 -0.0007821869108249612 -0.0009220131906543208 -0.0006135230098942122 0.0010762574876068873 0.8656084650240982 -0.4460113090118552 0.013140562371397442 0.01467060702878134
 -0.0007211652558443111 -0.0007972813984276979 0.0005819966276024337 -0.0006777197152803431 0.006788081143394256 0.025383661051860226 0.8841175920673564 -0.43507946482297133
5749180000.0 0.9255615033141903 -0.3143295647804309 0.0070765672329139535 0.026517880185907016 -0.00012808161296449963 -0.0007328037079924788 -0.00043287036115263207 -0.00019009159824627541
 0.007411260322224813 0.025982660935868172 0.933516502702897 -0.30391964765571683 0.0003264471639233786 -0.0007321061376320501 -0.0005793326359813778 0.00026788683259265444
 -0.00033259729218408087 -0.0010205857642110652 0.0007924616898507524 -0.0021916619514838636 0.8691025534682717 -0.4412066401501185 0.009744272709914025 0.027824372016487565
 0.0012959950892500339 -8.845197893559168e-05 0.0006293290245447359 0.0008809438538972403 0.01221411836460489 0.015484594865152322 0.864803762142799 -0.4315963454886187
5819170000.0 0.9310608159992724 -0.32004783446581914 0.007133141913278722 0.026449557004525347 0.0004358713827264341 0.0002617256897753453 0.00044659546965705325 0.00035638602793110327
 0.007614458777422788 0.026352218960057253 0.9419386636420636 -0.30411263405776734 -0.00022367544651630234 0.0002211900465944693 -7.517890552523003e-05 -0.00021169845866829672
 -0.00027496134490403594 -0.00017530735937704923 5.000937266102092e-05 -0.00037374340651302756 0.8694309163182454 -0.45848735464249873 0.00663641112365207 0.02998694948384868
 -0.0004281933072709992 -0.0001944065342409245 0.00011242158305505251 -0.0014248144602049626 0.008546251604036402 0.0167653308873231 0.8767927544308762 -0.4320701948728601
5889160000.0 0.9263028814216853 -0.31740556375511164 0.007379775118094119 0.026538452030941146 0.0003908641007409802 0.00020852598902727795 -0.00019560805865344763 -0.00019735768531955653
 0.007645665740396951 0.026679772812608537 0.9310508683755376 -0.3209600969173294 -0.0003437698136330063 -0.0005868563221487126 -0.00032145687426812764 0.00023507276119731253
 -0.00011539436655883992 0.0007838439998728126 0.00019085599727165252 -0.0002463575625869283 0.8649072639867228 -0.46836436461297337 0.003849163689328785 0.023143907045063347
 0.0007834675845584872 -0.0001590440192327171 0.0002916158391919692 0.000382138590132331 0.011329812514903967 0.02531901937837136 0.8854084749286917 -0.45527122317783536
5959150000.0 0.9175958213636198 -0.32380701465807615 0.007702590207641171 0.02676746721691589 0.000444408339480246 0.0002916841659756295 -0.000290229334195021 -3.0243164418232137e-05
 0.007619554376519315 0.026611138948419183 0.9308536414387761 -0.32003802202761533 -0.0006826067883838626 0.0010070016634391068 -0.00044260292430725893 -0.00027842858288123205
 0.0005725970402372945 -0.00010238022055206083 -0.00010426546420967327 0.0003961037856770278 0.8546808390959627 -0.4600581466535832 0.007108979244761054 0.021678623874253893
 0.0004082887362608748 0.000580553287657241 0.0006819071497099053 -0.0001736097489172049 0.012220838828646984 0.024841277086218482 0.8688760058355016 -0.44909640227058456
6029140000.0 0.9357579143090229 -0.31466226155776295 0.007797234711085499 0.027182125903994468 0.0002261076975777424 0.00016666089384373886 -2.4422101468657482e-05 0.00028053140023200334
 0.00746690573569757 0.027343041861647946 0.9338010957769141 -0.3212945233977124 -0.00022541716545108472 -0.000501108040825309 0.00018068012057985682 0.00031912096923070995
 0.00026710151320781853 -0.0011619992816336198 -0.00028210005673400077 -0.0020311367215211707 0.8561090940831793 -0.4541068931644411 0.007999564015767959 0.013747270580563666
 0.0005704833105772667 0.0001443096567304089 0.0011151411415138278 0.0005786111992134519 0.011229661112255023 0.01376797796722921 0.8714855819293439 -0.45184463900478067
6099130000.0 0.9209553257743709 -0.3290675105674248 0.008052240296739859 0.027515334565428096 0.0004490652566047052 -9.847676357621678e-07 -0.00021788453601651034 -5.617921564810033e-05
 0.00810308651058218 0.027233581493594842 0.9318404094407257 -0.32307287266554546 0.0005558778358693459 -0.0004372315160359871 -0.0002580043011851641 -8.068553949251452e-05
 -0.00017386855463457471 -0.0006526987453947308 -0.0001729947089499694 -0.0011205590179567341 0.8414739961787827 -0.4668420272199334 0.009989004579657285 0.017870853453861288
 -0.0006639106613160863 0.00034726412911705506 -0.0003386447023871924 -0.0004539843305138737 0.010176461460697946 0.016173646878826605 0.8764440680994828 -0.4607309327274985
6169120000.0 0.9254774525859399 -0.3335739647175737 0.008251039157841367 0.027475992071059236 -0.00023851853107183818 0.00011281748607855409 0.0012253250259600516 0.00011766479779431316
 0.008512542504089952 0.027504220795407118 0.9260025758220412 -0.33600162413490414 0.0006362144140837348 -0.00015254146273535894 0.0002764687462212138 -0.0006963298912288368
 0.0010347290162636858 0.0002110975035077479 -0.0002540479576115228 -0.00034500567143642144 0.852364854957693 -0.48618900501156814 0.00024336209240815115 0.029417491692359233
 -0.0018737150132389928 0.00018657574994319326 -0.0005618401706966709 -0.001014283594787134 0.007121255756386863 0.016255555166520393 0.8685941947987103 -0.4640836392873393
6239110000.0 0.9336690091494346 -0.3353095479465073 0.008568646546017798 0.027659034296061282 0.00021191459345030878 0.0005730206595786807 0.0004560457993396344 0.001800212921595209
 0.008685381749632548 0.028136910537770753 0.9225786309624874 -0.3346311445516072 -0.00012054249584998413 8.430008569655135e-05 0.0003896569236447797 8.483784692460646e-05
 0.00028719079979047196 0.0006391961876706976 0.0009313461557336408 0.0031124344676204756 0.8414264240324663 -0.47929109731982084 0.011005498091617326 0.0219725482376224
 0.001196161792149378 0.000489869461361188 -0.00017089694121530657 0.0014565335903788976 0.008851733132512956 0.014664610464236977 0.8557779189600088 -0.46814177721971667
6309100000.0 0.9176716873314351 -0.34275584656588054 0.00813346534449079 0.027661950963275617 0.0006067424697957206 -0.00010897386498922477 -0.00024377672682862332 -8.7292803065172e-06
 0.008663650600655968 0.02755948209859455 0.9163314853372736 -0.3313054918134757 -0.00017158702902683382 -0.0004978027091898088 -5.348278053714e-06 2.305082305550706e-05
 0.0013060270205249324 0.00022070596007606755 0.00046997871292518424 -0.0021911017330150852 0.8560314661945095 -0.49188392515904483 0.016322091526441096 0.017577343922847495
 -6.08479554393871e-05 0.00041161413874920823 -0.000494590775457126 -0.001409970339959997 0.0005791815988915838 0.01805240617055713 0.8510066649361872 -0.47672107270803143
6379090000.0 0.9203634952267852 -0.33949585600856347 0.008522591822937941 0.028270229023965282 0.0003536682073034063 0.00034235975157105217 -8.447499809127545e-05 0.0009516145087345859
 0.008631485472698817 0.027996131913251825 0.9242010756036246 -0.34687284548954606 -0.0010330037827812448 6.580701666412082e-07 -0.0002042724656840378 0.0005235375583529131
 -7.846323056255646e-05 -5.563384490926579e-05 -0.0006122348334521504 0.0013392186543886133 0.8500293483127458 -0.4981356801355449 0.014277974417707716 0.015630738662288576
 0.0017151940128579347 -0.0004364391081125777 -0.0013990903788942699 -0.0002313896157887355 0.01101173260725997 0.019166118528770443 0.8589848654354509 -0.47771454241484446
6449080000.0 0.9219956836635518 -0.35212404047701407 0.008838270697229828 0.028367352215095776 0.00021051118274169846 -0.0002686787692047869 0.0005170647607093197 0.0003572283783647816
 0.009054509603071604 0.028333893338432503 0.9163510702817662 -0.34544731219092834 -0.0011477703982533765 0.0005687872185898413 0.00013714463332084083 0.00042685014047244335
 -0.0005325536892346673 -0.0002924302085301187 0.00014726736504429026 0.0006091806271968058 0.8490285573472066 -0.5111343569145453 0.016728810773447473 0.026821396787653426
 0.00012081181383584638 0.0005646117181730648 -0.0006288492599788744 -0.0005802224028577452 0.011360290422260074 0.020725316521796853 0.8453821849578129 -0.48697644191392087
6519070000.0 0.9135723201980315 -0.35036341983510944 0.00915709750118964 0.02893564164481929 0.00021423102572935466 0.000621012029766517 0.00048633265054536055 0.00019370066592842527
 0.00904088415931179 0.02830055666309069 0.9269663433604807 -0.3549583591176563 -0.0006833164343750414 -1.167568442165849e-06 0.0006540948505706892 7.15552293533647e-05
 -0.00044970153700317283 -3.2671304574212455e-05 -0.00010605082648782183 -0.0009456998407615828 0.8457986633085023 -0.518769164872795 0.009433832039142852 0.03324698670867358
 -0.0014120593880497835 0.00012714833750138477 -3.530144443347035e-05 -0.0005261105857594777 0.01582080971039042 0.01921617679737011 0.8545287113499415 -0.49747897430840216
6589060000.0 0.9102470294744839 -0.34708849275023324 0.009063312822460019 0.028274243597480857 -0.0009561733541407028 0.00028105629321737634 -0.00011499061614730421 -0.0010520298399764462
 0.009069204848619467 0.028418122363995758 0.9067774845518931 -0.3519871223942404 -0.00012273758382113907 0.0003646715579279416 -5.517379933894117e-05 0.00011040179238088003
 -0.0001859810152311968 -0.0004624090863577029 -0.00025867132730925807 0.0005420016344952319 0.8305323072233705 -0.5072820604130819 0.011673660337929952 0.012924369831989828
 -0.0007606009150429549 -0.00019437528849844296 0.0018057337288622695 -0.00030764609720042974 0.013480407857147112 0.017309015881536376 0.8466070638996618 -0.492388988293588
6659050000.0 0.9226292934164297 -0.3606244482043277 0.009237374931166404 0.028778888689799744 -9.199802830330794e-05 0.00033589885320643226 -0.00018606601592432396 -0.00016004428187245368
 0.009544888765113127 0.02891691785514171 0.9131843975103926 -0.3530780924103447 -0.0006005504016372462 0.0003531768417988977 0.00016267447549176933 -0.0007478312295827522
 0.0005557079925094555 -0.00021808855422503077 0.00013254938634745694 -0.0012083315288355938 0.8500542092867336 -0.5124905002923171 0.015185286283489367 0.019970200514877256
 -0.0002778388312760809 0.00037762773344427743 0.00024034903668414205 -0.0012740283739533806 0.014292036274274026 0.009825013458077144 0.8445934225004005 -0.4966090661929542
6729040000.0 0.9095109598314319 -0.35537946200967707 0.009235533335225348 0.029294952962917818 -0.0003100996921645908 0.00026807820929408374 9.565204541598907e-05 0.0004343109053980088
 0.009683450587560203 0.028650174095441006 0.9157057238636556 -0.35619931089828233 0.0003154009177147614 0.0006907935785879 0.00012038031099471544 -3.003502690874423e-05
 0.0006912233848789927 -0.0004458010559145391 -1.81965633702739e-05 0.0012535026175484719 0.8274630830524405 -0.5202245256928466 0.005911089657504984 0.017302119746737146
 -0.00024722925545529295 -0.0005781914168287484 -5.5192087856877836e-05 0.00047324762719113685 0.007954918377535798 0.015469949152426077 0.8439352030518503 -0.49636100338057726
6799030000.0 0.9110459691814896 -0.3610557440577377 0.009432171919526111 0.029127338815447726 0.0001787962005288882 0.00022969062116057987 0.0010263076292776187 0.0006546492959244747
 0.009488044941271123 0.029274617263365922 0.9127185972527926 -0.3601712387340061 -0.00014501337929928937 4.014627470350729e-05 -4.8453364677535475e-05 -0.0006448757728787212
 -0.0004065419277065145 0.00012880652325933514 0.0012635493998762795 -0.00017228035632220885 0.8333901990649146 -0.5220386796579846 0.01654431558642619 0.024145554057664175
 -0.00013740493153823537 0.0004018739022218965 -0.000589456665349451 0.00012911735547700836 0.009431913302829074 0.0218961236203538 0.8307311321239861 -0.5132793368800576
6869020000.0 0.9114183643310767 -0.3758471403436844 0.009791389627599926 0.02954547496854767 7.875340161353768e-05 -3.3831386702495995e-05 -0.0005859149202475112 -0.00047698593472833323
 0.010106319606533742 0.029250279841194552 0.9018195731522197 -0.36211637265651875 -0.0006890007455395271 -0.0002878903299909588 2.3687953692016325e-05 -0.0002750686310115857
 -0.00010162497424098972 0.00036596411194533504 0.00043635693360802774 0.0008700590233300939 0.8181364371093299 -0.5357563553023277 0.005953549111365117 0.015529621794154746
 -0.0009860591240847469 -0.00012803521969035326 0.0010459073079624268 0.0005118845517686284 0.008226711773859042 0.025242067186774346 0.8412920676543559 -0.515762799810037
6939010000.0 0.904898253151554 -0.3723344946290752 0.009878266878337745 0.029583071307177227 0.00014528858081637078 -0.0001470580163975709 0.00039605348730725385 0.00026230206070341393
 0.01002827579441041 0.0293784624563369 0.9110462238339967 -0.36674719030207553 -0.0002663115672252411 -0.0005208936104011114 2.1369727651630293e-05 -0.0002919609550263605
 -0.00019831934360208702 0.0004552903154388167 0.00027872855130262584 0.0006388084744301454 0.8185638855451638 -0.5287961162252579 0.011896250806248974 0.01774025757992948
 -1.1986776285306404e-05 -0.0006897574988100215 -0.0009922635110218357 -3.237065504252271e-05 0.010734610941670485 0.025959703511279998 0.8307263278699061 -0.5127412151318903
7009000000.0 0.9107640205728237 -0.36783960902835355 0.009638013223116798 0.029446738299249937 -0.00018637802156031705 -0.000501075091421337 -0.00017653939633330659 -0.0003909186538314077
 0.01037918830204854 0.029792461716628076 0.9117401807436968 -0.3569330102072208 0.00020637867551241674 0.0002977600919805804 -0.00017841860288237592 -0.00043046008646331553
 0.00032573903483291375 -2.5392196057485307e-06 -0.0005360400802379017 0.0005929830285476422 0.8114191612553505 -0.5322582616585934 0.008093775953630929 0.0217600783794871
 -0.0006187732973377616 -0.00049248198395795 0.0005439791237154578 -0.0007646989040831737 0.008453118993871864 0.02275201625529731 0.8196306254958377 -0.5059211691942456
7078990000.0 0.9001851360768639 -0.3760596662687267 0.010014180826092253 0.029463365620760785 -0.0002620305138749538 0.0004246049478049956 -6.976873049762275e-05 -0.0002903777025201051
 0.01029375616068276 0.029461773030516104 0.9053361818701927 -0.3703374351713172 -0.0003723193790704873 -0.0003595308313292344 0.000207106346087282 0.0004206339647775033
 5.443019508638397e-05 -0.0002528321366908476 -0.00024604076862569076 0.0007260906717973168 0.8174504055452496 -0.5387237155545054 0.012634390549052778 0.02360124364435941
 -3.214081998629842e-05 0.0012984642376596203 -8.187964548113043e-05 -0.0006171915289550331 4.5254020006039865e-05 0.008973946539937078 0.8193771938173918 -0.5228460473359955
7148980000.0 0.9079437067712518 -0.3802860234339441 0.01063354098200197 0.03022257897395474 0.0012430513408575657 -0.00030555389625810107 8.685591774957865e-05 0.0009801487363858374
 0.010433865610666497 0.03007195306342524 0.8996410106220227 -0.3809620872825304 0.0003371795252064581 0.0012200726947634685 0.0006156082454950269 0.00017447556740566705
 -0.0007427639410136152 0.0011755268062462534 0.00010865173169204223 6.107465861716416e-05 0.8055302495579374 -0.5488412223458389 0.010031295681397205 0.019036940419626072
 0.0003278599804292368 -0.0007248893234718188 0.000811603539384653 -0.0016397593104742778 0.008006910576402489 0.018203215829930394 0.8145910747305574 -0.5270840478547488
7218970000.0 0.9047889745434915 -0.383380631271764 0.010498692422649574 0.0302165877533467 -0.00018752119739042915 -0.00032308152918829883 0.00012013756824880324 0.0005061067487806902
 0.0105785236781005 0.03015659006763746 0.8981014861179434 -0.3788094735568883 0.00015821558867100863 0.00028778166560679844 0.0005776159566676463 -2.4220012150903968e-06
 0.0007435913413977909 -0.00016359963955043592 0.001652908194135018 -0.00024219368603274095 0.810045168172124 -0.5283378458216104 0.005606454067438005 0.026344231493511384
 0.0010183229042810085 0.0010958344506524058 -0.00027348726845258627 -5.8694998150719715e-05 0.010744663465894635 0.01871948884951127 0.8190189163464499 -0.5302052639343666
7288960000.0 0.8986444913831527 -0.39029162643611487 0.010473382960513805 0.030298246522072726 -0.0012978389040922645 -9.79244204454395e-05 0.0007839612375223334 0.00036404339748611394
 0.010663705139923886 0.030210580024967765 0.89311108083885 -0.3778809605940655 0.00016570640273993705 0.0006934347795121274 0.00016728979617981827 -0.00014778209545615327
 -4.471982450672946e-05 4.403512371950139e-05 -0.0007215540331049372 0.00021986606423246184 0.8023083841179216 -0.558102654179386 0.003457957679848939 0.02965094521400871
 -0.0014580462146139615 0.0013622929828207935 -0.001486537979285166 9.254568988830276e-05 0.007475161179826268 0.02951966691517007 0.8121637976512184 -0.5515042719834908
7358950000.0 0.8990886630237287 -0.385850767168139 0.010829097431396534 0.030265116633251765 0.00016357952637819815 -0.0009767523856309135 0.0005259551717938574 -4.087033440205326e-05
 0.010771896144429532 0.030404678728125814 0.8981890496522428 -0.3918712379563852 0.000589514469099991 -0.00023257172999996702 -0.0002840261193389328 -0.0005633115774606635
 -0.0006877126176477078 -0.00019930837715409033 0.0005220012043378072 -0.00040840087242714713 0.8048658019842078 -0.5622608582249164 0.012296175502779262 0.02637793522295729
 -3.3285860531076854e-05 0.0002808822120298651 0.0006859299417217067 0.0001508461182647489 0.008784642374620837 0.019152542012548998 0.814703110853845 -0.5454919523569995
7428940000.0 0.9001030729245383 -0.3989517868469578 0.010918704615215663 0.030670263599903252 0.0006078849303894168 0.0003062105866981003 0.0002560737218686009 -0.00014561635131320414
 0.011177017647645752 0.030803265187709015 0.8963073876067941 -0.39243891732097663 -0.0008028881359700782 3.674960978955997e-05 -0.0004212929643000018 9.198767223155747e-05
 0.00019659259231818903 -0.0007279992890784764 0.0013114118188087783 0.0013996933738470393 0.7959563209455821 -0.562290957837498 0.01612278904498644 0.011235988188352197
 4.085699193845894e-05 -0.0002953776423428194 -0.00034140309142159414 0.0008170795203226148 0.007751582203330268 0.02219768264121923 0.8027214977919874 -0.5363323783635972
7498930000.0 0.8915401217926205 -0.3991575970430804 0.010854914081874473 0.0309046103195506 0.00014777389794796652 -0.0003211727487519181 -3.2819223651714084e-05 0.00040589289444593375
 0.011115292319128058 0.03071129985435997 0.8928462551536193 -0.3827752958561225 -9.398746573421929e-05 3.920772396813418e-05 0.0009413795006463578 -0.0007711472215841485
 0.00064826893996062 0.0005648130986091939 -0.00021654366931707854 -5.074759540005871e-05 0.7931222767792832 -0.5660298454102457 0.003736045356816982 0.013685789024195493
 -0.000474695030992418 0.000738520078404602 0.0005144234640923141 -0.0007868777829956968 0.004342479403228353 0.02118582647733998 0.7932376217767996 -0.5467205778017697
7568920000.0 0.8975391398627445 -0.40559283206566693 0.011057370356503633 0.030874600614019143 0.0004948905620863118 0.0008909181690672953 -0.0008101576374202733 0.00042816013932652706
 0.011496220920089357 0.03101803121985346 0.8875529492121325 -0.39443516230835446 0.00015484788381070908 0.00013499929584727695 0.0009439716280609691 -0.0006232734089255922
 0.0004010939643399634 0.00020751505422718995 0.000779661566889345 -0.00016644695341982592 0.7946429289510959 -0.5753502637120554 0.015016776009900415 0.02320138102816975
 0.00038231311743309993 -0.00011199843812182294 0.00025414657272914944 -0.00045364196933637713 0.019564239488249018 0.017392434415618448 0.805673780242272 -0.547780193527902
7638910000.0 0.8903012054153417 -0.405972360557913 0.0116589800079083 0.03144300878089162 -0.0003696230013709857 0.0007545044173581748 -0.00014542645978919935 -0.0009283410924990791
 0.011411082608562042 0.03101708714023263 0.8902975581883749 -0.39888689722306864 -0.00035422790069612503 -0.00027300008005029926 0.0003092674018588149 -2.6414893767265982e-05
 -0.00012374073086672777 3.784574390492924e-05 -0.0003621447702494155 -0.0008806613959199789 0.7772088368878886 -0.5853148392925425 0.012682031679295543 0.022175017648274703
 9.046733712163074e-05 0.0005927329112135543 -2.6201715096897745e-05 -0.00027396197120515105 0.008007276659369187 0.022851958650458026 0.7978836313056974 -0.5585125205219653
7708900000.0 0.8893490025964502 -0.4117678984237499 0.011479800342910719 0.03169225535743287 -0.00017118378579400361 0.0004447838221310102 0.00016292196633661517 0.0007150342789534993
 0.011698355541157349 0.031002992467586827 0.896011203380239 -0.4064886839101878 0.0004838979076987225 0.0005337801663226286 -0.00047300139957789813 9.17160004038814e-05
 0.00045784427234512703 0.000926380745823286 0.00014651522164034126 0.0019533869570275628 0.7730987935909055 -0.5740378610898059 0.014947747599298638 0.021533026995203864
 -0.0004666545613269537 -0.0007743641629442976 -0.00027193315111149596 -0.0008876244626063167 0.01343308706420766 0.018119743558468404 0.7946657329628539 -0.5648792014224079
7778890000.0 0.8887493320930246 -0.4089562528756052 0.011757035534915939 0.03138693979932426 0.0004229572763583246 -0.0006671736381104882 -0.0015388322046513089 -0.0005669699215443086
 0.011632168821360237 0.03141405531352812 0.8952582541440097 -0.40454386139964627 -0.0007750868698059773 0.0008152908158512274 0.00046579093799766906 -7.046430512568003e-05
 -0.00039510777261120506 0.0003328967184007628 -0.0010036498619629662 -0.0008677068965811293 0.7822604811680443 -0.5733094953757851 0.008747956719992294 0.02364231950923829
 0.0005570326591323182 -0.0004533053188637386 -0.0004565067285247001 3.344365449161424e-05 0.007720975157418058 0.021619247522054394 0.79727132268127 -0.5622294754471762
7848880000.0 0.8972107249675231 -0.41252531956960226 0.01194260785160606 0.031459479771051686 0.00044405116276530204 -0.00034675297254915035 -0.00030171770972773726 3.4382989701312605e-06
 0.011713953720216662 0.031438807551615176 0.8804922996278503 -0.41467571762842925 -5.046733160843102e-05 -6.574559413093655e-05 0.00046204283449781625 5.0766417413714224e-05
 0.00042724304727064665 9.984839559233901e-05 0.0010633409097688582 0.001541931190712266 0.7871196695917098 -0.5827715519248303 0.006893375917238503 0.022982997677108565
 0.00016516762317475724 0.00032771928988570206 3.9051132860901286e-05 -0.0014156595633076138 0.016054126345600103 0.01478711319922566 0.7951724822344289 -0.5710342381119108
7918870000.0 0.874881586366081 -0.4221629469704219 0.011555661108849287 0.031867756916168485 0.0004647550651849327 -0.00015432753241295178 0.00014539137411087965 0.00027792253679026735
 0.012222254356931818 0.031247944107945975 0.8958791992026394 -0.404544499358482 -0.00015943979737663078 0.00043421208955056717 0.00012384865461440166 0.0002494313740226564
 -0.0016117534132902315 0.0016164919058742966 0.00048704398117156955 0.0007997153693237115 0.7777299213682475 -0.6001204925638365 0.006268645858235596 0.014192020687734763
 0.0005238922167488744 0.0018058908495714966 0.0007583496717207396 -0.0010430634720810942 0.01664980291137955 0.020437190710209305 0.7882245030552472 -0.5673500113359984
7988860000.0 0.8862857708459698 -0.41771779143401255 0.012185331601412908 0.03186908160251814 -0.0010800064560958882 -0.0007476701892192245 -0.00018123553037848706 0.00018965281193762646
 0.01190223029824163 0.03167035510593239 0.8843246069463697 -0.42357439225626425 -0.0005348049436650718 6.222148650757087e-05 -0.0004441753115761539 -0.0002546884824073367
 0.0007370162669552139 -9.61077400953868e-05 0.0004411403678615022 -0.00018222030627025514 0.7691892436612063 -0.5957481940920575 0.015846570950151875 0.012604787188402106
 -0.000750983024322134 -0.0016581322676031528 -0.0015465638705341716 -0.0005711556037932829 0.011342165737072293 0.03414470785558396 0.7935986939526165 -0.5808560076786873
8058850000.0 0.8730936355986251 -0.41404063872900965 0.012441395234549754 0.03152491262881328 -0.00015412381809636017 0.0006744923026280281 0.0001322796149190932 -6.111094907509295e-05
 0.012448898948424623 0.031611104640858215 0.8765802399070878 -0.4209428973148882 0.0006773860748148138 2.155356385848562e-05 -0.00027343723838931633 9.23183538676353e-05
 -0.001167455586620462 0.0007245416159844121 0.0013896282752663756 0.0017915044339024393 0.7475682708386889 -0.6070514487589843 0.01851996051973981 0.01699189019609423
 0.00024791556348824313 0.00026427672783344404 0.0013164328510490333 0.00023778742246696906 0.010290578341059347 0.021484945100392703 0.7693027622148056 -0.5772488513784998
8128840000.0 0.8736588420650965 -0.4214321342780297 0.0124701645296466 0.03160188071763506 0.0003597796495798037 0.00022482889733731247 -2.3702004573553637e-05 -0.00038713735457303024
 0.01239291618075836 0.031835461857413816 0.8800199831774393 -0.42509089752988655 0.0008133270154358997 -0.0008278333982850864 0.00014762623963193234 -0.00018326863396577703
 0.0003398562055515844 -0.00047999471095299914 0.00044335369481975106 0.0009191288052476425 0.7607500992891185 -0.6149277172491204 0.014958612339224478 0.021481947510519194
 0.0003912402797547818 0.00017571340806143341 0.0004742381694779246 -0.0009550828972007859 0.011281527294507397 0.02170100149829966 0.7774734004705061 -0.5824180132351496
8198830000.0 0.8809380922110751 -0.42548375756004164 0.012635783838165774 0.03192217632154338 -0.0004501716045663772 0.00017790662090199939 9.610913953396924e-05 -5.8456435026074914e-05
 0.012534228409986272 0.032283964003885446 0.8745218434803047 -0.4293811647974499 0.0005788563253383118 -0.00037112471573435933 0.0006683573135376156 -0.00010458236943577452
 0.0004810306782626865 -0.0005124133680982491 9.003811885557947e-05 -0.00251317054987379 0.7657300975868656 -0.6041515076710295 0.007097675214239631 0.020691481188627396
 -0.0010761013005090435 -0.001777764631649261 0.0009547476801303412 -0.0005442487840328453 0.005526266236019503 0.013498957744141768 0.7591769983726959 -0.594294664017206
8268820000.0 0.8747615990582568 -0.44435373982482257 0.012513904772698202 0.03233578439394084 3.35026788984047e-08 -0.0009409618149244539 -0.0011100087671630093 -0.0003784529507545175
 0.012849529347698004 0.03181794603640788 0.8775176817828138 -0.42548852671492565 0.00037551810959780667 -6.0851998882454294e-05 -0.0009368764166945508 0.0008022063504279017
 -0.0006524966586207095 0.00036954679579318287 0.0005630657862715275 0.0007261449521998649 0.761733555171686 -0.6144632752672634 0.010836403861601594 0.023852337121770432
 0.0008945318432547045 0.0018984984617859918 0.001668307862527396 0.00042015800858895963 0.008225761274316453 0.017715080502128222 0.7613522778020247 -0.5978592832514931
8338810000.0 0.8792036004928273 -0.4401495387777271 0.013020349884704198 0.03200012187405189 -0.0007449518719193083 -0.000711906396917061 -0.00032602849686045324 0.0005934606632011862
 0.013293496892764886 0.03242356486185377 0.8707764326334176 -0.4326370471013441 0.0008711749312392602 0.000812347949025599 0.0002515821701366826 0.0006365611397374895
 0.0004556930415309865 0.0004730239516390305 0.0011590968786828525 -2.8986932310345333e-05 0.7477308014152082 -0.6164948141816505 0.01554300660265736 0.026309983393021673
 0.000645498535280397 -0.00030632191318095476 -0.0009594062237164751 -1.914686828744278e-05 0.014217130179601425 0.02673121669127658 0.7679345523096277 -0.5894560358759923
8408800000.0 0.8801983298621179 -0.43289891063565133 0.013261316382360184 0.032002094382322245 0.00030272175480491463 0.0005600901476988521 -0.000674604068218846 -0.0009367910356677102
 0.012873892907440492 0.03225670953671591 0.8662509982912316 -0.44143977649375254 -0.0006695742924509332 0.00018510934365073296 0.0005871662099941679 0.00023627277409290077
 -0.0007465903208037233 -0.0006560041416227496 0.000534173584377184 0.0010500763248604999 0.7359136693627067 -0.6059896514538468 0.010824264967976506 0.020114799569517023
 -1.2373280241503843e-05 0.0015440204761460131 0.0002828458530563933 0.00033695450841351776 0.012273844420503137 0.028582780407560304 0.7571493178270188 -0.6056013876581869
8478790000.0 0.8729141047556664 -0.4368808419660908 0.013398381142193177 0.03218474089825562 -4.646880887101858e-05 -0.00028290391979879847 0.000614848027536753 -0.0003309493005696446
 0.012876866495811915 0.03298952752222502 0.8693521970646246 -0.4345493885586742 0.0007201729879381819 8.421432669882762e-05 -2.1033770945838012e-05 -0.001017096482208988
 -0.00031216207920394874 -0.001132316890228655 -0.0005601951847525225 -0.0010418367887797143 0.7385228216016521 -0.6153129255292757 0.015950227185432802 0.009066050210576496
 -0.0013310778360971969 7.84775609416764e-06 0.0009574090940286022 0.0006385689872299325 0.015742311924958192 0.02020196626090943 0.748583617949245 -0.6136412264332328
8548780000.0 0.8619487844701309 -0.44941519316932876 0.013552824707934069 0.032693103432968926 -0.0005176195656856828 0.00051495053885052 0.00015208890929951406 -0.0003668400426231866
 0.01346249259229401 0.032288479972500485 0.8646229299721868 -0.4409964564751661 0.00021821995992573685 0.00031865436967012375 -0.0004073477530499808 -0.00048568706590319105
 0.0007468453457651868 -0.0003777277534534474 -0.0009949471892333325 0.0011997739634007497 0.7265219087243971 -0.6118892517465402 0.006583694816013495 0.012645435666104068
 -0.0005305400294445156 2.6847219910058058e-05 -0.0004921824936681753 0.000721921174272601 0.017787788521034565 0.019566148171102044 0.7585689833767317 -0.6123779198281343
8618770000.0 0.8665907364832535 -0.4462012799157404 0.01388503281686791 0.032896309161776736 -0.0008281040572165276 -0.0006831729425596589 0.000126352004707919 0.00047970361398761287
 0.01344149782106446 0.03261169586291048 0.8673133556461525 -0.4509050341946974 0.0006809132533491987 0.0010151521953593436 0.0002472623485905473 -0.0007694726373200953
 0.000651176248878529 -0.0003074389864792998 0.0034764861172870533 -1.7506883557447842e-07 0.7408236153316049 -0.6240747515527802 0.012312146703487067 0.015541818318024769
 3.8350493802914896e-05 0.0006042505452345857 0.0018117035367852944 7.64621567284113e-06 0.0070254779304010926 0.013528730191004323 0.7596063629176022 -0.605496994154127
8688760000.0 0.8663531557677938 -0.45056892358485323 0.014053746425062682 0.032963101437187774 0.00043279274010828205 0.0005039817762646147 0.0008626716623832554 0.00026693886622170253
 0.013684120992357196 0.0328110374930459 0.860522695286096 -0.45386281408109347 0.0004328108533056968 -0.0003437479542950199 -0.0004557564941028924 -6.708570171383594e-05
 -0.0018903833607420708 0.00156378332027502 -0.0016563163500642607 -0.001135076104183123 0.7236822091033076 -0.6383603884413274 0.012949710959091141 0.025409208667717828
 0.0011417533354031646 0.0007721454398965025 -0.0019299863863950829 0.0014453436651230458 0.017224613414102436 0.018696334855514297 0.7344263660873699 -0.6147065408281532
8758750000.0 0.8556252609514762 -0.45022934102351153 0.013925665546147315 0.03241060288047913 -0.0005257623010338704 -6.734704067298397e-05 0.0001583921615412243 0.00017437439740857193
 0.013578095230031537 0.032322881567041516 0.8570955908554859 -0.44920068016074854 0.0003718346640152192 -0.0002698156273516629 -0.00020393580915907365 -0.0008479020118360797
 -0.00022545809872448166 0.000434778166177542 -0.00040858508934118315 -2.7075877568904935e-05 0.7212885528109854 -0.6452786753655659 0.010764997968631729 0.012109426348263343
 0.0003658146698002424 -0.00014265849996531325 -0.00018740724566313323 -0.001107457458949075 0.01135918025419464 0.011734212243014451 0.7377855930404075 -0.6131111174739964
8828740000.0 0.8597141476834532 -0.4614216224026847 0.01444715439154883 0.03324750559729459 -7.537158457018845e-05 -0.00024218084304762435 0.00044911827843173695 4.756714212141325e-05
 0.013854584466577943 0.032736356858272066 0.8633618536070518 -0.46105058674050603 5.437366850930683e-05 -0.0009111861882763216 -0.00017944209472854346 0.0007016253997527349
 -0.0003471132878038083 -0.001695947557553176 -0.002008307073247624 -0.0027150720637597174 0.7214727921733034 -0.6381981360302502 0.014390328205494102 0.018862420679462852
 0.00020552117819151966 0.0006929936784439171 0.001338468380736659 0.000883909672607469 0.016910776643052593 0.013630395489407626 0.7425283727679604 -0.6269224210956132
8898730000.0 0.8617731795542078 -0.463881635846659 0.014678031505601282 0.03298372674381959 -0.0006866179522194915 0.0009487346500229036 -0.00011497604139586516 0.000566020265881193
 0.01416625628756794 0.03308457722345914 0.8685439512427237 -0.4610745700527043 0.00046702288213784827 -0.00029369411385060846 -0.0006661912007644814 0.00022713776186306073
 0.00017178500628601702 -0.0010329659256762462 -0.0002919415422460668 -0.0009272123182050984 0.7237559304964535 -0.6428709131514387 0.013854637896431186 0.016874242529449735
 -0.0010764320154661327 0.0017614318313298005 0.00024496057125739177 -0.0014369135845882406 0.02511678392432693 0.016265850921265694 0.7461693456335633 -0.6209910649235005
8968720000.0 0.848036471622692 -0.4630090793736828 0.013974776683007091 0.03327128653076923 -0.000695392451503343 0.00031554645186904765 0.0006109416874598019 0.00047348690262727773
 0.014201374467087685 0.03263002196515916 0.8585423255875716 -0.4534670277211043 -0.0005218685289326349 0.00044999455691708466 0.0003298933943165239 -0.0012567317295847631
 0.0008485682384874963 0.0006749299086976806 0.00037461379718429756 -0.0009719645694835464 0.7031666790324221 -0.6457422024845143 0.020839715956758712 0.027420364949405817
 -7.633881409878536e-05 0.00026066484093198184 0.00031375367366412953 0.0003149170758593919 0.013381720583986295 0.023908218410820727 0.7366467639897515 -0.631863846512235
9038710000.0 0.852459324043195 -0.4612384240143259 0.014810534167981873 0.03285753666307515 -0.00045386688333908887 -0.0003730134783110681 -0.0001967993596223627 -1.4223451102787519e-05
 0.014170779524412104 0.03291129684112877 0.8509076237937409 -0.4642545782201883 0.00012779949758798582 -0.0003334536099089457 1.0072588629905265e-05 0.000552134956720516
 -0.0002767856120723877 -0.0006362778406325642 0.0002096661254698276 -0.0003861047359422315 0.6951853705570523 -0.6477785461078865 0.01922466222149716 0.014550646023880566
 -0.0005879289307234745 0.0009288052264635634 -0.00026594289090312354 0.00043442854116435 0.008252836591904754 0.02065749397925293 0.728025595906848 -0.6358778753148094
9108700000.0 0.8575260804109038 -0.46251317823447197 0.01490945977093418 0.033055412752411154 0.0003065437168395967 -0.000748849559207977 0.00017997872015930056 -0.0010520542832691616
 0.014085067561831312 0.0333497730164354 0.8542707883640045 -0.4650145219073386 -0.00016335799852954926 6.762034266239961e-05 0.0005548401336969773 -0.0011769250568078177
 -0.0002698403395211083 0.0008154109713063387 0.0018317392277397361 -0.00021748761879185127 0.7052666091932239 -0.6571546067567764 0.01470825357854549 0.006095158295900689
 -5.832463049196324e-05 -0.0005969582646793911 8.137896115516554e-05 -0.0003381024956775708 0.011346381502373586 0.007416153015912599 0.7260583100092534 -0.6497217105893718
9178690000.0 0.844904808609147 -0.46244883019766475 0.014556097929675773 0.03276175648659877 0.00013649604717550024 -0.0009313025907837897 -0.0004502272691093076 -0.0004476587740971683
 0.014241898449235233 0.03270355404692702 0.8509479974239895 -0.45757542591690264 0.001013069477266827 0.0007441718803547917 0.0005160865897223093 -0.0011741081768364525
 0.0004044275029805614 -0.0024051344614162934 0.0016738065974423926 0.0014479833930124736 0.6993414071660125 -0.6627954434748291 0.011040540511369448 0.0126335093420719
 -0.00035674392330045185 -0.002218562623749222 -0.00048246726875001946 -0.0034992563359379043 0.005112682793735059 0.013273004210065274 0.7128681660815963 -0.6400477577837349
9248680000.0 0.8547098886802029 -0.46946801876515676 0.014457868779303561 0.03298108714149046 0.0003569319058544496 -2.7951862002386643e-05 -0.00014460964539331426 -0.0001524677572272993
 0.014682687040790692 0.033203449352311586 0.8495702367707526 -0.479082403798902 -0.0002973918810902101 -0.0005856871650241502 -9.341639616415762e-05 -0.001280358592970402
 4.655247887133524e-05 -0.0013458847251506827 0.0007902458492810394 0.0001300444665438351 0.6957553517849647 -0.6627684544049198 0.019329700646963956 0.02784899157342943
 0.0008939016851807023 -0.0015496607332509062 -0.0008671226818967018 -0.0007162304402612035 0.02209832262937547 0.01772529929969614 0.7233235390735819 -0.6633378052521638
9318670000.0 0.838035975477094 -0.47455683118504605 0.01517545557006638 0.03301543357249896 -0.00018183458678511217 0.0006544012615433463 0.001557097347862818 0.0012769233351154691
 0.01485697348009442 0.032653225839317214 0.8468698282936676 -0.48453712743068 0.0024953369478117344 -0.00019424173965659812 -0.0009331550944533368 -0.001603520536422643
 0.00028150853371659656 0.00021762961965872556 -0.002151736229011743 -0.0011356291357874826 0.7038601973571414 -0.6781371581555239 0.016687904031533567 0.01593332661505518
 9.829719450012859e-05 -0.0005100296469474669 -0.00013011777216624223 0.0010885485730728886 0.00669188299459594 0.023334940762140464 0.7295612612102423 -0.6464303025459435
9388660000.0 0.8476449770571937 -0.48091295550971985 0.014915621054587044 0.033004883820355595 0.0020282424083757633 -0.0003430887387027938 -0.0003691054135468382 -0.0015297402851773053
 0.015169252683981414 0.033773452974703216 0.8430511562531764 -0.4772611627747072 -0.0003589899038721016 -9.027061846853839e-05 -0.0012007778583981892 0.0005078558500439977
 0.0006113518660794844 0.0012012311841288204 -0.0008358975353592517 0.000564758714507507 0.691272706464668 -0.6794389265164517 0.015503256627223906 0.014679743810037553
 0.0008232633357443677 -0.0010800684308546467 -0.00040891688677968495 0.0015463550060675025 0.0021454181782186122 0.022199428182523583 0.7052219509852785 -0.6680143394800189
9458650000.0 0.834861618195476 -0.4765337075660372 0.015153854061649598 0.033596956328501244 -0.00017376903156648458 -0.0004029566281152189 0.0008743631400370867 -0.00011609940955519998
 0.014657632833409913 0.03337765984907552 0.8429428039183093 -0.48840160066622973 -0.00017022333738931603 0.00023469349689091883 0.00013609183537914565 3.4369612449640884e-05
 -0.0006355994043051082 -0.00038256977476672487 -0.0011464889582419558 0.0015200673380425809 0.6848567669810696 -0.6747004359608625 0.011909792871020432 0.026285302145866895
 0.000700812960357928 0.0004551972556065481 0.002641240902424695 0.0011315996993049651 0.01921098737200869 0.019482759460296106 0.7084923308393475 -0.6713411865730087
9528640000.0 0.8331009880868079 -0.48000342419847153 0.015484079506273608 0.03314992926740165 0.00046541574638705877 -0.00038683352861104215 -2.4666650529817742e-05 -0.00020621876416534516
 0.01527387393613092 0.03343622984879595 0.8309980571195538 -0.48657092125670093 -0.0010386559499040134 -0.0005225076365047869 0.0005178205512704357 0.00021387072860167526
 -0.0006720263959551994 0.0018086862421990142 -0.00012140325492460522 0.0010521348780538576 0.6784131824933748 -0.6865879282530957 0.011188972002783517 0.01424166949534353
 -0.0003119338321296152 0.0010622349726200021 -0.0022706653945891997 -0.001512977500037838 0.011461444396245505 0.02548945984062841 0.7022901759510455 -0.6637627792578545
9598630000.0 0.8399550949060811 -0.48401578718325045 0.01537038971864148 0.03345569942483335 0.0011677450963443743 -0.00021457667925564174 -6.0947727677287585e-05 -0.0008766169554233807
 0.015002785097953194 0.03374632982687374 0.8375764042318598 -0.48255922008228264 0.000678614746716693 -0.0007528912358345449 -0.0011905190063691935 -0.00017455444710907928
 -0.0006845128395325528 0.000996367205908057 -0.0003026042279413614 0.00043970470407456673 0.6735424945994717 -0.6735765865113826 0.019708436989858854 0.019546547007156218
 0.0017640928154063049 0.001536918279050573 0.0011223565885852646 0.0014073084410728346 0.006121158284330556 0.028041574977991805 0.6994272010786464 -0.6568756989886793
9668620000.0 0.8301313078637825 -0.4941424664177227 0.014884947693986786 0.03333068550174406 -0.0004826969411408678 -0.0005977558975190693 0.0005056424584791305 0.00045363016418610694
 0.015696292362731276 0.033250647732335305 0.8475761699811724 -0.4872854019671026 0.00022420830485808663 0.0008589872390838397 7.375988031413403e-05 -0.0014266644607279727
 0.000452498558576918 -9.19391692854309e-05 -0.0014763409326833841 -4.6718290860779996e-05 0.6685818606817063 -0.6808670940123204 0.00450501738220136 0.029736472221959364
 -6.464357136277328e-05 -0.001626123814121677 -0.00037952214495640596 0.000716502272057939 0.016262951054776924 0.013184425208446239 0.6987639523705538 -0.6629077915424327
9738610000.0 0.8351100595800216 -0.49233824051982866 0.015326793437747156 0.033287511778133494 0.00030330021989891293 0.000405681252484853 0.00035417881823495497 0.00036063474723682355
 0.015475059633039637 0.03373639441928371 0.831734033013533 -0.4936139109095827 4.064066053207641e-05 0.0009854168079573766 0.0004056387246243818 -0.00011991728183265144
 0.0008691407097633763 0.00011906553463845016 -0.0014242779337017759 -0.0017995128769092543 0.6548186597620796 -0.6922443646634887 0.010314097732283286 0.01773281120761244
 -0.00014541434352969816 -0.0006115026879560823 0.0008466710539815821 -0.00012371921079358815 0.006226126073600725 0.024963980291205095 0.6991495685735243 -0.6719941764708244
9808600000.0 0.8337336584753351 -0.4972780054798375 0.01650742388654891 0.03317450103819753 0.00015466401481250487 0.000396471032971262 0.0005449246122881646 0.0007789084142336588
 0.01554535910024663 0.03349746247459313 0.8260569386841452 -0.5067324396941095 -0.0005547026807662899 0.0012277360219040132 -0.001673347034168774 -0.00016843228313513558
 -0.0008128888284433617 0.0008095078735409215 -0.002771832496267394 0.001259640484872571 0.6601847512079431 -0.69469500417268 0.003795141403278631 0.02109179098540053
 0.0002540218065261679 -0.000600032261143623 -0.00019327946540956538 -0.0001265493729780286 0.01290704995745306 0.01347017182593204 0.6830961050706021 -0.6827421052114636
9878590000.0 0.8288695160031364 -0.5046812953263135 0.015601684792474634 0.03336976235026754 -0.0008019865956472917 -0.0002259992735904188 0.0005339424708553592 -0.001066834169043041
 0.015975922709236645 0.0335437440450207 0.8347328111760516 -0.4921124966091025 0.0003891587137827877 -0.0004112488129167072 -0.00020873405880389307 0.0005251043362134197
 0.0001613935599549414 -0.00033379765424309285 -0.0015580109945445351 -0.0007392049420519856 0.6623534298076524 -0.6879933057741318 0.012229145940687967 0.01705993559562051
 -0.0008941598310332611 0.0014140931069078185 -0.0009069595062769127 0.0024416097572271737 0.01113200853949797 0.021260217469718675 0.6845721983990904 -0.6666697674424702
9948580000.0 0.8197671839082477 -0.5014495111910644 0.016179267596004743 0.033877269322124134 0.0003620690450899508 0.0005119527191090115 0.0004467998733482126 -0.00013127125908629536
 0.016036769271422304 0.03340380232867436 0.8335726577792775 -0.5066708798308744 0.0012927585546413244 -0.0010359283023800485 0.00020920088287674167 -0.0009504900346984022
 0.0012253075400270443 -0.00023741339424899872 0.00027627825504127735 -0.00022601053347501494 0.6512513622160615 -0.6984424357734998 0.016325267950307032 0.012545715623833177
 -0.0011429285417015969 -0.00020320585825297265 0.0007479194645298525 0.0006154676488613603 0.015845742481789618 0.018545173295519763 0.6687759212779425 -0.6845118260206475
10018570000.0 0.8457626996041531 -0.5137630356990288 0.015899369022645327 0.03361948835802191 -0.0004017711984274912 0.00010316926989988132 -0.0010639395135526 4.0217846542199687e-05
 0.01658830577730675 0.03434228683436554 0.8343509659984188 -0.496787779979453 -0.00018507655778777376 -0.0014348127879360573 -0.0006518729909081971 0.0003871354206808558
 0.0005157353051642288 0.0005989257483089479 0.0004971750335532894 -0.0015389988282187518 0.6374691285459172 -0.7126284187800664 0.0066379456778931124 0.015436952906398833
 -0.0006375522902510698 -0.0030303037536400738 0.0008340010271926554 -0.0018571016120716235 0.011665125933171006 0.013795468603413144 0.6641529163822262 -0.6836301128992186
10088560000.0 0.8195198336168372 -0.5158922306219489 0.01628090429279986 0.03415054325418743 0.0014008104235266998 0.000201680556880907 0.00023233727035428951 -2.8489047068251628e-05
 0.016563256231721543 0.03289737470280351 0.8491556547588842 -0.5227550929055014 0.0008938262985017653 -0.00037023333033558926 0.0001836185128064879 -0.0007241411171964219
 -3.34530743505404e-05 0.0012414604343034426 -0.0007024108888578136 -0.00033695654470307655 0.6468721325424733 -0.7067974497526868 0.0009557002584023903 0.025920059498417677
 -0.0019191333256729699 0.0016503130128504191 0.0033961045695809636 -0.002087734743006498 0.01823145731309341 0.00554509121166202 0.6879963497856351 -0.7029714476240352
10158550000.0 0.8202772847099977 -0.5122474862493285 0.01591667309854622 0.03365784126587102 -0.00018157101448253098 -1.7146888237039694e-05 0.00022230153271226896 1.3145930592455282e-05
 0.016227739360704593 0.03346821966417356 0.8244929781058412 -0.5131040543753898 0.00017512956941710713 -0.0003117333027144429 -0.00024916039320848574 -0.00024676280307527005
 0.000678442710867323 0.00027202356522310024 -0.00021732157445563673 0.0009959834171335952 0.6331860866250218 -0.7108345773890313 0.01413841132808652 0.01513380140299551
 0.0013538255258391634 0.0009771477407112701 0.001165778277032487 0.0007978664665988504 0.017035264073834624 0.009973634868905231 0.684105470514258 -0.6972609166633081
10228540000.0 0.8250308480878481 -0.5313264820977572 0.016697574794958397 0.03352651654133516 7.41424857109597e-05 0.000819709966386608 -0.0006335715380982415 -0.0007815669705279024
 0.017130469213702273 0.03369733042614057 0.8164255927206764 -0.5131325985273234 0.000508136467715652 -7.523316363986223e-05 0.0009066474148545504 0.0007789856366873808
 0.0024482379491162403 -0.00018499925232847873 -0.0017752389510974772 -0.0036198588277069803 0.6306769288036946 -0.6923160645131395 0.018047663599111974 0.009555758088832956
 0.0013235291311265403 -0.00027632992450486585 0.0006492509818728388 -0.0009880571610754417 0.009108022042230357 0.01453636167998416 0.6641284413983711 -0.7070958507709648
10298530000.0 0.8186424209291447 -0.5268380001854924 0.017291108484899287 0.033378502244113324 0.0007973447883670076 8.356005231420965e-05 -6.515223654706952e-05 -0.00026671891867489873
 0.017161661720938335 0.03359238314632198 0.815609987522462 -0.5391406301641491 -0.0005281125929991747 -0.00034342310269447443 -0.00017120766143717295 -0.0007396674131895319
 -0.0013702989747765037 -0.0016757111662434906 0.002328226481394267 -0.001610722059290892 0.6410722854894473 -0.7222502871571947 0.009966600316469822 0.02026621618312251
 0.00025866277442950696 -0.0014232022328821692 -0.0017355518314002762 -0.003704148080793406 0.014975891520182413 0.010260531369991058 0.6486653673203155 -0.7108422651329611
10368520000.0 0.8297502526339487 -0.5279943568654241 0.01646475570217602 0.03337661831586709 0.0008897463861146403 3.4712589667252156e-05 -0.00017246185475252535 -0.00046357249867287674
 0.01671050067354503 0.033809583764995856 0.8189497036795429 -0.5123447308760861 0.000804588000329932 0.0004999367660809001 -0.0005244033983604735 -5.670174944428924e-05
 0.0016302095716914594 0.0007907379177471468 0.0009022686297472654 -0.001463109802478374 0.6336437819621333 -0.7130206436806302 0.01126490228197074 0.015229455617101146
 4.139119803987012e-05 0.00018148484691697864 0.0008947701196040768 -0.00045607575725060815 0.00996090870160441 0.01929598179214556 0.666955278304556 -0.7226426792206557
10438510000.0 0.8100219042824462 -0.5359946178169249 0.016823494347391343 0.03351638152233543 0.0009646643167283429 -0.000466357307261058 -0.00033809624938513203 0.0003891491841646326
 0.01725801235888975 0.033288307415409335 0.8184045939931737 -0.5300080648170685 -0.0001004015726746394 -0.0003383882417244304 -0.0014758475234831869 -0.00017115555553504145
 -0.0009585296163790416 -0.0003273726840927038 0.0002912165517356239 0.0013877749861845052 0.6413379728064506 -0.7274223752614913 0.009812532321802446 0.025386781372483007
 -0.0008885568871298316 -0.0006594242794055352 0.0015181419033464618 0.001338342545991955 0.018377217468866426 0.025018181476893657 0.6533085371298004 -0.7155210693889009
10508500000.0 0.8145525493723956 -0.5261721325594452 0.017553706749197283 0.03422639097064325 0.0011544350049488069 -0.00012017639254068553 -0.0002815748205024201 0.0001469741836403995
 0.01648867405187739 0.0337267964554926 0.824465781174845 -0.5427716064076625 0.001119197876464973 0.00023755069777212437 -0.0005371257557983573 -0.0007955966213594982
 0.0015183498458130656 0.0006683986623573222 -0.0006651224182776241 0.0010748677753300538 0.6131915240803673 -0.7235420097236728 0.005857623366879591 0.015323009890270117
 -0.00042610971445944786 -0.00011381554204022119 -0.001056207911215556 0.0031541843898227014 -0.004395338604766332 0.025578187061067088 0.6486394590661254 -0.7235947617027918
10578490000.0 0.8036938453725745 -0.5304630861309417 0.016893090415619524 0.03376939809739001 -0.0016090227579930168 -0.0006465783570609397 0.00047167266016554383 -0.0005404268487980809
 0.01693293417361936 0.03319132741341095 0.8187056882768957 -0.5377085306614079 0.0005325001848158881 -0.000252649368291582 0.00033081159117941806 0.00020529616977498185
 0.0011565610161102442 0.0010514726024290473 0.00043093241718394025 -0.00029798300469854335 0.6066641418381228 -0.7345131286379194 0.0081443018496822 0.017970318269232836
 -0.0016763220557918764 -0.0003771576007719564 -0.0021164272470577577 0.00027060248096578906 0.019137378705533233 0.015021539338560408 0.6558196637393855 -0.7096965089404178
10648480000.0 0.8121189999318096 -0.5405250128528858 0.016458109928965726 0.032558938515236766 -0.0014597241398898717 -0.0004621237963096639 0.0005747819016494325 0.00010611172397874367
 0.01674515044294683 0.034272339554064224 0.8044703149952758 -0.5241509416694068 -0.0005349053726813497 0.0005671555977790281 0.0005667040364259006 -0.0006662386604799325
 0.001147314005145154 0.0003014322732764453 0.001709719360395482 -0.00300322374045989 0.619307291423792 -0.723106166920683 -0.004793829274873348 0.023148119073374565
 0.00020292507723613262 0.0016732975085968808 0.002999852941860563 0.00015066202475333033 0.011071483829271943 0.02969075307757068 0.6301211444756081 -0.7254752690095626
10718470000.0 0.8012275663260289 -0.533270715075035 0.01762368958138278 0.03285836087809792 6.212132316579376e-05 -0.0003884171774884993 0.00040652836851462384 0.0007807983071024691
 0.016924757692585612 0.0335535348704489 0.7935801072360343 -0.5416325027660257 -0.00010221212574750846 -0.00107367643624901 -0.0008378086364874664 0.00028636089934981775
 0.0008106167464037062 -0.0004998601918399157 0.0026106448297710957 -0.0004900847868759049 0.5995741079435475 -0.7546946092068136 0.015876932539131337 0.007517237360647292
 -2.1011229663322674e-05 0.00010952872246532461 -0.002222218395256135 0.0016227281602170629 0.008790538366953366 0.024813377874500046 0.6611026768545049 -0.7226860878501036
10788460000.0 0.7972334611727399 -0.5481512217312756 0.0168996541116268 0.033170945120918116 -0.0001467395553258837 0.0005922953371080042 -0.0004664125869762207 -0.0003099401074111904
 0.017417235406784037 0.033337041021903845 0.8000356465785068 -0.5395268457259259 0.00023142536414372535 -0.00031240537875631296 0.0002326020314347992 -0.00026145130902502974
 0.0001575265898793793 7.511007447295396e-05 -0.0020553250528444807 -9.882861144532528e-05 0.6193378953090442 -0.7444061887490868 -0.0003506935863692216 0.01951975761252158
 0.0008230674028820599 0.0023400341035656634 -0.0013499058882432342 -0.0004877159936876483 0.011899866433982834 0.02554529909373084 0.6377009035759112 -0.7401828944394299
10858450000.0 0.8018824692264342 -0.5450500170023317 0.01700463237107844 0.03368002687441882 9.747381315657401e-06 0.0005648164511686579 0.00013611790714438147 -0.0008041065289596909
 0.017374745141051338 0.03359168509991379 0.8047366866679482 -0.5333013003156875 0.00046693557781903494 0.0012843950542288768 0.0018120839310799112 4.3516096818347225e-05
 0.00030167789664885025 -0.0008696594752974216 -0.0019097294359567694 -0.00033448278004377083 0.598727290866942 -0.7452616915796476 0.014396734613036108 0.020459915968867877
 2.3526186275914874e-05 -0.0020022417946884328 -7.772235474336005e-05 -0.00011550666412573642 0.010480650476172658 0.01832492779348916 0.6156994815951451 -0.7304167533324072
10928440000.0 0.7808584995950384 -0.5436960977776046 0.017067193608001015 0.033621829071595166 0.00043047743078658665 0.0005547394141179696 -0.00011383511122682839 -0.0006163844422511571
 0.017100409764372458 0.03289152026958786 0.8016341097615239 -0.5467331612184683 5.191500962201677e-05 -0.0003382099751549505 -0.00032323644575846163 -0.0001336140481220603
 -0.0013083185326073746 -2.2551268225602324e-05 -0.0006388249013743759 0.0005730218051687642 0.5829104563254289 -0.7378008595665854 0.013232898125279238 0.025253878047947334
 -0.0011408608336040027 -0.0013705630237325903 0.0018703810872293515 -0.0018878355778302555 -5.975974047284417e-05 0.022265396619406005 0.5894412890095116 -0.7357122071396963
10998430000.0 0.7945018197724445 -0.544283593552605 0.017434495927187783 0.0330068934583627 0.0002076054434688832 0.0011504477984912898 -0.0006223278185765407 2.228824102753371e-06
 0.017709451306021893 0.03267150494564458 0.7897273348355848 -0.5483612605701473 -0.0004066060242782906 -0.0011818009357275354 0.0004591108371996597 -6.0091010957747104e-05
 0.00015882368026950966 -0.0014530347487705635 0.0016660865413585869 0.0005392756808092326 0.5804356880203381 -0.737422350083524 0.015991181122491625 0.012702334092221433
 0.0023128521677284884 0.000299544049214173 -0.00021654200866100983 0.0012892663388288186 0.012291036350489632 0.026777022339410542 0.6309261112818756 -0.7330173528418257
11068420000.0 0.7883952541006192 -0.5441490238566636 0.017802624795890364 0.03363125544664413 -0.00032291097277829914 0.00037484393983913087 0.000513788189285887 0.0010637091816494935
 0.01730239153824797 0.033300209710485584 0.8007676485214694 -0.5636932796580603 0.0012990546935078909 -0.0009710025881927409 0.0009444350927621799 0.0007113774658684402
 -0.0011827884184615024 0.0003501468257311946 -0.0010671620857516347 0.0005768439032512623 0.5933359475917733 -0.7432779944348307 0.013339906688326004 0.01118659710996004
 0.0008109763719386996 -0.0009881694793890494 0.002857515225759785 0.0009256671686437779 0.021556531938241884 0.0068611611880673405 0.625388150009789 -0.7404088549245637
11138410000.0 0.7880485765660126 -0.5570750360288815 0.017595815060425662 0.03294686390734566 -0.000712744469516474 6.882911758990397e-05 -0.0002936077373949353 -0.00020876955221363287
 0.01811689581759883 0.03294934820244989 0.7863560715827865 -0.5553104983681776 -0.0003685142015053171 7.654303862509726e-05 -0.000282457748953449 -0.0013533587296443914
 0.000582261788474809 0.0005249830648740363 0.0008758571381772703 -0.0008446200902770842 0.5797462957198737 -0.7244523637574366 0.007757292882512311 0.016479748127572264
 0.00025483840065165596 -0.002019509976939597 -0.0010581754341968572 0.0006386824151743512 -0.000246766757427485 0.011529581692827681 0.5962426341114834 -0.7517104952076457
11208400000.0 0.7814143257529793 -0.5563068652624804 0.016935360947332685 0.03328716717399557 0.0003047715065511294 -0.0006875674302413473 0.001182297928695276 0.00025641769987658604
 0.017152492232576765 0.03306820386729444 0.7898989157146202 -0.5467117049769711 -0.0005874136948113913 -0.0006179542575942524 -0.0004384614114210996 -0.0009928389111606571
 -0.0005321971498345737 -0.0008133847345805854 0.0023517471080857152 0.00035982692054886456 0.5778826666287494 -0.7498621800479 0.016985523408618787 0.004868114338187801
 -0.0011608424018611071 -0.0005700254616184724 -0.0010396405110560457 -0.00010572932697473761 0.013948557609813741 0.028686384355202276 0.600230943282485 -0.740906412231997
11278390000.0 0.7839810161463985 -0.5689696571134494 0.01796361742916847 0.03340352740258332 9.859185293320003e-06 0.0005873558859289382 0.0006198352120590137 0.0004622748545615941
 0.01785684474460319 0.032747105479375496 0.7907918942430885 -0.5637796767599593 -0.00037167562453800434 0.00043876294249804655 -9.329328971949078e-05 -0.0009088630730255465
 0.0007861797052672856 -0.0001551475140254113 -0.000503932061532554 -0.0016856021168515337 0.5745997969898714 -0.7700631709165561 0.0023530120172088405 0.014052396976211445
 -0.00026791074837644594 0.0004339233628251722 0.0016929346124143411 -0.0002273210233874083 -0.00013046480115066887 0.029653420540647707 0.6088521944007871 -0.7411981970588439
11348380000.0 0.7703037818511174 -0.5578206747791079 0.017640839738927223 0.03305621183931686 0.00048453640628804985 0.0008705465403004386 -0.000507771863384764 -0.00044081776384713363
 0.017674141562506854 0.03262795873923049 0.7871557188015996 -0.5558550171412877 0.0006160744753463597 0.0005187701998272976 -0.0010458064538067108 0.000275394464130119
 0.0013587950706244068 -0.0003939027680627591 0.0009100390564612177 -0.0007666463203764998 0.5628053761163538 -0.7624372072512942 -0.0016260811380457436 0.015534188596809205
 -0.00048819418102801957 -0.0005831701059000879 0.0012245795645205787 0.0009507562232608704 0.005683552733888006 0.011145442580366033 0.5955774455408493 -0.7502576525710829
11418370000.0 0.7727725058033097 -0.5696597946571211 0.016858596822784323 0.03370075388667842 -0.00019638270624962832 -0.0009976158263880221 -0.0007592895108087158 -0.0004124527669050333
 0.017968717233758143 0.033697671633858624 0.7940327108984501 -0.5585223288442185 0.0013927957379378623 -0.0014484846597016964 0.0011667094427416295 -0.0014822676061066002
 -0.0011786591709958888 -0.00045126748269008174 -0.0009134497299693227 -0.00023165237851465446 0.5557268222761075 -0.7973717541141083 0.00534878946546175 0.010816098130425344
 0.0020401460140692766 -0.0013428979789589272 0.0008273496864235895 0.0011116360256577522 0.016600189034349736 0.02466808885387447 0.5762046393466556 -0.7422742119756721
11488360000.0 0.7841804119362955 -0.5699579236225053 0.017770048972464106 0.03263556518910355 0.0003302553055556459 0.0005659380834817976 -0.0005716782444864511 -5.397105095366542e-05
 0.018292348046878102 0.033536068417906885 0.7756836488142733 -0.5658829812784868 -0.0006038125662347284 0.00018253406938186054 7.336978059212926e-05 0.0005078856981100425
 -0.0005619537914234944 -0.00014903189055311838 0.0008648991822109373 0.002430200797344365 0.5445963052675831 -0.7499765202171947 -9.146009844797573e-05 0.022725397209588993
 0.0012166125693592203 0.000755296607055924 -0.002733663137966184 -0.0016839516764892998 0.001781560662729672 0.0048063182645874175 0.564289898432302 -0.7666054117531172
11558350000.0 0.780904999942911 -0.5575468975515812 0.01772752313689721 0.032976910790385776 -0.0002921747913634723 9.33606305661863e-05 -0.0008703790808540765 -0.001319703439051861
 0.017413238520487255 0.03273370074205767 0.7785736554591304 -0.5641002442991794 0.0013963866881566821 -0.0007789016786040441 0.0003630180555842194 -0.0014487976481784269
 0.0004620617131745838 6.128690021197572e-05 0.001202815131749965 -0.00023407983907482998 0.5516640487318725 -0.7655328419898245 0.010408227516815681 0.019175436094838304
 0.000252891708463774 -0.00021188067271082328 0.001845438089489828 0.0012275988498003723 0.009751195275786545 0.01750198263072943 0.5779826867000045 -0.7658683348993082
11628340000.0 0.7641293401691966 -0.584476738389258 0.01756184107018643 0.032718325346772804 0.0002665736204450324 0.0006006013343026315 0.00020253079335643404 -0.0004970385058516606
 0.017676681353183666 0.032166183504186735 0.7825771848653642 -0.5806700469144831 0.0016800625023906716 -0.000771793364753108 0.0021447647490206966 -0.0007576534060059275
 -0.0002709271840549098 0.0008841149626906905 0.0034375221992807604 -4.78029363271798e-05 0.5684467561207089 -0.7804308440697966 0.0037679618288615504 0.026506120262058418
 0.0009925596170438666 -0.0008424495195354283 -0.0008728720892011278 0.0010303741411908287 0.011733705175777787 0.006618555224533907 0.5740077820238698 -0.7760127647740578
11698330000.0 0.772894744178737 -0.5715718240871387 0.017603720473964617 0.03303647426411946 -0.0008614687940558804 -0.0007151340587010383 0.00016937568588395652 -0.0004981293565773904
 0.01752134914007019 0.032713897791246914 0.7829586935153318 -0.5774464977062819 0.00016115259426295668 -0.0010743551800670742 0.001134049133007169 -0.0010495246261960727
 0.0006733224185417691 0.0004638295229974082 0.0003922021606644881 0.00030025837296198115 0.5392975711890658 -0.774891968084949 -0.0018143891825036136 0.01085048231408218
 0.0017001684001473774 0.002063127922269642 -0.0006928923366506079 0.0005485518576529658 0.0037505724131373236 -0.012959367168956345 0.5748289712400264 -0.7588201005967539
11768320000.0 0.7727385027202345 -0.5905288455598104 0.018250965849072806 0.03293957761853942 0.001226780946386135 -0.0009132960343430033 -0.0004033973906575237 0.00021024780361963193
 0.017781016670969214 0.03258040211800695 0.7690061038222172 -0.5840112393606688 -4.103911881611323e-05 -0.00048131627655340406 0.0003189850037231047 -0.0010758643906994996
 0.0012680895753775642 -0.0004505750126445138 0.0010289706156864184 0.0013936303970509519 0.5451964650663913 -0.776952748020805 0.006822723553556364 0.016214787550479212
 -0.0008613340225029348 5.069445389405821e-05 -0.00016509594249493705 -0.0025868175650755314 -8.585333262855146e-05 0.009402999182870369 0.5657432581631249 -0.7654909800441682
11838310000.0 0.767660784760475 -0.5923583164578974 0.018033337293443696 0.03180682876078624 -0.00045210780927997315 -0.0006587712791911918 0.0009349609482184339 -0.0006436977323650935
 0.017653960500330305 0.032403683161279416 0.7672730579445576 -0.5844457577508149 -0.00017842616718562586 -0.0018292275763003704 -0.00043033288453905665 -0.002220117754105619
 0.001115212571733553 -0.0018997769340221061 0.002435961590213769 -0.0006773594316818729 0.5316809071334305 -0.7639337138244078 -0.007261797636196928 0.020945870487096372
 0.0008655749722142504 0.0001399070891090971 -0.0002228305615111117 -0.0025736217684042668 0.004703561976390077 0.005425641351822579 0.5546493612314883 -0.7727038305990785
11908300000.0 0.7647211247355203 -0.5801787636536596 0.017120281767975254 0.03187101176073096 0.0003963537930604054 -0.0004195629862258111 -0.0001517822316752351 -0.00017584451015813392
 0.017627464764345843 0.032572759815246315 0.7512209603728719 -0.5786609008771576 0.0007436956645906636 -0.001549229134820551 0.00044920722471153147 -5.9233763662679595e-05
 -0.0006920435196357496 -0.00016292019842621068 0.00015450845974633153 -0.0014029300601137676 0.538247464933518 -0.791317965216006 0.0037392853811462675 0.023967899398874712
 -0.0006192381252917418 -0.0006964700254278041 0.0023568172517813494 -0.0018971067202996385 0.010856469548944628 0.014912513094661411 0.5474480363934592 -0.7911185631714378
11978290000.0 0.761346690621042 -0.580302656711938 0.018002163832026696 0.03292963650349996 -0.00016048931917209022 -0.00023271462875298145 0.0009216145330563715 -0.0012331627024085947
 0.01764967562936786 0.03246046494242256 0.7715017411165143 -0.5906886759937068 0.00043176527889883835 0.00034771532106603147 0.00025875551157259207 0.0008851564155729453
 -0.0006814659801604795 0.000888521104795616 0.0001705150484359592 2.7366045660347003e-05 0.5077424865186511 -0.7925282658144782 0.0023089838837640326 0.02049238545837071
 -0.0008440238689345142 -0.001913784930993977 0.0009473265231501637 0.0009909818687162018 0.00791575867823014 0.015313745100349363 0.5533206524171943 -0.7690971243696905
12048280000.0 0.7557821164462328 -0.5786420930801298 0.017763224854516153 0.03240394938113825 0.00027644747311454437 -0.0002460821573065263 0.0009230382431918248 -0.00040944812083025344
 0.01721748893471043 0.0318726172267218 0.7569002219896942 -0.5908476159762036 0.0009968057577774423 -0.0016756542167559213 -0.00017982533243208508 -0.0006454883889776406
 -3.547975784385885e-05 -0.0003930832983954363 0.0003625510346012369 -0.0004819221495458231 0.5075183961805002 -0.7770310694565188 -0.0012826367797856269 0.010963994819334678
 -0.00011796634357021227 0.0001672254736829953 0.0018132790651326821 6.41785769693668e-05 -0.0026192890667043954 0.015906997666029554 0.553087605945171 -0.7961881198593962
12118270000.0 0.753837643902209 -0.6035940137793814 0.018174837032287554 0.03228326108944846 -7.159189391451157e-05 -0.0005545435328526783 0.0010774082346101624 -0.0018275850175563653
 0.017882545482325967 0.03234496314514352 0.7551270508687221 -0.6011851404787271 0.0005469790019340619 -0.000511479601222533 -0.0007288359219090971 -0.0011091795836062077
 -0.00012433304496334505 -0.000554533532939393 0.0012601668878451915 -0.0010265999953756374 0.5280700223065259 -0.7899595028633877 0.012491521138012385 0.013948663020382984
 0.002077580027756395 -0.0017735757990204163 0.0017267827517109414 -0.0006801010327496903 0.002725218484681334 -0.0026141959923639234 0.5501061241644501 -0.7883686093599105
12188260000.0 0.7498925062754043 -0.5967137045875307 0.017434018600581677 0.03201022081190224 0.00039708727381455774 -0.0005856258272227853 -0.0001892135708968902 -0.0016281195950488521
 0.017916472157947665 0.03179317735333562 0.7646595730891242 -0.5857369665817674 9.231117156002304e-05 -0.001064361711629408 0.00014755593287327654 0.000920057417818953
 9.83259170806379e-05 -0.0014225845868472567 0.0015004121432940255 -0.0020055656812355007 0.5049581240855564 -0.8015201409101497 0.009178450524685406 0.018277361830082793
 0.0005959572326578079 -0.0009636657177547919 -0.0005841749947922555 -0.0011086195447718252 0.00640086026136629 0.006917004045873232 0.540971368303259 -0.7754204312808511
12258250000.0 0.7482041502856435 -0.6010334016620205 0.017512054507756163 0.032316287150940634 0.00010746996664840085 -0.0003743087567425397 -1.9099527674875477e-06 0.00035998291331066387
 0.01813012374019844 0.03182640545456503 0.7629667795238719 -0.5982671016478278 0.0002665063748968301 -0.000730295809250482 0.0007812630201969992 -0.00047101129609710996
 0.0005656104470651918 -0.00017512494981947267 0.0006219342780042351 -0.001293686071602161 0.5087254186442994 -0.8013234047781337 0.008788818902651981 0.015601537059174882
 0.0009216814012875905 -0.00177968619968243 -8.207751359876987e-05 0.0032983449714117123 -0.002655182590325115 0.022168330948562714 0.5467158377443261 -0.7925434597530976
12328240000.0 0.7478526363198366 -0.6049549356931736 0.017777740942012937 0.032615933800447396 0.000824623087516162 -0.0015458782741130668 0.00012219545464031126 3.7863535548384976e-05
 0.018452788343885522 0.03247173594322154 0.7526784957131211 -0.6035431860800063 0.0006548646708205715 0.00045988026390431845 -0.00014904333359007434 0.0004080787657971283
 0.00170759304868185 -4.14842081666146e-05 -0.002624800298741917 0.0010853391293004315 0.5108566829490875 -0.7894116185109191 0.007902179664100681 0.014997244185398419
 0.0011024224114193513 -0.0014240554917039202 0.0024679094694630304 -0.00022476755890219068 -0.009191879685974349 0.016895566658550028 0.5299523369154572 -0.7994571245730682
12398230000.0 0.7517579341472301 -0.6029292022519808 0.017572097119829422 0.0322819436532175 -0.0006308790763973691 -0.0013754786773670826 0.0012617676303661746 0.00084691625515906
 0.018094180924408215 0.03195695095096626 0.7582624190918337 -0.5916943911401283 0.0003060291559485479 -0.0005679609371232354 0.0003816431162564228 0.00030507153024284466
 0.0011973319864450492 -0.0007943977531862265 0.0016571403713173663 0.00014150897731016502 0.4951804510034012 -0.8046308624082184 0.004281120247411981 0.01981273426020678
 -4.986090675803821e-06 -0.0007040372029645814 -0.0023414592151915913 -0.003847422721420722 -0.0038804753966241493 0.022994927694519184 0.5121878507445665 -0.7803917394995198
12468220000.0 0.7395464034687761 -0.608160575651532 0.01768770816619889 0.03219567408085507 0.0006356532095997903 -0.00046487286500134623 0.0010237441160032398 -0.0008017344945910422
 0.01755672049343988 0.031486289000172085 0.747038796329785 -0.6040820110758931 0.0015272745087549717 -0.002047258667045434 0.0008376502592250374 -0.000792912786122868
 0.0011221430420360397 0.0006220112289228652 -0.0010099963034436662 -0.0033659380562242477 0.46771115904037835 -0.8268675883646677 0.004612967057550597 0.017567094932885375
 0.0011239764624358902 0.0001502246582937667 0.0017581068486326214 -0.001039582043493874 0.007291936916142919 0.010997116319970924 0.5313091038499151 -0.8067274885880378
12538210000.0 0.7477269633709624 -0.6045640269139595 0.018251753830258306 0.031718785825016596 0.0012140153115893706 -3.5298383094986322e-06 0.00031215098181710816 -0.0008327516349166197
 0.01722257104967514 0.03183271632028683 0.7459203132255556 -0.617147588474209 0.00013268270091786491 -0.00031102375788541096 0.0009450417139118339 -0.00018488589252485673
 0.0006934243106017963 -0.0003828907456449909 0.006908301418099287 0.0021984976735793123 0.4991019280292194 -0.8052209639018397 -0.0024393069665241867 0.015170079284531622
 -0.0006804164751791738 6.44932295888565e-05 -0.002305427281933498 -0.002128542101230526 -0.006492650733669469 0.013502610735268157 0.5347204383616243 -0.8020217432525979
12608200000.0 0.7437087301583964 -0.6086959997371347 0.0173956651867494 0.030956008210359924 0.00010527094045736936 -0.0011443161121620486 -7.464301269760489e-05 -0.0007722783684065766
 0.017861572946285018 0.032046134376392726 0.7288534711151643 -0.5999445554207129 0.0009090181976628572 -0.0012411311638455985 0.00016220100639444368 -0.0001287531458729873
 0.00013721277450811254 -0.0015712992892074978 -0.0010190199829126867 0.0014016601924692542 0.4798084269736541 -0.8072628247299651 -0.0024276997842254517 0.011920065839501203
 -0.001062036350349251 -0.0015689868228787186 -0.0004934751598526891 -0.001028662522400482 -0.002454791597881875 0.009950253136944753 0.4870212664384305 -0.8148915218541116
12678190000.0 0.7462865016875696 -0.611485371715344 0.017462625982601475 0.032303121248682856 0.0003393811906999433 -0.0001068216916833777 0.0001435904672712675 -0.0008185585581861499
 0.017887585389379658 0.03251270055779685 0.7475194500764536 -0.6117680831392933 0.0012722639481025715 -1.6217236554353295e-05 0.000823921443151283 -0.0004928972678766397
 0.0017585988825250642 -0.002662077276731921 0.0002582681850478892 -0.0002884466468883759 0.46318465772271533 -0.8043877654106304 -0.001994407036735586 0.00037319629548545393
 0.00015271805643835842 0.00022885726448184263 0.002958141118626146 0.002365810346064602 -0.007890999773986176 0.005541938021780506 0.4991920004355874 -0.7965005144650088
12748180000.0 0.7464974451912603 -0.6184927269017823 0.017901541417742528 0.032076059423545265 0.0009461381983384035 -0.0014335765315456092 0.001937516760068295 -0.0006043504270318566
 0.017602515685513024 0.03214834913026372 0.7443846920072535 -0.6258581830375789 0.0006796056656254761 9.104939702850529e-05 0.00010454348251145521 -0.0007913913992268225
 0.00025519248252701493 -0.0010471220007284656 0.0008210147997839704 -0.0004132384385862459 0.47966174651106036 -0.8038879928323678 -0.0046398857517887795 0.011005254270585766
 -5.432425511318903e-05 -0.0009381366153451134 0.002948000981463203 -0.00016281916666704667 -0.004313869091701545 0.008467029312300174 0.5076319244290672 -0.7974913319655632
12818170000.0 0.722610147830648 -0.6122914913332089 0.017529774168381272 0.031642820675254556 0.000859474217160972 -1.0699048190535654e-05 -0.0005040517440965358 -0.0023677800386896295
 0.018211137842834547 0.031152294220558933 0.7320261434881618 -0.6211853866884041 0.0010913620896507057 -0.0005680293407259582 -7.33029059660905e-05 -0.001954676222262191
 0.0026456179250102475 -0.002261210339743738 0.0038827638796778063 -0.0004704748648346837 0.4407388530557581 -0.8347642197161826 3.9756792401950076e-05 -0.00043392258189394584
 -0.00047342718802813403 0.0007071757302700465 -0.00044368751088028264 -0.0014384403289247857 0.0032255109885589084 0.013306880959657753 0.4913617134470977 -0.8009828845059138
12888160000.0 0.7302334594227265 -0.623055212634574 0.017322740270511453 0.03129618629119446 -0.0004526953762534777 -0.0010956065915276108 -0.0001655497455409063 -0.0006239387133574162
 0.01721015346096725 0.03176170769130257 0.7338614733529905 -0.6195026635758921 0.0003399529434992031 -0.0007897587467408301 0.0016987808964097813 0.00042073333647239027
 0.0006953241684973985 -0.0018978771339904468 -0.0009912764022939466 0.001091784873106161 0.463907777060748 -0.8303432351633165 -0.004024888492555215 0.010368622554295116
 -0.00017444705930175957 8.708522658004059e-05 -0.0008828155015390614 -0.0014416742821444957 0.006626340081510357 0.012220222136831134 0.4921729578880221 -0.8295669657552689
12958150000.0 0.7367477736493194 -0.6326692963427435 0.01741877601971478 0.03145236511795153 0.00037260981545387845 -0.0005521028512815876 0.0010441545130723269 -0.0006993626646527698
 0.01796959831047398 0.03186062379839988 0.7363988370559318 -0.6300497946289471 -0.0006022735941095329 -0.0006366148816426856 -3.1316789563250165e-05 -0.0006066393498477457
 0.0006473958136970271 -7.315457112341001e-05 0.0015253020780107063 -0.0009399023220669859 0.4605138956335268 -0.8309727242535434 0.000524794813083153 0.00979557935406818
 0.0009364363945014757 -0.001032916077699503 -0.00114882737960308 0.00047926730362272876 -0.0010447904733262893 0.017309531688036103 0.49066219778784076 -0.8180171152584663
13028140000.0 0.7331431803640002 -0.6174986096348927 0.017177059174499618 0.03165517734774658 0.0016676667788274677 -0.000959538171687178 0.0018636643539526963 -0.0005606807970984229
 0.016779021559338605 0.031552990050668216 0.7271787839391136 -0.6280285907151427 0.0012997042317426286 -0.002813566925904486 -0.00045393191553990043 -0.000371517800026477
 -0.00023723930683095703 -0.0002612653027259819 -0.0005816304487174176 0.003727813331665742 0.4669285891047538 -0.8023960302570985 0.010155708783898876 0.003714174583109569
 -2.451111683570508e-05 -0.00017806452891001818 -0.0012468460682734713 0.0002636109147499497 0.004765852872917139 0.016459680791537583 0.4906232752058329 -0.822100456407184
13098130000.0 0.7214081258546596 -0.6227273994059601 0.017786287254550812 0.03125048533724208 -0.0007115392006685192 2.9706632407578897e-05 -8.508217286932923e-05 -0.0003940766894723978
 0.01728587659616969 0.031031770852789808 0.7246434065161381 -0.6305315606870389 5.348818155530458e-06 -0.0005696096696001865 8.62452879570437e-05 -0.0002288909371279582
 0.0007288065061120494 -0.0011800534988477824 -0.0019446355679284394 0.0007080623747604598 0.4315077475544455 -0.8420821902476502 -0.009429135820351793 0.013518310063619057
 0.0020413734582628196 -0.00031400543671048154 -0.001352715097579952 -0.000607485955087583 -0.011013778510159491 0.014020470947571577 0.4852026911328955 -0.817912132647017
13168120000.0 0.7077395044761498 -0.6403798903030552 0.017054254464509293 0.03190294431727282 2.7193237914683145e-05 -0.0005541863103326579 0.0001443764715057912 -0.0007563186896902346
 0.017999892368695234 0.03111632186023754 0.728770905536573 -0.630951512759403 0.0005274781386811814 -0.0005313612226691244 0.00043772690733353615 -0.0008290052433339646
 0.0001924640824228523 -5.276423008079269e-05 -0.0004148636285840949 0.000495244949170093 0.45184131181898174 -0.840106800417438 -0.007188611605870507 0.012888693075414473
 0.00144189170484322 -0.0008364511223241534 -0.000519492862388758 0.00015235629721636028 -0.0033179068224370545 0.008560721227736717 0.4884115477382552 -0.8262471457583255
13238110000.0 0.7186989289332171 -0.6250829943909662 0.017406634068968765 0.03121562481207424 0.0007020471390411012 -0.0015344595144270079 -0.0007039055844958776 -0.00022540322261954012
 0.017213208412218316 0.03127009133168875 0.7227122284825802 -0.623633242301539 -0.0016356522135475811 -0.00019214208061847464 -0.0013549940925820154 -0.0007054644719432245
 -0.00025182811383551285 -0.0017581525898898826 -0.0007687466487723988 -0.004705521956774576 0.41920854821367276 -0.8434881723255836 -0.007421130850526647 0.02230705250009946
 0.00048279829397857374 -0.0024341575490440595 0.0014901083112932902 0.00131371920950972 -0.0012123647030920948 0.01764657668540595 0.4500004526498769 -0.8262758292761356
13308100000.0 0.7138701928328307 -0.638368683191641 0.017312131259430756 0.030866376502243015 0.0011029715031594396 -0.00030714831704411967 0.000950573991483351 -0.00012299028391479672
 0.01722026975113342 0.031553422363443495 0.716794259577066 -0.640745326061882 0.0007152586799026619 -0.0012146269802733379 0.0008597993435115618 -0.0009818137465984816
 -0.0010675416566321397 -2.840390898708469e-05 0.0010887359453539216 -0.0011806888470356795 0.42746321171501833 -0.8260375833304421 -7.296527389467206e-05 0.02385500261255779
 -0.0006841131592882896 -0.001524262396629535 0.0007064445146392081 0.001566073787895281 0.007784191999936149 0.0031074330245940652 0.4660496743248958 -0.8306099770734222
13378090000.0 0.7088840293111719 -0.6374213964488165 0.01738772186947122 0.032146988483382474 0.0007037324742049259 -0.0007618972589637818 0.0011677290663124067 -0.0008168337997069644
 0.017164111349833536 0.030688465328715712 0.7304897567510922 -0.6519907003734751 0.00016482384222641074 -0.00011572899135276872 0.0011643171947735998 -0.0006097194863587784
 0.0005396441935220989 0.00043035098130538984 0.0013214387294082184 -0.0016923645303890688 0.43222992559520557 -0.8445888135689903 -0.002722763274746124 0.013167863435550636
 0.0004113545984114741 -0.0013667799617557812 0.0005590634198657307 -0.0012490239973430883 -0.00822806248582004 0.010893234074978539 0.4824666176580078 -0.8060098447559947
13448080000.0 0.7139244511334037 -0.6362149230083217 0.017242713428783224 0.03021067718112095 -0.0012726758899646278 -0.000949815996790001 0.0009403730087428795 -0.001672584632678775
 0.017214364957430058 0.031246988676954822 0.7000233445617364 -0.6423632001567132 0.0022749253684555457 -0.0017479051776563821 0.0002368582388631883 -0.000949589699847619
 -0.00013046914473762605 -0.001020252554095397 0.0028674312371736355 0.0008152106460409259 0.40991243269553246 -0.8274429154389229 -0.00018681830283874638 0.014979979862475274
 0.0002643809065776303 -0.0011420580477251021 0.001742671395755361 -0.0030792608476876504 0.0010254100676227124 0.01549591477473041 0.45360727477316726 -0.8279898732765656
13518070000.0 0.6953148916462367 -0.6507386049516488 0.017307997376369216 0.03054284405058845 -0.0004365827645627223 -0.00013504474815758267 0.00024418951938010047 4.1015619353672074e-05
 0.01707799976457248 0.030262460463681345 0.7021453725986456 -0.6454900049590384 -0.00017939051536146924 -0.0012742432112213887 -0.0011247721207351693 -0.0019547200191247505
 -0.00029531176839909536 -0.0031171792863734014 -0.00033006096262809694 0.0012259993756149803 0.4281650444078518 -0.8533485556327151 -0.011173793183559207 0.007659853814437715
 -0.0012587246618994284 -0.00012942601214613496 0.0014639033891326377 0.0015194097527779936 0.007051965297386492 0.02064001329627767 0.4551939166082323 -0.8333623771204149
13588060000.0 0.6971563761132852 -0.6446762797378252 0.01689427600299141 0.030912106776871208 -0.0005072830012795258 -0.0007114655454397748 0.0002131972027797176 -0.0015362167393802265
 0.017408705259420995 0.03020930691382517 0.7114179411745503 -0.642445423078624 -0.0008260814731846958 0.0010724950339061055 0.00086620691549658 -0.0014250931794312232
 -0.000509762774196357 -0.0009082305739114297 0.0008835349255424863 -0.0005941910821642404 0.40507095189360115 -0.851109898805691 -0.002425643195443966 0.01063782892872881
 0.0015061411462246258 -0.0012485434841530024 0.0033117050762181592 0.0032713782058758057 -0.0015422582115960765 0.016029690757005468 0.42640506941326944 -0.8265120436943555
13658050000.0 0.7030401081136378 -0.6490839660896152 0.01681988789810333 0.030620766217390617 -0.0005875213850426012 -0.0008142799491856714 0.00031229685534759326 -0.0008042940408535768
 0.017180302541966307 0.03110366264042385 0.7092410573282077 -0.6382828405104358 -0.0008363891379475156 -0.0004261615514649658 -7.357665012647884e-05 -0.0009570305844385524
 -0.00022585540576052008 0.0004292950633078071 0.0003268566705157178 -0.0024118090790883344 0.4044866658954106 -0.855433442069272 -0.013410406508479024 0.01072640291572649
 0.0021028586050549055 -0.0013112837583107097 -0.000574947909054167 0.001313048004384773 -0.009961313383759988 0.009128565659524102 0.4330656250747147 -0.8319184156811076
13728040000.0 0.6870165041624942 -0.6598384277306425 0.017168594672751926 0.02997332515936204 2.3448376356580357e-05 -4.1107329461354016e-05 0.0003291478102032623 -2.5362845968344674e-05
 0.017254368720699822 0.030567185619568882 0.6987370521929306 -0.6506151920478082 -0.0004442235788529094 -0.0015295058482563237 0.0013880206546140134 -0.0012717355227149583
 0.0011599496792694714 -0.0006036833798372926 -0.00030420120916443575 0.0010062807090167158 0.39255957520885776 -0.8483600921146218 -0.021481287051046627 0.015877047284483276
 -0.0002837822253290377 -0.00041719841513489074 -0.0015127144996791733 -0.00208574519847708 -0.021694065162410223 0.015945554041325284 0.43051236080354766 -0.8532747936651316
13798030000.0 0.689332286681545 -0.6594470277980664 0.016980985448775816 0.030399691692686116 -0.00042558895853865775 -0.001934739622826609 0.000797554020730826 -0.0014617119929481721
 0.01712488748270217 0.029691122288854715 0.7061811041074753 -0.6640851593466233 0.0005482325114513855 -0.0003353747926747701 -0.0007868077868694619 -0.0008180542290082987
 0.0020194812751257334 -0.0028275865675096326 -0.0005307228805218137 -0.0009970569968952452 0.3981865550431851 -0.8553309291503316 -0.0032610829119934337 0.013598129116604789
 -0.001980926789150695 0.002410075649078669 -0.003223832395304398 -0.0038039288040930047 0.0014977467181736491 0.0180226434255539 0.44651610635272193 -0.8508847313065727
13868020000.0 0.6971930168291636 -0.6455009103198422 0.01626026293113893 0.030071911764870063 -2.2970990017869495e-05 -0.0009460040659552693 0.0008479028480613612 -0.0017191393720739287
 0.016965059878343288 0.029638675613287015 0.6928348154771103 -0.669852890416158 -0.0006420572476904151 -0.0020633489615100886 0.0013502587030352598 -0.0011651855523078895
 -0.00012682101047020497 -0.0013373931772654108 -0.0007078530996241903 0.002550326950685955 0.3933410233922649 -0.8644835687119624 -0.005567261586619184 0.00469061097579628
 0.0009001206789365635 -0.002208192015908968 0.0008548004506149923 -0.004561610416677551 -0.004430461771727075 -0.0009785353356292076 0.44184860603992354 -0.8452700555522107
13938010000.0 0.6759550002310712 -0.6564596217700196 0.01624420619963232 0.029834048894214173 -0.0004022178637501237 0.0008321128572867448 0.0010915555323255488 0.00019394429955323745
 0.016562788716291865 0.029890924806182297 0.6968889668967742 -0.6535830135444153 -0.001085039764906774 -0.0022630712176998123 0.00014314749375511212 3.289024225132158e-05
 0.0014544598811902332 0.0009561783104579446 0.0004720746335368327 -0.0020611662519278693 0.380570191758914 -0.8638749358907942 -0.007385454204428945 0.006837521249913691
 -0.00013189334510368262 0.0003264934212391655 0.00035385441045323094 -0.0006668558255880671 -0.008594191724181811 0.014242876071817064 0.43074439669291215 -0.8387442232350139
14008000000.0 0.6869083738521878 -0.6503029232420329 0.017550756872204233 0.029848295334456824 0.0004488622424072895 -0.0007870950447591451 0.0013234524833510614 -0.0010794576662618179
 0.016782054658661543 0.02966999811225966 0.6844734603491234 -0.6777265709766241 -0.0009072319951369345 -0.0013579635915381752 0.0005608233183287725 -0.0018302303859782524
 0.0004132088190049002 -0.0008126394094687873 0.00022409842447573974 -0.0036637564793464404 0.36202340325832566 -0.859180119570686 -0.005815784520843432 0.003404600326622103
 0.000635149896431962 -0.002808960548492148 0.001375371954839049 -0.003147835452845802 -0.013778022321714252 0.011966670159504653 0.43011369235587715 -0.8348102029560243
14077990000.0 0.6848096247897931 -0.6664319041570841 0.01629983181948918 0.029887069606714424 -7.655872038406385e-05 -0.0016419007273596443 -0.0003414206810921313 -0.0006435706155136878
 0.017280327635694943 0.029986533365866506 0.6862090616420594 -0.6647088575699818 -0.00022123029842817125 -0.0008524138044928307 -5.898869558848839e-05 -0.001804267872984215
 0.0003647808447614162 -0.0002520492372329115 0.000328786679703948 0.000742637520606541 0.38465957959818337 -0.8672093485439494 -0.007412566000839549 0.01522639820527755
 0.0014800285158630133 -0.0010089784108336742 0.0027480488355398087 -0.0010279196949736496 -0.011650087714620441 0.011895681051523931 0.4088637290337473 -0.8330381983624815
14147980000.0 0.672695529603919 -0.6668140737743491 0.01619269818965875 0.029606334027781213 0.0006639689372836096 -0.0012837197163367287 -0.0003992424535623498 -0.0016719606678063106
 0.016599359260203374 0.029541666702527163 0.6960258836441376 -0.6669943987362044 0.0011660768214708228 -0.001335800250166975 0.00016597836556194652 -0.0001856850241477491
 -0.001048076939048306 -0.0010019211098950263 -0.000826491900090127 -0.00016778216620236464 0.3753726385191218 -0.8621804910806447 -0.003114019062115622 0.011758330938211452
 -0.0006420645485912517 -0.0017620576926717733 -0.000534006912455501 0.0018705314172129126 -0.0017665163912563126 0.00975535004538637 0.39026207289545495 -0.856175341393684
14217970000.0 0.674764986647352 -0.6753017543157736 0.01646475010281335 0.02923748656202428 0.0008677214001205048 -0.0011519301305753702 0.00019156806318204925 -0.001933633017977797
 0.01696250819695762 0.02936251408617571 0.680590987616192 -0.6700271233784691 -0.00015864648103140628 0.000611884997696891 -0.0013233205310125608 -0.0008710555039784021
 -0.0004794806319749523 -0.000980178935847845 -0.0023439601522151085 -0.0003607197184071777 0.37590177298214006 -0.8643086214844524 -0.015471682287988623 0.00905770075416247
 -0.001623741275017223 -0.002690007972910388 0.0015080222937140272 -0.0019384852974049633 -0.012781871511112977 0.01390027822706436 0.41628287671163644 -0.8479159692172382
14287960000.0 0.6781482269134019 -0.6768581559666778 0.016603180742764168 0.029332869430503342 0.00048332706356797177 -0.0009108936459369996 0.0002068617029151415 -0.0006106464354759525
 0.016827538348605932 0.029940925835559174 0.6723740915125114 -0.6697596626828798 -0.00026343574721430607 -0.0008327182751646761 0.0003042787354026436 -0.0016026792127089976
 -0.0014545227394750083 0.0003748031350134468 0.0017132726032052508 0.0009940552708507563 0.3610213940879369 -0.852423081511473 -0.00852822203810714 0.015020380928909617
 -0.0010699036993351999 -0.0011824668473966158 -0.0007840557833139243 -0.001439039939503293 -0.007064401979171836 0.011806374128617894 0.40356822346372534 -0.8624951961963034
14357950000.0 0.6704259924797287 -0.6738272343830108 0.01594201831059903 0.029257745882233448 -0.00020329469615497936 -0.0012829203422454161 0.000205966426634923 -0.0007120986878052806
 0.016551057334509844 0.029209236563918835 0.6852793853136712 -0.6659477279691812 0.0005961091217757893 -0.0007068688228197177 -0.0005466887816302699 -0.0017297583844024637
 -0.0006504156794376107 -0.0009976709307457333 0.00163544230701764 0.002415072386357102 0.3580808676994816 -0.8600580204223784 -0.00773681831622301 0.008697663505922678
 0.0005724425303865524 -0.001453788807750239 -0.0003564522870649154 -0.001566652287350372 0.001341342385581388 0.017720065158493645 0.3813050493703647 -0.8578693495388389
14427940000.0 0.664879375017843 -0.6835693770545755 0.01658340203563709 0.029196753344479114 -0.0007315647260224081 0.00011786007440135976 0.0007785009726239035 -0.0012319532336880783
 0.016215465682799586 0.028888531077036376 0.6778072144977614 -0.6724115685918259 0.0019641228968746626 -0.00212841611472722 0.0002929553631580006 -0.0021045912814030496
 -0.0016294217065476967 0.00010814894714515017 1.918068034994527e-05 0.0003749077078793309 0.33085129968889404 -0.8700946718384559 -0.01999350026908872 0.010393237204534745
 -0.001337527768437588 -0.0013500237829563923 0.0010870972998165453 0.001280910918029903 -0.014377487105550276 0.007317131844299194 0.39568575803518025 -0.8470315696545212
14497930000.0 0.6763899017809378 -0.6894186387591039 0.01599679605314893 0.029285060494505938 -0.00027137969427581255 -0.0018105540614109545 -0.0005303539335787798 -0.0007282121015516606
 0.016642355934319685 0.028926310266947555 0.6812286643588578 -0.6805059173629966 -1.3097660313846397e-05 -0.0003607708855300394 9.34366702552227e-05 5.723128785782983e-07
 -0.0009181399898431154 -0.0006468153425004577 -0.0008091684388514872 -0.0023525297699204476 0.3451925289235452 -0.8741493658250494 -0.01653518674411789 0.0175313816439446
 -0.0015600533290910372 -0.0018112532636757753 -0.0012723227355180516 -0.0003810519927257646 -0.008067641619380703 0.008721813015074062 0.39421067975316154 -0.8663042464365788
14567920000.0 0.6568198704052252 -0.680018163618472 0.016408149918750527 0.02845198832490014 0.0008076313492607401 -0.0005932748398890372 -0.00024232355538687567 -0.0009543746940300328
 0.01628597238290815 0.028422473003166863 0.6677627788586468 -0.6888272608545093 -0.0006296824458494302 -0.0007208198661928162 -0.00027514107616079275 -0.001411164608057109
 -7.644458486470542e-05 0.0004559548715926357 -0.0025477183357075365 -0.002902049327879769 0.34909820593183655 -0.8770240476214166 -0.01335431692515493 0.011945087247544561
 -0.0018333319148058436 0.00016660430724374238 -0.0007084449049149089 -0.000530221739487293 -0.0002116542408669082 0.01412445649713841 0.38835845386768636 -0.8582531936475086
14637910000.0 0.6715292847811473 -0.6869672102008735 0.01611818900444243 0.029018757649869595 -0.00025032334899114354 -0.00181199216221707 -0.0006444366070708167 -0.0005924569994680899
 0.01607680612593055 0.028859506141014738 0.672028079088257 -0.6788765261533671 -0.00104953574987265 -0.0015693118953178304 3.189224825418912e-05 -0.0017404141149749937
 -0.001760934742390159 -0.0005344086585247868 -0.00039834950761328896 0.00037854845760226097 0.3209827090795336 -0.8846911852721544 -0.017346669662629002 0.0045230924717304735
 -0.0016003374235720792 -0.0004117275685284911 -0.0018059628321966735 0.0010941737489071931 -0.01152822715310847 0.000347728177149671 0.3664064335408982 -0.8449955051295939
14707900000.0 0.647522301760958 -0.6844857593328328 0.016085606050280938 0.028801547675215675 0.00013669506298683587 -0.0013041266962168488 -0.0003897605725887793 -0.000877699562510408
 0.016299953284833947 0.02814899516521635 0.6660053377667687 -0.690253122428344 -0.00037139793004524626 0.00015638681999517674 -0.001354100387277143 -0.0009177223443424504
 -0.0014508332085704523 -0.00019947469191837437 0.0007927966063694014 -0.0022710880366413368 0.3283945335248298 -0.881117081196683 -0.02160023393171374 0.013594181297931884
 0.0007789969691128248 -0.0007019663859617444 -0.0008686807574780279 -0.00175666927374334 -0.017220535157477207 0.00805412048676862 0.3758739262957958 -0.8692459778680937
14777890000.0 0.6592210806836767 -0.6930969016756022 0.01563083066706098 0.028545541409097184 -0.000735910842715251 -0.000844223782689167 0.00010470152522732398 -0.0008740386424621664
 0.015932165923302433 0.028685438893038685 0.6779375919645562 -0.6759861898844175 -0.0012342685986276595 -0.0006963121144299044 -6.705929376019801e-05 -0.00189373575681502
 -0.001880367748985929 -0.0029009740859091875 -0.0006977790317390328 0.00026934426944795475 0.31597660817853696 -0.8773974025046821 -0.01720140372896195 0.008894851679104799
 -0.002078728280164668 -0.0009666250801918406 -0.0003725566786922849 -0.0006744567332620186 -0.023934334316275188 0.0054399877926318 0.3585814603661907 -0.8486919397985452
14847880000.0 0.6543846825043466 -0.6927772003593053 0.015595341877758757 0.028195779595285755 0.00016806440492815348 -0.0010793900223422124 -0.0012166813930853434 -0.0009320044044287665
 0.015254582775341955 0.02823737504263274 0.6659906753101503 -0.6896248687349992 -0.0017621786599607092 0.00031058962479419203 -0.0006650699210504104 -0.002156512247743426
 -0.003666374293752438 -0.00016059026014156766 -0.00037910151349328675 -0.0016362440142134761 0.3247440795633428 -0.8717121093285918 -0.014153811482607205 0.008336932650519113
 -0.0010291218269466672 -0.001622669221692661 0.0019961870757200105 -0.001905608436082828 -0.014652650678457354 0.010341670906032248 0.3601268513359098 -0.8686640215733337
14917870000.0 0.652123304711892 -0.6928956808762485 0.015069452558555445 0.028052695633701417 -0.001030300797603432 -0.0011891643142497538 -0.0014551599598296395 -0.00033314514892075135
 0.0157848473062892 0.027737797714895245 0.6602479301989419 -0.6910307146674136 -0.0007860134532643421 -0.0013067663039872048 -0.0005816147080981693 -0.0013558322557533486
 0.0003321198156767107 -0.0022628830231478107 -0.0010457859028821992 2.9404705611300127e-06 0.3198347300898305 -0.8730917702880486 -0.017697535011479477 0.012536350755517584
 -0.002449342951346329 -0.0010811418537011038 0.0020173518514916503 -0.0021665132313745954 -0.009074132671712403 0.0008111697532766823 0.3519986400732079 -0.8691990439861064
14987860000.0 0.6420777839329888 -0.7016632091610395 0.01569141410924252 0.02785687894787399 -0.0015355537475348535 -0.0012271421709415717 -0.0002524097235283915 -0.0012067861340790155
 0.015618769808228987 0.02809064233469762 0.6535778613502463 -0.7071756936150411 -0.0009429001017140274 -0.0009832265237322952 -0.000557222441663432 -0.0016700978910494208
 -0.0007801599406211747 -0.0014836004144652855 -1.629216974229877e-05 -0.002705606454877714 0.31601056963667584 -0.878271562493599 -0.01551698642132056 0.011145774491483995
 0.0004989672692521434 0.0007883718094259212 -0.0005262049605733752 -0.00022540129271731137 -0.011486732185630046 0.005655111718500892 0.36001894061734047 -0.8811899271351841
15057850000.0 0.6499214570641291 -0.6945153826866447 0.015021959090517237 0.028001294009171424 5.5604108043219816e-05 0.0003409542824416615 -0.0003574951371944778 -0.0021760810140778286
 0.015096076239688271 0.027804659395104958 0.6544446691973304 -0.6819602327268723 -0.0003682665693029079 -0.0006155528802806127 6.019750592192755e-06 -0.0019599114562691756
 0.0012737370676462907 -0.000931341485914454 -0.0012375590875420477 0.00019574220246560672 0.31479292829475963 -0.8720765518073736 -0.021047677702190695 0.015335629886675094
 0.001891599327838565 -0.0006673261100836273 0.003045387198616962 -0.0025357239061539636 -0.007013171719654682 0.008974287153021277 0.3334361703481211 -0.8736098494259622
15127840000.0 0.6359615310129502 -0.6933392167766272 0.01483383784090288 0.027769911721490376 -0.0006704838735027759 -0.0014949497239627252 -0.0006405697394088606 -0.0011136250711060258
 0.01533086703900311 0.02738671277749107 0.658541673564931 -0.6983835832877847 -0.0006308317038915149 -0.0014829502221364178 -0.000379824071653961 0.00021675063310086853
 -0.0010571063246236953 0.0006893240278749991 -0.0002010425455988399 -0.001463808056039772 0.28783064656809215 -0.8993994751496122 -0.006802367929320981 0.007557181851433385
 -0.00021761067347568128 -0.0009162141022016596 0.0005029294306670403 0.0013534498412300748 -0.008178262053594197 0.0076390918576152 0.3388739310503333 -0.8571323333356228
15197830000.0 0.639633714271031 -0.7129174668268985 0.01508221452489519 0.027427653765242404 9.735189702289803e-05 -0.0004416342674080718 3.4927438876238234e-05 -0.0013787457626057566
 0.015167439716254684 0.02765670991381655 0.6495096615178999 -0.7067344325528147 0.0005252852619917211 -0.0010543051956888054 -0.000675206072028129 -0.0011838438747138634
 0.00011017365921155807 -0.00017753669654578235 -0.00016491406024622693 0.0003883303784007775 0.3104109595145492 -0.8839466570778071 -0.020928582516968827 0.007677997693042903
 -0.00023324023593991578 -0.0019211182637183773 0.0010061820388482874 -0.0018343374194502702 -0.02068031801070196 0.006513218113537708 0.34271323626389855 -0.8825462187871009
15267820000.0 0.6334951700370128 -0.705173589225887 0.015146076337014551 0.027648009101118576 -0.0008196879651356468 -0.0014454894191445443 -0.0021521262375911046 -0.0010162256882769415
 0.014739516168487577 0.027006802282289348 0.6414749727943413 -0.7042929013679542 -0.0002888605733973463 -0.0015742334003911002 -0.00020525063860473713 -0.001201773490884233
 -1.0635903275562919e-05 -0.0007442908196388335 -0.0022197149772945723 3.327355019197472e-05 0.291372122552596 -0.88614766650828 -0.02049662979046928 0.009599970702923311
 -0.0007648451395631734 -8.819800415805615e-05 -0.0005467587558165213 0.0001888556820424299 -0.02252282709012974 0.015463599015092895 0.3425136537098326 -0.8749959353330894
15337810000.0 0.6444062585574125 -0.7131505126726486 0.015146725853472204 0.02700112938673209 -0.0004551807257260737 -0.0012714662469631276 -0.0005694287654160607 -0.000326336694490674
 0.01479471679049568 0.02748113704799877 0.6427457896218293 -0.7158600926750629 -0.00043219665799745403 -0.0008198622314975076 -0.00017111543135232187 -0.0003391715531238061
 0.0009766754606087924 0.0006698163227186379 -0.0018723279100105567 -0.00035950304161774983 0.2863155113038899 -0.8795110861480616 -0.0142804226614446 0.008922843968365651
 0.0013039975032652976 -0.000270818993851422 0.0011954758528053 0.0026861273586991 -0.02287181067836165 -0.004496184414916992 0.3429402383669081 -0.8865709859610145
15407800000.0 0.6351860335383326 -0.706096591384912 0.014801980390182946 0.026737564240030445 -0.0014398369852209368 -0.0006427045202745198 -0.000468795300738518 -0.00094049631857449
 0.014699685080897496 0.027395574431847872 0.6373302112267298 -0.703707641602619 -0.00028622374507631125 -0.001414376484322583 -0.0012575100627223222 -0.0014579245325184375
 0.0020238716985566175 -0.0018113853509780632 -0.0014482790146287067 -0.0018475235037613653 0.26815698104994934 -0.8837824197683687 -0.023209929335677917 0.0056878494500294035
 -8.398426665011047e-05 -0.0013659511476168118 -0.0007561062579948215 0.0007219451303159977 -0.018848296382763655 0.0032636618681263696 0.30415479583846167 -0.8813817890212168
15477790000.0 0.6261507159594919 -0.715208419902002 0.014438863973668403 0.027374507949079523 -0.0010254685293333554 0.0002823012765345867 -0.0007117627862465099 -0.0012186707075450707
 0.014697515184515732 0.02653647831152442 0.6409379468396934 -0.7093726850540543 -0.0009632945552610544 -0.0014563234843349363 -0.0003104330722956642 -0.0017116839017945677
 0.00011430530805869044 -0.0008237222812179365 -0.0006070923005999639 -0.0022608057463049435 0.2669979485015709 -0.8953882109477842 -0.02339175089290264 -0.004141016083632694
 -0.0011088583916551778 0.0005110546221098149 -0.0006729348036179545 -0.0030192738085837445 -0.01470622164683822 0.0008119326114457507 0.3080751245387034 -0.8750992342035955
15547780000.0 0.6394507484959733 -0.7132575593719899 0.014416863225552806 0.026268566267641444 -0.0009265708330251224 -0.0011513226158792094 -2.161860909019668e-05 -0.0008668250947409604
 0.014145747138489467 0.02706432391106626 0.6208147082320078 -0.7128240268189654 0.0002530206966351469 -0.0005944659037627377 -0.00031645372012899 0.00040515159545708265
 -0.0009263322942475942 -0.0023976554554746596 -0.0016541418715620689 -0.0022613319188734275 0.2772918859356747 -0.8875209072845952 -0.016531902213758224 0.001913946713304641
 -0.00127364833120829 -0.0022689093861074923 0.0018254735052576738 -0.0006437382479681691 -0.012795124026104453 0.013929174991301953 0.30554529734159974 -0.9081653457551837
15617770000.0 0.623444039031327 -0.7125409777406204 0.014285018059965992 0.026504031896371474 -0.001355782717867014 -0.0008142757787114324 -0.0006287176523714641 -0.0005939545271306842
 0.01427129845324497 0.02620169519725291 0.6328839225533635 -0.7078670108807257 -0.0008051038647532788 -0.0005891390670018896 -0.0006089817806383345 -0.0002609117967853317
 -0.00038383962455976477 -0.002134423771258094 2.6425295572320066e-05 -0.002765672025307738 0.25023291590922575 -0.892107224789995 -0.028921251377820912 0.005893505096358659
 0.0011589850629398714 -0.0007778408832983412 0.0010354326024353373 -0.0026484512162145714 -0.018081033991676723 -7.987219144739148e-05 0.29627225273038793 -0.8828817043719489
15687760000.0 0.6244661404800081 -0.7251400718035215 0.013430915887810495 0.026269619507536354 -0.0005062782967059445 -0.0015492900335081579 -0.0006368504467915832 -2.5670961214300188e-05
 0.014059178412700461 0.02643669346556635 0.629515961662311 -0.7145591668764023 -0.00029156454955199355 -0.0007796837616189896 9.43432653104436e-05 -0.001587561259849498
 -0.0004132949256609972 2.8538711901492468e-05 -0.0024177152714687554 -0.0006966127245421507 0.2585491848739533 -0.8866843298918096 -0.02171286715483268 0.004780836325799873
 -0.0008868653376952297 -0.0002800888102484317 -0.001047183584746923 -0.002625491997359517 -0.03235126819438363 0.012714226529550522 0.3062481857754455 -0.8864735411685296
15757750000.0 0.6098056450214282 -0.7161919394623313 0.013431750930957817 0.026240703262748587 -0.0001745196117071521 -0.0010740137566341036 -0.00018693335023202922 -0.00036294730274974885
 0.01403614846570007 0.025905038750747428 0.6271619571937288 -0.7130610509554537 -0.0001309992795388122 -0.001272200965903424 -0.0005375843881994474 -0.0013960982085306243
 -0.00031463546332184184 -0.0027315610697589434 -0.0014386711793650804 -0.0005410418026106024 0.24210523721555463 -0.9045935083249309 -0.014752753888307811 0.014382440556161188
 -0.0021911966687280615 -0.0011821130041181503 0.0012060953099011066 0.0008405559518115691 -0.012182032999532029 0.013077947265805577 0.28992821346331304 -0.8820229728868098
15827740000.0 0.6243773415472151 -0.7186137139278664 0.013571170079547917 0.02594496977997225 -0.0006783704435485658 -0.0014145059433230802 -0.001447984665909509 -0.0006689309792214758
 0.013453930402209102 0.02621751580784923 0.6243571794072812 -0.7233908611854271 -0.0009953373699176321 -0.0007317151501117111 -0.0007969479661549112 -0.0013534460779683543
 -0.0029933150024054286 -0.0009506913356261314 -0.0036015456507784383 2.5722270476923755e-05 0.24173547082673694 -0.8852347835206743 -0.018580316560046443 0.01644136630863498
 -0.002592645327783659 0.0012056335902608313 -0.0030665542312428916 0.001694812638360569 -0.02544053293532434 0.008538508502183018 0.2768608895713781 -0.8864191546389538
15897730000.0 0.6103746547223217 -0.7264920292388409 0.01324145184478682 0.0253731013093988 -0.0008645841050228645 -0.00035884043413129897 0.00011828236447529167 -0.000994829807940717
 0.013565628811085258 0.02581139930597798 0.6145588058263188 -0.722304122543511 -0.0004464708497984421 -0.001368939915820979 -0.0008427350226509941 -0.0001875583519275047
 -0.0010744342108345419 -0.0003612301126460395 -0.0002352604776312764 -0.0014229443563193763 0.2392485830698401 -0.8973008973426402 -0.024080574438737932 0.019424329537309236
 0.000792456771106097 -0.0021272908932263093 -0.0010055217901805433 3.388894270017113e-05 -0.022101606049712137 0.011978175810246296 0.2859144148242578 -0.8981180007186779
15967720000.0 0.6168273288421899 -0.724328485388116 0.01305117184991691 0.02619970574675863 -0.0005257601474887171 0.0004344398944539584 -0.0015203916646130868 0.00038369911846132705
 0.013049066778976298 0.026185848624441562 0.6268259055084662 -0.7341868349828243 -0.0010184502415246195 -0.0008000520331014136 -0.0012966790227742124 -0.0010961900037025872
 0.00011562295369801437 -0.0004692658552902845 0.0017037515568737898 0.0004255169643219029 0.23850281598227413 -0.8974278161434462 -0.02535825538172233 0.011450970112138581
 -0.001710786084057021 0.001152350437252583 0.0007588394751730608 -0.0027699538014020536 -0.020872269585996375 0.02089464897473009 0.2781819484546665 -0.8918678565156386
16037710000.0 0.6076055533940826 -0.7294409009441578 0.01254626264298561 0.025586186535535786 -0.000899642505190111 0.00017999165778848617 -0.0011053932640991107 -0.0009535103750510924
 0.012719997711757337 0.025391108602703626 0.6173461032781805 -0.7301987327084867 -0.0013334407773530495 -0.0004052141754669229 -0.0018542403523642925 -0.00036153289531582145
 -0.001048684555693623 -0.0013641268487438304 -0.002431372117973182 0.000657414146866941 0.22629722469315047 -0.8863992106284685 -0.02357961421916843 0.008063911822067045
 -0.0006535171488730511 -0.001343197509559973 0.00048149853009238846 -0.0012396533179026956 -0.021564298997761154 -0.0021778740543037436 0.2697688745897416 -0.8829871149922625
16107700000.0 0.6182421903244436 -0.7361202330980046 0.012942821615071213 0.02517596538611534 9.475830053657741e-05 -0.0007186267536187556 -0.0012970143818425294 -0.0019387449730577332
 0.012923091898363265 0.02575318837952714 0.6107451324689087 -0.7347673320397832 -0.00014957053934673925 -0.0010677869210067976 -0.0012249996041269883 -0.00126527199024099
 0.0005315447392559607 -0.0005779529711283707 -0.0006816713786005139 -0.001720310428733935 0.21353384563073247 -0.8714062001055144 -0.03245197225234883 0.009098191200391962
 0.001944282729366084 -0.0025101526768264598 -0.0015285676956451738 -0.0004116379401477488 -0.03060858855853601 0.01148331193513885 0.2690927838187238 -0.9003070447679965
16177690000.0 0.5987110541781513 -0.7212754274347367 0.01210245690749767 0.025465790866095465 -0.001031723646286931 -0.0010515880706995974 0.00012161880248756841 -0.0002029602831385698
 0.012263691783112395 0.024906167877956385 0.6113090022447282 -0.731796858269263 -0.00024049615015904566 -0.001418123236254352 -0.0001817502349868785 -0.00011190621335171868
 -0.0005058144156255724 -0.0004415206169306126 -0.0004885865115756481 -0.0004780635124972359 0.19950410286809883 -0.9033416356576787 -0.031118148884504024 0.022512294264381134
 4.805239073969958e-05 -0.0018626511732283111 0.0008166669358499692 0.0015170537977463579 -0.03175711910537591 0.01687653155100104 0.25010845322162356 -0.8884931141072707
16247680000.0 0.585817253099626 -0.7337683636242672 0.012801031043832943 0.02492042510850955 -0.0022314798148567678 -0.0006940075727867403 0.0006486728276880803 0.0005437513224099933
 0.012203086502032844 0.024966816781054578 0.6056823752451479 -0.7436803264155396 -0.00115231196558618 -3.980267155055006e-05 -0.0002916151764526162 -9.328279079651369e-05
 -0.00029421991073267176 -0.0003683492633278533 -0.0003430245863928432 -0.003180772574701071 0.19952868884055688 -0.9139592895164426 -0.02627538734929362 0.012899656723129134
 -0.0012307363911421058 -0.00227267127551751 -0.0019059849185135659 -0.001119084482993263 -0.02793834511150746 0.012141271006751126 0.27102380996610603 -0.9052680017076116
16317670000.0 0.589291079624005 -0.7418521923707985 0.01160217241454349 0.024584598070359075 -0.0005899875594839966 -0.0019000236202674884 -0.0013238148287953613 -0.0008549597507003509
 0.011901683569498436 0.024474230204468785 0.6031609178158074 -0.7340824984899014 -0.0019032861331833297 -0.0006105946752908603 -0.00039377105766314293 -0.0014267072208309364
 -0.0029021962073834447 -0.0010334598295917406 -0.004179952053941068 -0.002002625703302919 0.2138416287185848 -0.9043923603625431 -0.028740615493346184 0.01125117397393645
 0.0030927500516031077 -0.0005126433991232614 -0.001966891329188594 -9.5640594778695e-06 -0.03381646889531534 0.007606297431334493 0.2477818589992326 -0.8945418946294343
16387660000.0 0.5966397219471987 -0.7328775104057422 0.011734550702365691 0.024123188679238152 -0.0014769095498193096 -0.001410147800319537 -0.00028657269386343055 1.8801552340905735e-05
 0.011578410033823261 0.02431438235991092 0.5957319559487124 -0.7443487213425495 -0.0018202345961022708 -0.0007768276994179281 -0.0015074586180669305 -0.0015080112317855494
 4.916730142130677e-05 -0.0008863409763856564 0.0009151285831092372 -0.0014412356068453508 0.19438580514041748 -0.8946744564290194 -0.03687524809692659 0.012226174270630847
 -0.0010914457549012324 -0.0003486669325650158 0.0014384494984538126 0.0017288974424170532 -0.03746225448791597 0.005260509336165349 0.2468506894194764 -0.9012383275550347
16457650000.0 0.5873476883174603 -0.7447504499953105 0.011473515947905518 0.024254341114855603 -4.4467425913701734e-05 -0.0018520207692518365 -0.00015711057787281833 -0.001203629588523755
 0.011483005652716297 0.024434003452942353 0.5952449728799398 -0.7418142158650879 9.251581936887936e-05 -0.0009166056038952473 -0.0014085248762317655 -0.0009674769285900915
 -0.001881326211289474 -0.001603649625566701 -0.001625856355063626 -0.0008735895045253124 0.18334182723724565 -0.9017072736741366 -0.03882996037118076 0.009415408304411281
 -0.0036114527623892913 -0.0006745537895790256 -0.000429825908058472 0.004156068868590689 -0.035424116385877225 0.0038496667825663115 0.23318127395059052 -0.9186601685657856
16527640000.0 0.5866929676540857 -0.7397498133166759 0.011244729585307789 0.024635487508666808 -0.000769929312331822 1.9562928431034998e-05 -0.0016725634931095215 -0.0016407110970084997
 0.01143233352719118 0.02368292787792753 0.5981437467942531 -0.7560879744497814 -0.0007722452932863418 -0.001601258737158224 -0.0005835718509842809 -0.00025731894082197467
 -0.00100096855437922 -0.0002253760828706371 -0.0020926521911261123 0.003323191049840075 0.1898393496292675 -0.8877368773332985 -0.029411519239920848 0.014033679315138974
 -0.002384950847352847 -0.00028073282533412234 0.0024187336596282914 -0.0022841277207316956 -0.03580560865930335 0.0038108412588807768 0.24554396618547666 -0.8895113100073183
16597630000.0 0.5828344473095853 -0.7513794137401895 0.010528173203485048 0.024441435862904926 -0.0011877643210955816 0.00016546464513943017 -0.0009925601341129837 -0.00038722053020937594
 0.01106500425889813 0.02397017410646435 0.5947455571840057 -0.7448241068111182 -0.0010845230423202647 -0.0013042148227349446 8.98250760031339e-05 -0.00042528477985540665
 -0.0017824048728580463 -0.00039197518239907797 -0.0004856729381667999 0.0009566638653676383 0.19044780451905385 -0.9080122634545108 -0.04331993764167249 0.012300373217174239
 -0.00047026093254518535 -0.0006454020178294667 -0.0017986281547593401 -0.0018958423016274522 -0.031417581340762904 0.012554179606705828 0.21611436633344736 -0.9023677390929306
16667620000.0 0.5795972634321102 -0.74656150904234 0.010505206673103973 0.02332431392502635 -0.001491937343949428 -0.0009159769226611316 -0.0015501095571705187 -0.0012585094659356864
 0.010946573134094644 0.023752246767107545 0.5788858541792745 -0.7440171345642769 -0.0017453139033897325 -0.0007173111123436823 -0.000355482894129674 -0.00047946184075621414
 -0.0010324495981021205 -0.002811111024992726 -0.002565012229790505 0.0023155448711636483 0.16794270064853445 -0.898914870029821 -0.04255393765858476 0.008514392855560134
 -0.0032655454149008076 -0.0003348866366269445 -0.0020414447214960716 -0.0015800570716495174 -0.03864604891767272 0.013924177860817738 0.22032848518305473 -0.9006247059792862
16737610000.0 0.5760137745204346 -0.7455861238754905 0.010311366501899512 0.023220597820014528 -0.0006083507490324553 -0.0004467440204387362 -0.0008634223578858754 -0.0009526631594993314
 0.0105846489436751 0.02305691806292878 0.5842943534947189 -0.7442374621503961 -0.002426375392358193 -0.00024406221407428884 -0.001189835821758596 -0.0014292211231141003
 -0.0008364371216180108 0.0005623358190362036 -0.0019375500384091384 -0.007158273095813741 0.1626901807773269 -0.9062794396740321 -0.03397903168381162 0.0055004809947744905
 -0.0023883474012255674 -0.0009706328907838354 0.0007046593589263102 -0.0007391053675257187 -0.03472281898999836 0.004252661116075741 0.21164510576741288 -0.9100043461041916
16807600000.0 0.5786032600696132 -0.7527805913444322 0.009946061392924905 0.02329602724357461 -0.0018300626705532778 -0.0011627869847270975 0.0004216673636922491 -0.0013022675238769398
 0.010318230855310835 0.023373786448541316 0.5882513126786395 -0.7588953669543721 -0.0012326762639832485 -0.0005414149963402957 -0.0015848946578993547 -0.0002450629212625035
 -0.0008233341740176734 -0.0012375907978946128 0.00031492314095138017 -0.0016419417314401618 0.16073665990779523 -0.9037042013725013 -0.03668035520151205 0.011780092837429064
 0.0010605662946051636 -0.0010039766036370515 0.0019693888076295226 -0.0037074634421813664 -0.03075001419224031 0.015591938225617875 0.22387086143759843 -0.8887648544100156
16877590000.0 0.5609946849340992 -0.7607406503817349 0.009531599062491375 0.022986767241573475 -0.00047918119851522067 -0.0005911000700063852 -0.0008964772639374065 -0.0002974434389760569
 0.010336768121789455 0.022710879142507173 0.57154333806014 -0.7533973935084628 -0.001084434101952181 -0.00023170066845842148 -0.0023883695645966034 0.0003171238410546795
 -0.0012884804190669839 0.0002530210187284762 -0.00046577993403404226 -0.0005320430168269355 0.1674692016480002 -0.9165739934192491 -0.04066245541018451 0.008099922731142992
 0.0011533011418396848 0.0015345685989788342 -0.0010464363989751476 0.0011783189774447057 -0.040645434586490344 0.013027523045627942 0.21703517099446268 -0.9179487708098293
16947580000.0 0.5698971803879913 -0.7489904128387816 0.009671693625042208 0.023005284960022254 -0.003096184131071328 0.0011793342375046069 8.398111136345231e-05 -0.0011932461414190848
 0.0097062588670906 0.02289682839017802 0.5810592457095652 -0.7648232628650743 -0.002313756475314606 -0.00026433514697024433 -0.0020795571991640356 -0.0019124116409748127
 -0.0027040013128775634 -0.0009470178620088319 0.002704410431011402 -0.001356799142466597 0.14467478099403297 -0.9066411087272529 -0.03409614647153662 0.015609786813541096
 -0.002096372788382724 0.0014131590572695816 0.0019019296313857006 -0.003929503859839821 -0.03295213389796113 0.011212238259321893 0.2053253275167437 -0.8949784763685108
17017570000.0 0.5597904472517372 -0.7589140670122794 0.008941801244188866 0.022455755043430975 -0.0010985564128192739 -0.0010407070103255953 -0.0012393574670860263 -0.0012712679478952672
 0.009375057529227331 0.02265352899225047 0.5749564909591411 -0.7496792690108017 -0.0017703493626221461 -0.0011152239477750044 -0.0011708056464830275 -0.0010143732473877432
 -0.00029568057779362706 0.0014524211439627334 0.002816983469743448 -0.0003224784180752577 0.16534385225750134 -0.8982985537111553 -0.03922947926739364 0.01385568219317697
 -0.0007068434008978177 -0.001131185901081584 -0.003659324829463765 -0.002643530608187606 -0.027867069011159352 0.0067576126047395255 0.195662317699591 -0.9132158387979699
17087560000.0 0.5610234404713763 -0.7693709669062325 0.00894588930631368 0.02245274887968279 -0.00012117643059287546 0.00021647799322850462 -0.0009615678499989376 -0.0008387256656141153
 0.00964849620580086 0.022527404223678743 0.5670429833560156 -0.7594209810994142 -0.0007110952695506651 -0.0013956150897100172 4.786186263514847e-05 0.00010026615292660932
 -0.001933267943649943 -0.0005292413229763568 -0.001604704808896693 -0.0030424736073898953 0.16284854961597667 -0.9059768823878949 -0.047967918314144556 0.011375738463507647
 0.0006545649061884013 0.0017485276872691298 0.0002546512715512606 0.00038223670841519157 -0.03889697839058804 0.010223879835265817 0.20174137968488393 -0.9100957811564218
17157550000.0 0.5633432780080461 -0.7683659994078047 0.00846189385987148 0.022202031848728654 -0.0017291128525747648 0.0012637590723083702 -0.0005314325572892451 -0.0010120968045935828
 0.008919184457806343 0.022634466308531456 0.5709457504855796 -0.7701455407101484 -0.00026428515894603706 -0.0015144136496613252 -0.0025283096219931465 -0.0007215439510408491
 -0.0012192881135818215 -0.0015174699707246899 0.0024521960024553005 0.0006569419212926252 0.14137623441041072 -0.9109443428308073 -0.03035530321518775 0.012568985352590774
 -0.0025297454704681257 -0.0008844670737215139 -0.0008557271401657387 0.001503985959252137 -0.049539510709342746 0.00671737517836097 0.18347780071251982 -0.8782334259857553
17227540000.0 0.5591475499636037 -0.7622297437181162 0.00850816569719329 0.022130511602252136 -0.0017509236997967311 -0.0007707276364955227 -0.0014207240837764779 -5.500584491422466e-05
 0.008356839932058633 0.02221243381409032 0.5614044875024894 -0.7603102659689682 -3.7241629869581654e-05 -0.0003128294385443803 -0.0034582614943082213 -0.0012155670545625366
 -0.0009050202149728843 0.001605726172257709 0.0010699963508576018 -0.002239105713860682 0.1313478983780096 -0.9131010082049595 -0.04874939299756235 0.006187008324705718
 -0.0020980739797356374 0.000433947981647367 -0.0021975838799872583 -0.0007561397025068257 -0.03712326336604216 0.005925650694243518 0.1979074071545061 -0.9126346818804952
17297530000.0 0.5502492600576007 -0.7683471217077592 0.007842362826031467 0.021928384193576733 -0.0023955919265653013 -0.0010805440544734912 -0.0010666977464292165 -0.001158120996365894
 0.007986091321392145 0.021689111746120364 0.5749748292397618 -0.7577498651902269 3.644281548192015e-05 -0.00015041345992631604 -0.0006462450542295199 -0.0004093921560560385
 -0.00042464381974842007 -0.0006216744632180597 -0.0030426333903860792 -0.00201570845963104 0.14332870314119983 -0.924553443769954 -0.034368246560082964 0.01802613747146051
 -0.00011948534150166207 0.0002819987377161971 -0.0034034129921874136 0.004485862880629672 -0.047688590499990205 0.009024042586026624 0.17957423674860842 -0.8936176072787873
17367520000.0 0.5367370391605895 -0.7599397032277292 0.008028337550102356 0.021758708748268102 -0.00047046873385353066 -2.987308570731279e-05 -0.002595212867441629 -0.0002742792029408446
 0.007642785541305908 0.021400004763745484 0.5479087701863846 -0.7583409575882004 -0.00016615316515611767 0.0007275983013477163 -0.002121429016160136 -0.0008714545454518213
 -0.0037376152028333605 0.0003671613398288543 -0.002347692683189806 -0.0018922258170218599 0.13823959686270135 -0.9227572094527275 -0.04732476526964394 -0.0011582452847775629
 -0.0012980011793179399 0.00030844715593547487 -0.0018686945175990144 -0.0012912884851419076 -0.04703755968374534 0.03105951046218151 0.1644959580948652 -0.9292842592299291
17437510000.0 0.5541283178805325 -0.7687674371295584 0.006990867133069533 0.021534871092647335 -0.0014365964202839622 -0.0004029380284923211 -0.0021186995756383065 5.571692490319093e-05
 0.0077187445608217775 0.021490829854131775 0.5594870266468016 -0.7619920884777175 -0.0006058858899323254 0.0013882443358939037 -0.0004203597692542672 -0.0002546782088147763
 0.0007178773170912736 -0.0023417763602591917 -0.0016494001460839384 0.000919270166412759 0.12499754423241032 -0.9119810908964204 -0.04121692533297495 0.01183542526426345
 0.001161182172343228 0.0004190506439931601 -0.005054010454326483 0.000729725738451396 -0.03937539324348683 0.023283667211607035 0.16537002203773496 -0.9224287132585157
17507500000.0 0.5479795789002526 -0.7904953931611307 0.006596031648476865 0.021221243207915574 -0.0018920852340277544 -0.0013266445323690164 -0.0009810792800090703 -0.0007951458406312817
 0.007126166393565451 0.021766403895919193 0.5502699607693519 -0.7692807478125293 -0.001542142773009988 0.0003552833502566054 -0.0004431991439736003 -2.3431084572588244e-05
 -0.0003465223586952032 -0.0016511063890315958 -1.7218273183853336e-05 -0.0021362343466270113 0.13260952132914913 -0.8975518799334261 -0.05328410969398111 -0.0018185436573926364
 -0.0007698006947197685 0.0008313789824659816 -0.00014562606854115617 -0.0007252293831905944 -0.04468832626455333 0.014565833092470162 0.1530388138867036 -0.9152687016157356
17577490000.0 0.5425737198114584 -0.7809901906761402 0.006820768384237412 0.02097195099582989 -0.0012381515892732997 -0.0015812319019095958 -0.0025422844014519933 -0.0005869139066299015
 0.007007035896808148 0.021371996094579567 0.5489447823292292 -0.7698610387165163 -0.001235989556160926 -0.00046541272979884447 -0.0011688444166475232 -0.0006947790729839487
 -0.002766188617689386 -0.00194109658760659 -0.002300809319086562 0.0016175218552994097 0.12630355659819367 -0.9026157546210065 -0.0563538274131261 0.002496036420012889
 -0.0009188400153243788 0.0007222070369610159 -0.00221123140760661 -0.0006679175463734759 -0.050303920978697826 0.015143879114255776 0.1698958077844053 -0.9090076919605653
17647480000.0 0.5336074433155763 -0.7758665596886813 0.006443387795675265 0.020544953333994163 -0.0011849283125431387 0.00029499432127820047 -0.0003199687488659091 0.000246825724772683
 0.006449996767961105 0.020543684902412044 0.5443636233464539 -0.7755580046820414 -0.0007619265245790477 0.00023457244102112145 -0.0029976126151959946 -0.000671770888841542
 -0.0026729970085589525 -0.0012846056452892277 -0.0022016327768828504 0.001271092782744152 0.11179280106558315 -0.9189763333719354 -0.04887285291724169 0.017481117215852743
 -0.004411245442829536 -0.0007131701491665944 0.003759116422352226 -0.0018128072813144846 -0.04755635861504144 0.007405974601695178 0.15721502789291072 -0.9043994220322312
17717470000.0 0.5363931193383429 -0.7961958439229826 0.00621970721066291 0.020957829433207887 -0.0019473335340536874 0.00030409124029544054 -0.002535486373909079 -0.0004191878428357999
 0.005936354823390283 0.020748033232861944 0.5424278561487643 -0.7735788133382895 -0.002087329175792233 -0.001789164910598236 -0.0023951703038418122 0.00031011766018293154
 0.00025201841205895576 0.0009988607427980497 -0.0017638275501123191 -0.0009156331234818233 0.11323030299489215 -0.9016490926286073 -0.03525888090562241 0.008830581919203393
 -7.019813487965774e-05 0.00018747210123790396 -1.4364542729735855e-05 0.006296582092072647 -0.05197648547139318 0.02300709103990332 0.15497022474728692 -0.9217885527746448
17787460000.0 0.5330864841811349 -0.7729075330801265 0.0056779858443406425 0.02062881602409536 -0.0009997434951914026 -0.0013228189940335863 -0.0004837589396603532 -0.0020702515644255544
 0.005817352127428669 0.020330083388881058 0.5390032922035608 -0.7823430148416529 -0.001959781681978004 3.5888101707800154e-05 -0.001741879817323777 -0.0009441542133049642
 -0.0009557695962376818 0.00035754155675130804 -0.002943766648725452 0.00035213289101460266 0.08942791352133893 -0.9098016447872422 -0.04095929376952115 0.01337585135611882
 -0.002439739197766921 -0.0029741960649756803 -0.0023768006507866395 0.0022336980332164796 -0.04826153900907092 0.014770784699997305 0.1242844628689942 -0.9129328063874826
17857450000.0 0.5251746526978733 -0.7737498809358576 0.005493166451537812 0.020600019981994913 -0.0018376239317675113 -0.0002096956962860342 -0.0025244800980080695 -0.001633978295690347
 0.005595935766417022 0.019614174449049424 0.5467154792330281 -0.791053293273846 -0.0014253796478260969 0.00029937702308925477 -0.0001609944402309204 -0.000574105813650807
 -0.0022409792372141413 7.87031483359424e-05 -0.0015458805477878048 0.0002552758007169129 0.06111519257411899 -0.9124746998833966 -0.05064238886192051 0.014379146576733622
 -0.0002823457751299508 -0.002275406517540629 -0.0005834337320249412 -0.0019489364365817472 -0.043592809510459046 0.010684834981221837 0.141624307693057 -0.9052797896363495
17927440000.0 0.5287252083620041 -0.7784066274322632 0.005017972347910069 0.020227385529241547 -0.0003192749314815635 -0.000505877309645758 -0.001664291081625951 -0.001044566502770127
 0.0047800576801272626 0.0200523638880831 0.5411470307266911 -0.791362180497201 -0.0007697407915308195 0.0007373120379639602 -0.001112143943386722 -0.0012783249761150512
 -0.0010981158102960644 -0.002511122025583318 -0.004242111860699754 -0.0006577598739854782 0.07934633882033447 -0.9032685234239318 -0.05686130368629571 0.016397551688294893
 -0.001674857762257317 0.002601801537565132 -0.0018430694080008728 -0.0013798107998179855 -0.04012529294258149 0.011709058278057845 0.12688644987504846 -0.9052570791424183
17997430000.0 0.5192891242831866 -0.7814470792967354 0.004354021091828349 0.020703158629509277 -0.0011836920669974333 -0.0008687864562337726 -0.0009814386163697459 0.00038922513586379324
 0.0044163814940491675 0.019925156781419463 0.5355787130120384 -0.791146386917322 0.00013499567839525236 0.0006758630130932721 -0.0018363249795757684 0.0014707633247600937
 -0.000873885143211 -0.0010180176644930695 0.0016536501731492198 -0.0034441669858149607 0.05867312645275472 -0.9097834127683331 -0.03897067445408285 0.013905196622871157
 -0.0031159729102572544 -0.001672661024469363 0.0019760543786902555 -0.0009550577862508508 -0.07037373882294679 0.007459792652659429 0.13880357426677933 -0.9263706163509762
18067420000.0 0.5274899492216164 -0.7854426198678247 0.004516185573342981 0.020063749383819204 -0.0031894269748006755 -0.00012870836300761133 -0.002523409225181986 0.00011567302597386222
 0.004187171392977172 0.020035452008625977 0.5259311278418163 -0.7841646184290797 -0.00018226758431872384 -0.0012862740265010624 -0.0011430971267194997 -0.0016561476982355483
 -0.001143350565249772 0.0020188258999393445 0.0002891481917400523 -0.00173956803513814 0.07609922902107558 -0.9008110802825796 -0.056089146129064946 0.0057538076611277755
 -0.0014345156050527873 -0.0030779414070790014 -0.0018403798709019559 -0.004326527567799233 -0.04348527470614983 0.01127261954505808 0.11086494358014991 -0.9210605503522017
18137410000.0 0.5209932215227486 -0.796675079661713 0.0038992698545316637 0.019484098888619163 -0.0016609058726209604 -0.00015233225417745353 -0.000295484305685834 -0.0005272883864113815
 0.0038919053388467625 0.019857496340116534 0.5179833097688694 -0.7846266212744923 -0.000863077007466038 0.00021969881339913477 -0.001612192999983445 6.603193021715953e-05
 -0.0005139679168155462 0.0006071470600771925 -0.004219384570224727 -0.0038443417446735917 0.061242927956011745 -0.9142239019980192 -0.06570351221825653 0.015387513753533831
 -0.0003585190691017856 0.0027393402378204997 0.0004002762564834014 0.0027799931529639815 -0.052530429536205014 0.03023415867298689 0.11771125886835956 -0.9025645065075961
18207400000.0 0.5191148576406168 -0.787080511229538 0.0033836938638294534 0.019422375040854867 -0.0009466447659674385 -6.345360384950312e-05 -0.0022733608219962414 -0.000803360718464973
 0.003359014218510182 0.019552277786096778 0.5111363816420113 -0.7931183792203305 -0.0009823349327520302 0.000332374003320454 -0.001067842465771351 -0.0032861689271730366
 -0.00016797617709571108 -0.001981387470628928 -0.0017715292168070235 0.0017660279983119488 0.04670150132928986 -0.9004390313708981 -0.06228853916442176 0.01807020697073891
 -0.0014085725171330422 -0.0003629600058654626 -0.00022966968861695447 -0.0018153243662714733 -0.06248304989737858 0.012707891104349393 0.12658228075796243 -0.9200839174588057
18277390000.0 0.5138239768477582 -0.7986545071219393 0.0027728730268791395 0.018859620913734155 -0.0007072960913495842 -0.0008257326259108641 -0.0016971728797868847 0.002381845032752563
 0.003027611587902897 0.019255026759387162 0.5163781071140414 -0.7865331777057466 -0.0014412349179154555 -0.00011824290457612674 -0.0002052534496435238 -0.0001276064834260956
 -0.0009596397157051758 0.0008148996543964792 -0.0002525182246602748 -0.0011865180694400849 0.06077327178182418 -0.8931797654994915 -0.04774652919591447 0.00018308440806470483
 0.0011773130978940298 0.0006423763643802163 -0.0015248244467089339 0.002630163954558263 -0.05679223628392888 0.007506185909722396 0.09125612614014067 -0.9135102353012721
18347380000.0 0.5077480303825275 -0.7876542334820149 0.0020315558263723846 0.019205394042575614 -0.0020916049720566456 -6.370334512834896e-05 -0.0009640197389188888 -0.001953403122645466
 0.0025619654568362175 0.018932528863254763 0.5325201327465742 -0.7867279878301118 -9.388607166191875e-06 -0.0007779100323043594 -0.0012457369516955333 0.0002579389065602408
 -0.0014037194490349803 -0.0011682446886311535 -0.005473274198889899 -0.00027012957686764716 0.04420396421911853 -0.9146384574985296 -0.05852509073843918 0.013371572965931942
 -0.004026982515288854 -0.0015425406396020046 -0.004613968485149801 9.014751248294359e-05 -0.04744388883915481 0.01756047720905805 0.08681784942423569 -0.8940546844275271
18417370000.0 0.5076096999082805 -0.7796737397566751 0.0024919533810100415 0.01920109421605854 -0.0005177512128106822 -0.0013145831467201584 -0.003199145272043896 -0.0003351711585191929
 0.0017059475608223146 0.01863862937076113 0.5099732960757922 -0.8147697404119784 -0.0008734023797458545 0.002271439083766937 -0.00192689880911696 -2.414476358142371e-05
 -0.002779995491112353 0.002502486687150485 0.0014141816296569087 -0.004727072542982491 0.03419477028395816 -0.8900421378398282 -0.052953192040518716 0.014235827235697477
 -0.0006539774785966006 -0.0012666838474125032 -0.002584863183249354 -0.0006747518856831039 -0.05860232042788643 0.005094163122937098 0.1137172293855153 -0.9120420205235703
18487360000.0 0.4962927676938677 -0.808529372785871 0.001696644774034876 0.018504361535280435 -0.0009086989326535012 -0.001951395869938563 -0.0015147556884148117 -0.00019885389786370225
 0.0020897428717654067 0.01899591908668038 0.5077070650054413 -0.7895034647619492 -0.0015878666559121298 -0.0009760332854528288 -0.0011293558145729092 0.0002489745706113312
 -0.0018385561942619365 -0.00036146356525604495 -0.0023068614343760693 -0.0012968700983124165 0.0512384644422955 -0.9057845326721998 -0.04896053808394809 0.020784834970101074
 -0.002759168382575878 -0.0021038338699580533 -0.00470649441369574 -0.0028406628482139104 -0.06152540621920336 0.022440246848143518 0.07768428892694079 -0.9310199654418189
18557350000.0 0.495460938603021 -0.796131583207323 0.0010352710611622638 0.01920979466036101 -0.0009411844206390364 0.00020859179729326157 -0.0010978883789817752 -0.0004321598731941194
 0.0013606456736459788 0.018310607100972914 0.5187501015155883 -0.7971163769335219 -0.002241250825197409 -0.0001761383668001543 -0.0016736389801718864 -0.0012193426681283877
 0.0005456755189878002 0.0013691710096116552 -0.0019830933756356224 -0.00010985487445068405 0.030410083280567452 -0.912973650456595 -0.05763637677992953 0.018412404466162456
 -4.440557328478478e-05 -0.00344581090653482 -0.0008677985263610713 -0.0024027818173805752 -0.057259019875725084 0.01633259622655976 0.09030764746351419 -0.8961054846152832
18627340000.0 0.4913242647549212 -0.8039862836939519 0.0005201003258442744 0.018134849908269406 -0.0006241549858997723 -0.0005263977087717876 -0.0008460589749898349 -0.0011051393992323644
 0.0009246606676117341 0.018635736480890768 0.5051758885520129 -0.7989696798795242 -0.00044114767771827996 0.00039493475356390095 -0.0011053391328498668 -0.0009065409472417103
 -0.0026595573051705146 -0.0018089672450336172 -0.005038241560894534 0.00102234984352944 0.04264799388475763 -0.9080061084840971 -0.05649595091386319 0.026198664220285613
 -0.001927611687961249 0.0019395109216142966 0.003036392811501802 0.0024229870633365796 -0.059343221565594954 0.022675452455171982 0.08538568858780562 -0.9239502604408985
18697330000.0 0.5004104990488475 -0.7914176056634187 4.531464517910153e-05 0.017564146653908205 -0.0008936507531648498 0.000655153518776796 -0.0012445644334165493 9.569846325170798e-05
 4.478151141087932e-05 0.018464209652332787 0.499265093861381 -0.7880288903425129 -0.002214595510854481 -0.00038294105350936543 -0.0023846313733453433 -0.00013435701115580443
 -0.003552574112474926 -0.0005245541543917318 -0.0019976182411109945 -0.0016019745060829006 0.03560640928023278 -0.9016145569505043 -0.05500715310772223 0.02594563963787418
 -0.002406806240891774 0.0024556653211241205 -0.000197519848115567 0.004245001772675814 -0.06346475347170276 0.017895802667092165 0.06647052034336601 -0.9334567145147514
18767320000.0 0.49328513497991233 -0.7999693758308146 -0.00040691705753564673 0.018312275144762264 -0.0014168202583641695 0.0005825743791842313 -0.0013439896459217571 0.0004138991846892485
 -0.0004306604858577939 0.018227277772932936 0.49330762103589754 -0.7993745704796583 -0.00024177221414186853 -0.0004790118839034969 -0.0008364694041534332 0.0011939677663980245
 -0.00048781604634108236 -0.0020827900195176476 -0.00017452242076421322 0.0008429221097893999 0.014181459688991767 -0.9031268916691448 -0.06722302733941074 0.032849335607636976
 0.0012288061896220993 -0.0014494246243808779 0.0009483705657838133 0.0019875601066359923 -0.04869748451989297 0.02148678014535643 0.05580956004957837 -0.9282246090757277
18837310000.0 0.49327089318370343 -0.8088535809993024 -0.0010286007744945156 0.018137052248001943 -0.0011294336529608622 9.012414766959508e-05 -0.000895878077915937 -0.00012124210776390102
 -0.00027348053334444455 0.017863070351321803 0.5032155189556632 -0.8079085185182617 -0.0009002720524129484 0.00024617510230674804 -0.0012738992080584806 -0.0005797976447065367
 -0.0017392753963449 -0.0007277116022412633 0.000965077250420244 -0.0022399049772106805 0.018850256303819233 -0.8968963513040994 -0.0668824409310535 0.01849749133913499
 -0.0006294933553368749 -0.0009731826481719065 -0.005536162646116594 -0.0003627234156502468 -0.05696985640033277 0.02472297573105254 0.07732538986148006 -0.9148534518605981
18907300000.0 0.49069794841020165 -0.8087976436520317 -0.000963897635287938 0.01712084943150175 -0.0017365333805000871 -0.0005476434983988837 -0.0012848954053671664 -0.0011190072604370142
 -0.0010661451667618956 0.017599937685255102 0.4954013071719821 -0.7987953540451587 -0.001131220191959437 0.0022820976712026723 -0.002127324256010698 -0.0004243207421277191
 0.000991825657824498 -0.00010586957963427292 0.002853377615120271 -0.002664343940059611 0.015277780573744296 -0.8905845484918945 -0.06198895167732043 0.02447523064731977
 0.00017184227348128833 0.002010468817514799 -0.001535260822521161 -0.001491277251473671 -0.06664033578534 0.002229084887441499 0.045221309520277066 -0.9151915136791772
18977290000.0 0.4831908825445693 -0.8031628708714738 -0.0012341365315043276 0.017129264262292783 -0.0028504870625958153 -0.000375501500533756 -0.001319002890614386 0.0007519707305381195
 -0.0016585856192205541 0.017495777170495493 0.4778376302269507 -0.8094337468484157 -0.001579880693220907 -0.00048256274987189414 -8.417201348088009e-05 -0.0008145268605985158
 -0.0027697535571266137 -0.0013249519383102103 -0.0014255971839291339 -0.002166710655742969 0.004288252156132735 -0.9053278033282193 -0.06289190924291922 0.028278203420291678
 0.00010293006270690532 0.0014378415937632172 0.00225150157613202 0.0021542055066218935 -0.0701702905459723 0.02427985292113149 0.04872647298264824 -0.9220370566598916
19047280000.0 0.4638510782549178 -0.8198075992077501 -0.0018062872225101836 0.01734568376752688 -0.0007224387949993614 -4.051708399073417e-05 -0.0017592596206295304 0.0005020114647862323
 -0.001487598841773852 0.017812349484795997 0.4835825760349215 -0.8101489699744798 -0.0006405894831423753 -0.00012054741903331489 -0.0021699672447837437 -0.0009886823622075646
 -0.002441387328304875 0.001882647771468386 0.00038354265806434727 0.0017442386715054324 0.003537219090482681 -0.9224703313697349 -0.05924098490548221 0.010715077802493434
 -0.0016155757703833042 0.0014922362983774981 -0.0034772404982443806 0.004281032922735958 -0.06589580992037669 0.0235677790396197 0.04152923493047929 -0.9141961922097388
19117270000.0 0.47435125966903546 -0.803068492470525 -0.0013940212599619273 0.017723634822450533 -0.000612990147932871 0.00035650529576267766 0.0005431208859454098 0.00040768709414707984
 -0.001982778782364504 0.017279008801528117 0.47286818004020603 -0.831245557626807 -0.0013073077526617903 -0.0013666291170708923 -0.001547471948090902 -0.0005872855724214894
 0.0011245495708920412 -0.0002804700923681448 -0.0013471654835810563 -0.002398138779250651 -0.014904581673887817 -0.9138615116515555 -0.06809230523279688 0.01740119544504697
 0.002197948934413757 -0.0003474431989868224 0.0009187551996133089 -0.0007934683315026833 -0.06063035787998972 0.020617351876121404 0.05212240311584878 -0.9183350666369425
19187260000.0 0.46693271468891306 -0.8176801668366049 -0.002935495472729834 0.01696591030645958 -0.0004165818977116518 0.0004511136141392517 -0.0012557422642824612 -0.0005364926578303513
 -0.002645385241842883 0.016996915819881057 0.47621301205563216 -0.8053342372871887 0.0005150903312313263 0.0007089542539077195 -0.0003811174123774008 0.001893423243026123
 0.0002528078410447442 0.0013004866481131085 -0.0024176529555375082 0.0013628278555701668 -0.01222451749826636 -0.906253438870713 -0.0742799222345239 0.027603944594734302
 -0.0017293695537769444 0.0005805324976585699 -0.003200160728889166 0.002367700505710485 -0.06909470122612064 0.01154091788624974 0.02664385574090777 -0.9241767447861525
19257250000.0 0.47143216294610213 -0.8171451078096514 -0.003497872808479622 0.016955405228862106 -0.0011014171831454044 1.5794992152008934e-05 -0.0017235070212006528 -0.0004988336803467807
 -0.0032495262465226933 0.01725788619704469 0.48140913865851626 -0.8082752136848955 -0.0016925958021572027 -0.0004885106726922465 -0.0018778567867022834 -6.264600379997258e-05
 0.0001651150379670151 -0.0012271478311127893 -0.0005204584675609408 0.0005074314896287612 -0.021412526171389328 -0.907713058980933 -0.06840751569317863 0.024975397285720624
 -0.00034036773210962244 6.801218414407431e-05 -0.0019713631344394707 -0.0019176560791132407 -0.07159819919326647 0.029103150578512718 0.02598960533418579 -0.892131852841037
19327240000.0 0.47174869354471155 -0.8027004756038782 -0.003997396210590475 0.016649585419409856 -0.00031324129467469493 0.00012575710798743767 -0.0029484576611799457 0.00018650353540282746
 -0.004107969122021879 0.016868839064280872 0.4669592830646033 -0.820407928817851 -0.0010239552696035996 -0.0023373221656712677 -0.0018972268446821312 0.000881081990520386
 -0.0031012811673633333 -3.6061410536960485e-05 -0.000165886995456547 -0.0015959731591469097 -0.038398739530026045 -0.8942127073494772 -0.07113580066458705 0.029521721062182996
 -0.00010039686726568977 -0.0009768123517679063 -0.0010506917846855748 0.0013809743181747774 -0.08607121810894643 0.01661178589688174 0.023343101431863255 -0.9041551893427912
19397230000.0 0.46986330340597277 -0.8165941689409203 -0.004034503098945776 0.016632175997630207 -0.002172471625041673 0.0009667424229775126 0.0001337114851307184 0.0008984987041178886
 -0.0040925575126396505 0.016566392499215578 0.47686214910629654 -0.8116976317700096 3.4793610725685746e-05 -0.0003157730225659308 -0.0009906437210031364 0.0008813853274830317
 -0.001835314346196097 -0.000295487784953644 0.0004371169567716888 0.0007821966613515836 -0.04014291498574342 -0.9041492344429999 -0.06238287061718922 0.017572986541904367
 -0.0041564421662743725 0.000562696969468468 -0.0044125755710768535 -0.0011041959676968784 -0.07320412184720824 0.012100880933001134 0.0065764417189011735 -0.8958099606411376
19467220000.0 0.45749515904972266 -0.8347840329177967 -0.0043551284273108505 0.017139206019948085 0.0002069716214604962 0.000626423942264915 -0.0022556815719510124 7.094676116526879e-05
 -0.004259448149841273 0.016453596007685475 0.4552920879779892 -0.8301122283845515 -0.0019872876556485826 -4.4990287869338265e-05 -5.6930549739083444e-05 -8.806086963500774e-05
 -0.0017326052794817755 0.00039222338620228085 -0.0004743281769097356 -0.003975846568921432 -0.019506539074292593 -0.9025671570116405 -0.08056747857184061 0.021264583496783545
 3.2728635817524616e-05 -0.0025533586799807873 -0.004005098180440105 0.0034401146891799984 -0.08322302890235506 0.01770690841437548 0.020721729700299833 -0.915281254815162
19537210000.0 0.4500916545616346 -0.8410376886447649 -0.005119538521716732 0.016446246425155544 -0.000993348774005728 -0.0006504229989121509 -0.0027740865998931957 0.001007174422138103
 -0.004853445864152978 0.01690348308152119 0.45886436086484783 -0.8133928121507963 -0.0018331466875261698 0.0015301246968090127 -0.0010049161857095849 0.001130321687453039
 -0.0009357612390296995 -0.002450670461968348 0.0010395931057655837 0.0012307987267932846 -0.028368908725210116 -0.8978666069347001 -0.08800297298840236 0.03657138690413014
 0.0015693651505613803 0.0009366085410766528 0.0023259431115318914 0.0018748290648680558 -0.06474586987726255 0.01801830678680979 -0.006372396791316821 -0.9182504979302798
19607200000.0 0.4554051439363247 -0.8246795515979716 -0.00554327928205586 0.016340373778874817 -0.0024429974902491196 -0.001493372460071223 -0.0013428413440298703 -0.0012407926494526385
 -0.005414633742636244 0.016301684230891567 0.4622352540559956 -0.8239391584543418 -0.00030965245320375767 -0.0006174811870275708 -0.002116551400607434 0.0003563199957475449
 -0.0018001787263280597 -0.00040078136610715225 0.0030606900688033636 0.0009797010465340816 -0.04402663868373905 -0.9142655068580388 -0.06741427261468372 0.02709407702090949
 -0.0028925614060775436 0.0012938749528196589 -0.005863863430872994 0.0026258951546189986 -0.06533255418335278 0.014007517231184203 -0.0010488060906109064 -0.9232161110535576
19677190000.0 0.4497643848692464 -0.8191645365833639 -0.006223791712758939 0.016311567988457037 -0.002729322209217653 -0.0007123393105430196 -0.0012404132046384773 -0.0010277389947819394
 -0.006488008494730423 0.015640347572143373 0.4472145995321137 -0.8298579350123154 -0.0015636345996578715 0.0006043285535715497 -0.002545970881097089 -0.00022028560934001724
 0.0009777886688694766 0.0010620001485767358 0.0012334639114687852 0.0022036502902990016 -0.06901249772982028 -0.9027905587663533 -0.06909569766213056 0.021867488931410852
 -0.001169865898935473 0.0012296829653222219 0.0029868074379921987 -3.1254299424466906e-05 -0.06533750771898483 0.03147670675790936 0.007142171445405592 -0.9149628143092078
19747180000.0 0.4485227965542348 -0.8261154257790314 -0.006822794031355985 0.01612425164391807 -0.0008596083825519535 0.0003253762785360322 -0.0036167055875121886 0.0005119451223245809
 -0.006822720227168712 0.015973467457270293 0.45007098563741393 -0.8187129771700887 -0.0031238086700186418 -0.001472204260791442 -0.0036395269423057943 -0.0013904916900067403
 -0.001985532882841935 -0.0010994575204860385 -0.0008948872418414707 -0.0014248041484959612 -0.05198758940047524 -0.8893682838707064 -0.077064819365528 0.030649744551151735
 -0.002043819218881976 0.0024792363593059853 -0.0012294270800846869 -0.0024080220176902513 -0.0851244842715312 0.03047696661029444 -0.01823277670102792 -0.9131078630007111
19817170000.0 0.4376946752824686 -0.837134474388215 -0.00703747485316524 0.015523892816398342 -0.002148449486052175 0.0010452243116171732 -0.0015970714870277329 -0.0006332992962575734
 -0.0069958842218234224 0.01601591779690795 0.4555561232480174 -0.8146912705341492 -0.00283012955144921 -0.0012607710846029708 -0.0009797514799120245 0.0017793869510464575
 -0.0010993344270535913 -0.00020131742301490274 0.00405351316933514 0.0019076683738368737 -0.05926117802080013 -0.899424280273179 -0.07568332306038923 0.03300830209054875
 -0.0007495510786993874 0.0003496249375316988 -0.0029416180093689267 0.0018277778283040365 -0.07675247076843704 0.03269860281861323 -0.022347252742585783 -0.915065232929826
19887160000.0 0.44409824771699 -0.8177042870345024 -0.007822901610198918 0.015795180318352857 -0.0010917069212229725 0.0015283715174883572 -0.0012832975694450932 0.0013610310933396318
 -0.007945435093953873 0.0156534527303993 0.44008696069454745 -0.8367980307222168 0.001382930508332367 -0.0006682986105217721 -0.0009063195175377425 0.00043436976356473026
 -0.0004260836121773769 0.0010462934213150616 -0.0046661214820068264 0.0008609738727969793 -0.10306401933315112 -0.9024037586734652 -0.08241840372765333 0.027399061232198207
 -0.0033333655375864498 0.0014155408443384022 -0.0025452393105277805 0.0006643230731718271 -0.0772699554399701 0.02741266984474546 -0.013792723823906722 -0.924336719131379
19957150000.0 0.43133373736944886 -0.8376991831749587 -0.008329355522443845 0.01541896868100156 0.0001688532082295908 0.0007951418139268032 -0.0015818274979861983 3.763417521300602e-05
 -0.008387806297068305 0.015826510052682485 0.4411644075232638 -0.8388328693142486 0.00031711958454916193 0.0011753153734883545 -0.0021673774009326615 -0.0005414728506988568
 0.0008155598094216729 0.001482409153614424 0.0002828056479271764 0.0014439655175657164 -0.0739609306818766 -0.8907644209717317 -0.07681305169017864 0.039526384761946955
 -0.0048818868047679435 -0.00029969225970141446 -0.0040977278103669565 0.0006440099950640593 -0.08025560171696182 0.03407276376616544 -0.03906232453367969 -0.9132171830781998
20027140000.0 0.43297188301074424 -0.8432463540770524 -0.008908714845548203 0.015193770482636234 -0.0002773136810210112 -0.0009543520854613644 -0.003056911573810752 -0.000441809385075272
 -0.008949258572843928 0.015220513408618743 0.4346746138439034 -0.8245837609596243 0.0004113158479324615 0.0014776744220453694 -0.0016954629323118297 -0.0006748814682008309
 -0.001839496255864295 0.00011530905717162457 -0.0007831800462274714 -0.0033552744577730153 -0.08408477767002427 -0.9025987553635796 -0.07791226769906902 0.03629401042726444
 -0.005915208569608182 -0.0023410414142562073 0.00157766426755003 0.001104676409016408 -0.07602455355536901 0.04067845902874269 -0.018685857050823564 -0.9143469892008044
20097130000.0 0.43031678456122374 -0.8254053864755435 -0.009373005066937744 0.015009735165438642 -0.0002472506685937625 -0.0006481133462681653 -4.5877408037939694e-05 1.1044005173769958e-05
 -0.00949043170524331 0.015267618980727224 0.4373976720503052 -0.8335393290261843 -0.0020585153448840284 -0.0015352924155169732 0.00011716459282658463 0.0008374328583327469
 -0.0028663514416263766 0.0010202221685117786 -0.0014788940243571952 0.0019396960686691037 -0.08553208862839733 -0.8768334118076769 -0.061673047629332116 0.02543818303572268
 -0.0004403733187060568 0.00231869597032226 -0.002065014165845323 0.000919705858628328 -0.07013631990982615 0.02031981549043831 -0.04982323861212995 -0.9206560444107496
20167120000.0 0.402271502629509 -0.8435544074208974 -0.00948773800044351 0.015312058704281973 -0.002409959069884479 -0.0008620694061503083 -0.0024732372059379157 0.0009468816095066309
 -0.009627489180859797 0.015544143571094815 0.44082941595370784 -0.8438407676685 -0.0005808639588681399 0.0001624544652784116 -0.0021492073622983786 7.550943992924127e-06
 -0.0013479458671949314 -4.6164468926002284e-05 -0.0016938394624684391 0.005150630066536197 -0.09613028781223294 -0.9067427628261231 -0.07982417315646333 0.0273322578563056
 0.0015952996385878004 -0.002335594331659245 -0.002182639323056266 -0.0010630922959805429 -0.08452770997364562 0.028913440258329114 -0.015250146098545008 -0.9033334159136173
20237110000.0 0.42823727119811417 -0.8481666016660885 -0.010162839017878303 0.014670929913602273 -0.0009257117932715541 0.001784560062100489 -0.001462584635249992 0.0002314308488626388
 -0.010366896444902617 0.015238458085128161 0.4289004807278788 -0.8187729942639869 0.00012845616774129245 -0.0009577316122558117 -0.000697973685548395 0.0014414067346252702
 -0.0016437339538018258 6.202541271921012e-05 -0.0028877140767069325 -0.0010414632548997609 -0.09065293418950864 -0.9180967711714255 -0.07882510966403057 0.024771658264581387
 -0.0010107146496298324 0.000373930854045287 -0.004252046385672077 0.00027600338506108445 -0.0712116304641366 0.04287204196311942 -0.055711635427783006 -0.9059494153535261
20307100000.0 0.4268766979680083 -0.8569974942559777 -0.010830416393804672 0.01467585718127559 0.0002282902298879481 0.00027046379460239167 -0.0014851967407447137 0.0004521689758943027
 -0.011083748950985375 0.01552766186649734 0.4230804435265613 -0.8478601642279537 0.0003776557113282153 -0.0019205532500739702 -0.0009402826863562434 0.0015923913279744168
 -0.004095915604733934 0.0021867212864805268 0.0010253445336866423 0.0030903018537707955 -0.09622129205433647 -0.8661571509925716 -0.07325725641785714 0.041580913158410525
 -0.004878621646505846 -0.0006050791926307199 -0.00677652138296312 0.000951750814307449 -0.08193288847860156 0.029455501212859357 -0.065447924405167 -0.9114061596885902
20377090000.0 0.42758887096757137 -0.8539783630032884 -0.01061999692308873 0.015137162657339522 -0.0014169815920891129 0.0024939028784043047 0.00162778156044929 -0.0010852198175510626
 -0.011967568197992577 0.014902380739186724 0.4279215658879969 -0.8595717785205758 -0.0017662405342329438 -0.00039193481217318974 0.0001927172621571025 0.00146132001247302
 -0.004934610799875809 0.0023645023265714596 0.002019616561853803 0.0018413082888440412 -0.12490344692215591 -0.9027692649139435 -0.07553271831825936 0.04054510831410667
 -0.005555923259611116 -0.001016866324981453 0.0012362092095216145 0.0016508489019394596 -0.06787238248000949 0.04356593505987871 -0.04725419093573199 -0.9010648750255164
20447080000.0 0.4162553865267429 -0.8271968307405919 -0.01162972214788888 0.01522690171795601 1.1111869573233482e-05 -0.0017644176265677635 -0.000720047322014019 0.00046964906698438537
 -0.011599151506628382 0.014833425466407094 0.39675395765333354 -0.8582065331925823 -0.004801171505420488 -0.0023094507419401606 -0.004563412241710225 0.0025557382769735115
 0.0008040381382043387 -0.0007000602314843643 -0.005527279479944214 0.0005423343410274991 -0.1153982117102604 -0.8805632936178182 -0.08996727830801562 0.047977936083518594
 -0.0033165801417115144 -0.0036674425634898463 -0.0025951744262658065 0.0013296128777439509 -0.07091180074853486 0.02591088648726144 -0.037998139429664145 -0.9207969516092395
20517070000.0 0.39845218422337675 -0.8293585562933318 -0.01247782294670187 0.015203026721483038 -0.0007655900481985837 -3.3935124669211884e-05 -0.0009030199198644273 -0.0008214544536907547
 -0.01199639225383393 0.014181197330635652 0.42709611719185325 -0.8533398222413571 -0.001970720364828329 0.0007664662708628948 -0.001190080800498186 0.0005621878100760143
 -0.0007990580980088646 0.0010508109359913646 -0.000521520265694813 0.005718258137383045 -0.1281806672346816 -0.9137828045512011 -0.07866042713147504 0.026979040837716316
 0.0005097776504494353 -0.001632315591739981 0.002181473508943771 0.00011184507177763646 -0.09228398429272447 0.04319362871787552 -0.07480092597548774 -0.8834518038950371
20587060000.0 0.40781311438136064 -0.8268915152691376 -0.013071540887663347 0.014289048254151105 -0.0019188843114066204 -0.0020627262295322933 -0.0009508974825413198 0.0027923164253812736
 -0.013257094437822685 0.01421171849303323 0.4228943996205499 -0.8437159290058692 -0.0024911966179793194 0.001907827876271703 -0.0015214656698973698 -0.001606549819784323
 -0.004264907014341968 -0.000675517801709882 5.973492844955538e-05 0.003717670926982421 -0.15191208507040585 -0.8869977479474032 -0.08804243894900653 0.03225450723127132
 -0.0018898640431621188 -0.004021210569748629 0.001999384697042034 -0.0007403451235108016 -0.0849492827548202 0.010688512440434285 -0.08875572652200797 -0.9216842149653166
20657050000.0 0.41485745520768713 -0.8460421563028452 -0.0135427685873863 0.014040317493739114 0.0013321233805166284 0.002701289691191599 -0.0024564490422466314 0.0002887185695507017
 -0.014416843908899508 0.014292576801244994 0.39541138189720754 -0.8298300975839686 -0.0029134482189297536 -0.0021737459223267978 5.93647932755486e-05 -0.0015367995229759947
 -0.002462863250573951 -0.002572866366438033 -0.0010146757760368386 -0.004967671959274885 -0.09294035789059651 -0.8411460083467786 -0.09267455337043111 0.04160508225495884
 -0.002791933003437457 0.0031609605616372063 -0.0032683780494199856 0.0059546319973695075 -0.11220651674746902 0.05258549503674782 -0.08896075574986798 -0.9398301629135666
20727040000.0 0.3969564630571917 -0.8529990951143029 -0.014089057183985487 0.014013375939214243 -0.0025391945603800677 -0.0028462168170497407 -0.00058344028332828 0.0005011454988357269
 -0.01401663882381313 0.014837319562923754 0.3969948527152353 -0.8392757956413803 -0.0029585080863361955 -0.0013381742874765553 -0.0021609582211322676 0.00047703547931570833
 -0.0003626435051055324 -0.0004219738396240616 -0.0019956683399154434 -0.0014287582021009254 -0.11614867075772334 -0.8794291522537453 -0.08108987540859618 0.038529281930016444
 -0.00046845537836129217 0.00012489763884438506 -0.004506048258953477 0.00026178193768160054 -0.09050215653404262 0.04263879950491556 -0.07652332638981538 -0.9121721612435013
20797030000.0 0.4015266767989102 -0.8417641165939707 -0.014712235713673383 0.01401556173838156 -0.00023832291544762766 0.0009812190663086322 -0.00022842888535664079 0.00030689436844966357
 -0.014837699267622653 0.014106460447466555 0.3753565576703317 -0.8295419962964327 6.141794908835914e-05 0.00047296698477708096 0.0013426442204844894 -0.0015076113285232766
 -0.0015824734131594752 0.0006431131773272651 -0.0005108832165405381 0.0026577750976276154 -0.144967050410916 -0.8783653376882619 -0.0710289499302841 0.04019803005849998
 -0.0025162555618753555 -0.00038510862616081254 -0.0002066072828061289 -0.002824788590906547 -0.10424643860233732 0.0324216524931051 -0.07655942918552795 -0.937372516070448
20867020000.0 0.40225612001142436 -0.8559453651199257 -0.015305599846017938 0.013419626588983803 0.0002146037673972272 -0.0019866959403738683 -0.001089621935266099 0.00037080811785784336
 -0.015993272099596254 0.014184323886556311 0.3774001290310792 -0.8443376490939148 0.0023516809882350607 0.000824952154237912 -0.0008949417624897338 0.0006862217324889609
 -0.0002791184981981045 0.0008750736629802503 -0.0032400344241673117 -0.001152195322436711 -0.14953588172158563 -0.8738539109408584 -0.08582683850276088 0.0357067578510191
 -0.0010314089371973054 0.0012177545589396785 0.0004861565054843342 -0.005963346918797668 -0.09100018852228875 0.02841328516180447 -0.09637323170059332 -0.9251004602617526
20937010000.0 0.3825542145723458 -0.8492075979358471 -0.015915901239169982 0.014135567891566404 -0.0004306022170328825 0.0018217459894834215 -0.0006608564657287433 -0.0007572551222384925
 -0.01620587921910138 0.01453748764140811 0.3778633246679001 -0.8502108315274752 -0.0009689882921785143 0.0001270174837745725 -0.0031306470683599985 0.00014771423432658986
 -0.003064544668551424 -0.0014215977237131171 0.0008907033359572263 -0.006078061634419525 -0.13635015116096372 -0.8962742008787012 -0.07678809131292046 0.028043324639617253
 -0.001633805382187924 -0.0014394812349379706 -0.003775748342137273 -0.0009890841310646519 -0.08581677589900108 0.035549631073922394 -0.08229798553866843 -0.918632295798283
21007000000.0 0.37983593057444465 -0.8433546441598789 -0.01706314850993984 0.01386130718983599 -0.0026816407578855363 0.0015821235744593375 -0.000591627149089839 4.035384042032555e-05
 -0.01621254685107153 0.013881458124787461 0.3953009211081556 -0.8650070761335689 -0.001641425461917447 -0.0010741350909043539 -0.0018104617744728346 0.001337027594660369
 -0.001419290398993077 0.0005083388387179099 -0.004338546338672862 -0.00018786220339729522 -0.15997824649877904 -0.872768165496666 -0.08045606411759129 0.0352775549178342
 -0.0017094981311574432 0.0027655160254061967 -0.00548118164363837 0.00171555522863897 -0.08495333208478695 0.035362485114660246 -0.106089444216662 -0.894843871723157
21076990000.0 0.37874761131112844 -0.8519036356013702 -0.016379108667675727 0.013066614081132034 -0.0014033464522566455 -0.0005440573604932779 -0.001363777003419314 0.0002226427644228713
 -0.0173436569255096 0.013990369196847045 0.3873992954376799 -0.8597569159332868 -0.0014589992289226722 0.0007470157549472682 -0.003250514442024377 0.001115150395145878
 -0.0004469444133235058 -0.0005931195768677117 -0.003928046033977355 -0.0030971220741140898 -0.16088201951827766 -0.8918313680021919 -0.08908343477854165 0.04466470935238354
 0.0006514505587646536 -0.003317231843401174 -0.00014581139561583954 -0.006020647104199461 -0.08805889984786677 0.033641745846559226 -0.11979031112065358 -0.8939895577565284
21146980000.0 0.3754947728476743 -0.8561767383287047 -0.0172952585164946 0.01322422808817603 -0.0017181391862283468 0.00034431610301888666 0.0012176859787167006 0.000320701549743521
 -0.017925155256323443 0.013780320422516886 0.37963050426671985 -0.8306177502322397 -0.0010759369569498906 -0.0011089671311642364 -0.003465581319410995 0.00040221353030928147
 -0.000766223808389077 0.0013621897662904534 0.0009446297961218637 0.0020407450001869248 -0.16017857035948851 -0.8746098806302356 -0.09550965713356986 0.04133210473878676
 -0.001709097512704006 0.0013696714377089453 0.0010242635768792977 0.002914234927459529 -0.07314797350338803 0.03517167134117994 -0.13646594031379677 -0.9153869244929317
21216970000.0 0.37152952470952516 -0.8433399168774047 -0.018302466593291294 0.01297988563723626 -0.0025285848673459862 0.0005305660549813571 -0.001066260740166082 -0.0009554085468243891
 -0.018327819535819453 0.013481303296028901 0.38646566026058565 -0.8521719015734064 -0.00029247396304365954 0.0016594999839275022 -0.0011843622895699733 0.00031394832503013793
 -0.0027773040196329072 0.001126120342484022 -0.002756838546970016 -0.0017795431897885165 -0.190074355936431 -0.8801400979039373 -0.10085140535711902 0.04308564884488538
 -0.005167681943255132 0.0026443795476056874 0.0011891519589775008 0.0022231086255968713 -0.09683864901968027 0.03850624033358423 -0.11809188766264073 -0.8741733258758483
21286960000.0 0.38008580570545847 -0.8550961075622032 -0.018655578840087512 0.013745386162480831 -0.00019453007825902206 0.0009792370462674352 -0.001137012574245479 0.00026796342127154594
 -0.019386588548107393 0.01306898667073354 0.38202367863441 -0.8498127343450916 -4.373643028713116e-05 -8.709536269395536e-05 -0.002267152706438742 0.0005314594779431746
 -0.004787995489649871 -0.0006985612782837037 -0.0009555046913969251 0.0032392821138562673 -0.19611281393407207 -0.866975107679634 -0.10417931386499754 0.048684579036868056
 -0.0016193219683203377 0.0013751177306651726 0.000717294034860556 0.005516458068169156 -0.0900006224364611 0.04453307974352621 -0.1491475282508852 -0.8987104958673159
21356950000.0 0.3535605713527193 -0.8609853606718957 -0.018520124253427535 0.012803437111065569 0.001250503066972379 0.002052017748531619 -0.0026930331275246103 0.00045769253943907506
 -0.019595535353438404 0.013409507871090527 0.35154290501325985 -0.8625788262575548 -0.0008095826070471649 -0.00044226066983306335 -0.0010878207177359418 -0.002813026547586335
 0.0019277368907404577 -0.0024935020426852827 -0.009795325085900846 0.0028694390967581676 -0.1618577862736974 -0.8681472072705388 -0.07634656000344354 0.043048574083649274
 -0.0028817648088306368 -0.0024218528480324615 0.0012188207575103676 -0.001407950117490339 -0.08625404322686202 0.041132013835893634 -0.12981361814382664 -0.8991654302033285
21426940000.0 0.37296425910416486 -0.8615217582267427 -0.01972654942687078 0.0132901522650701 -0.0014119790920250378 0.00020846012445670833 -0.0018378108171044384 0.0007451406217737273
 -0.020441566509042816 0.013506183925817672 0.37240109555821765 -0.8502069383228744 6.540551570487476e-05 0.0008844631893336498 -0.0018204823223550146 0.0019343906825649148
 -0.0015961718021191736 -0.0003961894599032498 -0.003959562564752656 0.0021615318136167993 -0.19404050109986065 -0.877797384937408 -0.09294299294227681 0.059737773819054485
 0.000641670423379859 0.0017342242715747418 0.002763974259579333 0.0020055700021678778 -0.10454862999576554 0.05994197909574813 -0.15579643108288152 -0.8839227069827313
21496930000.0 0.3595037530110472 -0.861871848067734 -0.02097266983308701 0.013853940532805371 -0.001151423618802291 -0.0004145834127624015 -0.002057958172476246 0.00033868189408237266
 -0.021335396411605093 0.013080033922248203 0.3492340798262177 -0.8793841947473588 0.000147018157236435 0.0012539461022776411 0.00040536855857796315 0.0009209243488874102
 -0.0008660236857208038 0.0002372877239904181 0.00293543221411932 -0.002826496680671798 -0.19364813195611535 -0.8753844292392294 -0.1060341759354353 0.02123660669870851
 -0.0035977206743068916 -0.0025320210749678477 0.001398923478040435 -0.0014333804938734575 -0.09367959656518018 0.050068793570005855 -0.12077939159843526 -0.8774407769092567
21566920000.0 0.36472177099583764 -0.8607874198105604 -0.022304371895906196 0.013167082542931122 -0.00043965702495157155 -0.0007910477711298606 -0.0011182736287483975 -0.0016851846572445085
 -0.02192267004947679 0.01351726293619629 0.3705989320757392 -0.8677878852335261 -0.003886223298422598 0.001978395625374228 -0.0015664805296670963 0.0021470866611180374
 0.001979042884099298 -0.0016592190537979615 -0.003390230362454434 -0.0003044189901159266 -0.20611005080476485 -0.8735752161646084 -0.09580560030223992 0.05289647799364332
 -0.0021822790746318403 -0.0005622225812796917 -0.004308104394564245 -0.0014234931765834667 -0.10407801797036062 0.05218565815518713 -0.15777192890664551 -0.8983526431442945
21636910000.0 0.3364209347327599 -0.8616146977178277 -0.022495417286429426 0.013204264084654792 -0.0011509550958327468 -2.2989704748642605e-05 -0.0012324547665584758 -0.0005234938355648891
 -0.02211806986263823 0.013456246978576747 0.3555627899196232 -0.874144831936423 -0.000919835372733348 -0.0003594816917013401 -0.001920401407000517 1.0494379705774596e-05
 0.002514081043802131 0.0010229213944677078 -0.003322618619233988 -0.001367280209717362 -0.18688104745924014 -0.8948377933427408 -0.09568503861755569 0.05508802415560307
 -0.0024781050415249584 0.004178786418025499 -0.001867521087194862 -0.0022264850330618357 -0.09009424160969547 0.04646327665750729 -0.16873315530064548 -0.896614243644283
21706900000.0 0.345833069896106 -0.8759965499926932 -0.023582465018686067 0.012754236181600187 0.0002203354561854145 -0.0015642083883413045 -0.0008009974080638116 0.000370058477010304
 -0.022956182250205587 0.013041774498020318 0.355932839309934 -0.8682173413546603 -0.0025994925881432096 0.002418880081842529 -0.001539491039651433 0.003873548077486439
 -0.0005832251737323652 0.002371608388610013 0.0023079532643602483 0.005570737030884993 -0.20532730570004062 -0.8781608405541502 -0.09710633159881678 0.055317290694334637
 0.0020677512449897846 0.0010825557162201995 -0.0018106283773690775 0.0011935902129762272 -0.10976544303970501 0.04550472023825979 -0.1415763227866105 -0.8896874286003829
21776890000.0 0.3479240209815854 -0.8612014570110915 -0.024257693419131636 0.01236700576635868 -0.000769268026969743 0.0009659841733270948 -0.0001344439634556641 0.0013075241935798685
 -0.02391225812925761 0.012835238167635118 0.36401695349872004 -0.8775126551600908 -0.00021212805558786665 -0.00038733783824660973 -0.0023394551302334658 -0.0012036796005258537
 0.001492314059832574 0.0009799897435363004 0.0033655011061501897 -0.0011903158145152696 -0.2069385381280623 -0.8620737263247591 -0.09513581540848103 0.04673736833798727
 -0.0030338807883489864 0.0015666604668026793 0.0004805017706572029 0.0015404519653048998 -0.08671648056973785 0.04491192597063351 -0.16707847478571544 -0.871607191703943
21846880000.0 0.33428207582195324 -0.864187856641909 -0.025276332318024786 0.013431290470725032 -0.0011204797542873968 -0.001333103936386354 -0.0007105516987178078 0.0022409469256561613
 -0.0242331220936881 0.013559035479321545 0.3407761957349518 -0.8642927275075616 -0.0007012312109364565 9.283311223028805e-05 -0.00290570511504153 0.0004837826629969295
 -0.00021911930278257366 -0.00022885182731443004 0.001160702428679062 -0.0012689137743772628 -0.2008625802986897 -0.8863337044619494 -0.10549028662941352 0.032745713446697015
 -0.0023019771962298355 0.0005178611445391295 0.0017271183167993425 0.003591204754630447 -0.11100712701851324 0.0339446402962392 -0.1614337364877162 -0.9023335544844858
21916870000.0 0.3359157355557588 -0.8520595309768803 -0.025117438648080973 0.013142859773920572 -0.0007107842854256471 0.000678511943803795 -0.0038116008952588432 0.0014261077324039127
 -0.024428100995749182 0.012813240133460167 0.3269076196385658 -0.867614424957281 -0.0007189147268309521 -0.0012173634849294236 -0.0010467964444199223 -0.001912757745825456
 0.0017409159130252056 8.923406461799964e-06 -0.0018474095873308057 -0.0010968984590271624 -0.232931468226945 -0.8742539952480763 -0.1052689744360493 0.042243177728006474
 0.001731180990510355 -0.000545568550491024 0.0020613697170458922 -0.001247297837147335 -0.11163423743570634 0.05177745015165825 -0.1613537197828959 -0.8967034133360098
21986860000.0 0.3448351072814586 -0.8573930290661587 -0.02536821166225877 0.012780579722526579 -0.0006629449266624987 0.0005670354114151571 -0.002344772918979992 0.0005351471333606198
 -0.025613469734755263 0.013074317286313128 0.3223615054196675 -0.8738761241377039 -0.0006503481371070279 -0.0009928978739239286 -0.000986447757184391 0.0011243133848423252
 -0.0006167176384792838 0.0013292726066806188 -0.002834632459832334 -0.004716520439352549 -0.25406232173200405 -0.8524307395489449 -0.09866359020751057 0.07525353670464702
 0.000417272302404525 0.0014818968821786033 -0.0011336429731876438 -0.0007317597371209777 -0.09655941584403038 0.03771743543135159 -0.16202806556288812 -0.8772497204925789
22056850000.0 0.31077593539147025 -0.8668911848732626 -0.02633153706180704 0.012369244520803752 -0.0010833813606097131 -0.0004496642189888065 0.0013668385699985095 6.878749952930357e-05
 -0.026481106522674852 0.01329435391680479 0.33610778850676476 -0.8724497741597463 -0.0020523381547319208 0.0020846355762879814 -0.002867674678375989 -0.0006177241453563686
 0.000514982937129989 0.0009683287941073646 -0.00039620146504451716 -0.002387853073868842 -0.2239854721731971 -0.8597704362682674 -0.10567585872540167 0.05041385531533675
 -0.0019645002638852866 -0.001743429318017626 0.002884003426015936 0.00902674033537721 -0.10953327037760129 0.03948623978009118 -0.20698287983775365 -0.8759269650037962
22126840000.0 0.3235894304141311 -0.8597510307597146 -0.027010544830438965 0.01261686772843706 0.0013907616272688917 0.0007160685000982989 -0.0005873530033157803 0.0010415036678952333
 -0.026765590718154365 0.012585289349089123 0.3242111231461549 -0.8530150363839181 0.0011594018186248624 0.001544316330454381 -0.0005656249525006279 0.0017861687636942917
 0.0007572597859893097 0.0009858052830360765 -0.001341296936444264 0.005076533394632216 -0.23277027789132235 -0.8712219993236351 -0.08979201999283247 0.05257959783741105
 -0.002557706999688021 0.00042089895173853185 -0.004866547702712226 0.004506567247167144 -0.09690726208554569 0.051931823825002575 -0.2055066522671653 -0.8841957119813821
22196830000.0 0.3174509219690391 -0.8810918052812774 -0.027225601041394452 0.012611895589245622 0.0016409036272871625 -0.0015787117195859026 -0.001302213034445306 -0.0009939866179631861
 -0.02761262177226082 0.01261372488590001 0.31714993021402804 -0.8704989766991356 -0.001516158124090827 0.00041652080112502426 -0.0014457797550552094 -0.0008977215046645048
 0.0026860528017891 -0.0005947797774780281 -0.0005080924844568141 -0.002687923467823602 -0.21754596083175057 -0.8289352647888157 -0.11476870524416515 0.0528763125428411
 0.0015672017504674825 -0.0009123485287701726 0.005989692820104649 -0.004389264361917245 -0.11476154561512385 0.05398189054994415 -0.1979709856363215 -0.8751968074823252
22266820000.0 0.3205890976562844 -0.8692045321450593 -0.028648880533684556 0.013555479787392029 0.00012554316830619425 0.00189494437365322 0.00017094845178177738 -0.0006811015581956065
 -0.028454149274206333 0.012431903564170056 0.3179693400516848 -0.9037746651790782 -0.0019488959390210532 -0.000286814806099453 -0.0012070947167349098 -0.001102186446266593
 0.00015157292140622166 0.0014741231702657463 -0.0011607276503998174 -0.00038105548236202894 -0.24412784989126934 -0.8619657693735372 -0.11225295897786505 0.06346984524672587
 -0.001182318320386607 0.0018586300274179902 -0.0016823387481186417 0.0011226763281410711 -0.11457480006782668 0.06537987814482694 -0.18171193558575804 -0.882307204603402
22336810000.0 0.30654555290864927 -0.8640415388357466 -0.029883670411382998 0.01171802161610846 0.0007925221518485486 -0.0011461566733850595 -0.0007614325478038335 0.00046139972385072066
 -0.028569345860858547 0.012448638802064897 0.3394527889083423 -0.8796594378909488 -0.0005332393622099037 0.003643278748212926 0.0010396805635710295 -0.00010727471049748022
 0.0017353214555577909 -0.00025803916562241753 0.004832309121839154 0.0036187780642924806 -0.23283049396306849 -0.8583439249993352 -0.09770563117692035 0.0583420556199277
 -0.00392609949856781 -0.00048444340735308034 -0.002728310871724057 -0.00024458483548146423 -0.10373672815657675 0.04907910661296589 -0.20086367563456073 -0.889470902801899
22406800000.0 0.3051916606217427 -0.8856725175978838 -0.0301354704642764 0.012022772646167868 -0.0004504223923493275 -0.00041481764214833065 -0.002712530312576835 0.0006932457958139208
 -0.03028499181314244 0.012735614400236121 0.3173303322027329 -0.8730505928953994 -0.0007945726448516894 0.0010666224757662887 -0.002942121414694239 0.0016338732958324422
 0.0005202723651188594 -0.002066116491807517 -0.004699067606985501 0.003977223775995398 -0.241856853856828 -0.8296762514098929 -0.10699741464106373 0.05969447504952043
 -0.002450675095953447 -0.0012356979030629898 -0.0008241496273868066 -0.00043847754716541296 -0.11648588142947149 0.05958472392070149 -0.2107584229019938 -0.8867717807017713
22476790000.0 0.29997013730692795 -0.8798787147287569 -0.030705370262860306 0.012186261749039086 0.0005632092918233813 0.0007520183654121226 -0.0002985836958714135 0.0011668457626252712
 -0.030427581244139832 0.013511040634720797 0.31326276189531826 -0.8974141150652402 -0.0021769657995171746 0.0004729719726820908 -0.0015863454169558553 0.0007597600322732034
 -0.0005167162160938885 0.0021166686130028103 -0.0009271484708829124 0.004655781410901609 -0.26166064369010256 -0.8399200560348631 -0.09718436392191915 0.05846099489829295
 -0.0005538489563390778 0.002568923786341399 0.0032857396149935762 0.003981048608558752 -0.10545363147086285 0.07396677045417631 -0.19405394211599922 -0.8629882717850484
22546780000.0 0.2992084350036154 -0.8654901367986123 -0.03163997459700596 0.013630974061639654 -0.0023457326552022897 0.0008250920146045277 -0.001002945475674159 0.00028503805458667214
 -0.030729346041556457 0.013067576236004914 0.3207244463867393 -0.8984226939584832 -0.0017692942449201903 0.0001190207666877831 -0.001437640515414072 -0.0017653367986337834
 -0.0032843363962774277 0.0025204969428537045 -0.0016108145403416411 -0.004231664265272487 -0.2636953832686291 -0.8533698645750114 -0.10523000857824043 0.06617867228561573
 -0.002480709984126145 -0.0022453028268238262 -0.0007003212482946221 0.0026375391317244477 -0.1154728860494212 0.07251241726525594 -0.19329357884968248 -0.8595367285345534
22616770000.0 0.2931436257773784 -0.8860031639791011 -0.03246994624257972 0.011977379167705342 0.00026763150973404707 0.003676600204324452 -0.0013737981950378356 0.000500969524534144
 -0.03186170770516655 0.012867855551646226 0.3046272309312059 -0.8747068380025221 -0.0018458366011340026 -0.0007325033626941418 -0.0016404134554672825 0.0015024458220359168
 0.0006780173844662911 -0.0009249024697511343 -0.0005136688188571942 0.002468369604805719 -0.2662696088337329 -0.8487224905873834 -0.10918742521108145 0.04990187691773045
 0.0008746402097429412 4.768772144302337e-05 0.002430539751029846 0.0019211893082922665 -0.10542224800222284 0.044028835646956206 -0.20264828356858497 -0.8885494361625118
22686760000.0 0.29434900103500544 -0.8726930395818349 -0.03350268149193916 0.011958502941813514 0.000823604038731267 0.0006703097489219186 -0.0014320529040778383 -0.0013250513171494877
 -0.03235963627794954 0.012224008821127617 0.3234746402265318 -0.8857227298052889 -0.0021639049279231167 0.001953030282213336 -0.004485182272136266 0.0009647089384534812
 -0.0016309548934582033 -0.0028581859046210977 4.746753434620792e-06 0.0019984453430847583 -0.2844207772979542 -0.8488180127278866 -0.10471422256655988 0.05470557908551921
 -0.0011679677883485852 -0.00015687768638230487 4.1917305973432794e-05 -0.002151910091249084 -0.1093277258070482 0.05843688691204204 -0.21962497016567648 -0.8424178457715461
22756750000.0 0.27923229072158934 -0.8770470028949784 -0.03444933465341353 0.01245253491469208 -0.0026231188771514433 0.0014633511051547607 0.000353662278415227 0.0023873839329277
 -0.03372568575894604 0.0131990965364036 0.3136625413638979 -0.8986531319984177 -0.00010984934758278688 -0.001490975386029332 -0.0015290455422449917 0.0001630272562806358
 0.0023471449902500384 -0.002418971865448238 -0.0025705654363015014 0.00010910493040687537 -0.28432939352485026 -0.8500224215009777 -0.0993984449453563 0.07613035964453346
 -0.001389254685949714 0.0004301205614297189 0.004710589439339294 -0.00023346650479415894 -0.084259710290368 0.07008005162148244 -0.21164983099812412 -0.8535314316595052
22826740000.0 0.2888717235572078 -0.8786993078855001 -0.033959287670162444 0.012612751490090189 -0.00055806616506067 0.0012503466360936565 -0.0018549104544169056 0.0004607071567283017
 -0.03429565631266057 0.012465315238037348 0.2975517717370175 -0.87359925402719 0.0015197766146720088 0.00014250014199642413 -0.0005907165412078407 0.0016546193471114292
 -0.0020916006932163206 0.0027940495708081887 0.00040658799108894515 -0.001196913700507498 -0.30750579789482135 -0.8159432026305935 -0.1104202855040919 0.04448518459705072
 -0.0019331027392193267 -0.0029354262081536515 0.002310226624220672 -0.0010754091241829532 -0.10096125787919619 0.06795498207807904 -0.23371566666614815 -0.8810346436574804
22896730000.0 0.28802181506625474 -0.8794409487037721 -0.035095071655928914 0.012556457396391659 -0.0006251822844980609 -0.0003717213271839674 0.0011912880547523816 0.002509734188640555
 -0.03518964072973582 0.012307794340434098 0.2941731804292899 -0.8949665468419944 -0.0034103912649085916 0.0001473146121439269 -0.0010865896739621515 0.0017085836676642876
 -0.0011943332134974603 -0.0014533791608959937 0.0009756258812553447 -0.002771752247717965 -0.2950142697308206 -0.8247773942205219 -0.10899891919601722 0.05583302925105889
 -0.0037539893156490834 0.0002457994166270353 0.00010546133133373364 0.0009573232388592126 -0.11730286803185087 0.056675863361747944 -0.24643854697561401 -0.8742432016200007
22966720000.0 0.28239794048583583 -0.8811514606881422 -0.035719871210854064 0.012267826601528562 0.00033162222298527836 -0.0021733862271559982 -0.0018507727718134043 0.0011274565369288577
 -0.03658452003054972 0.012313686201042345 0.28195312823135593 -0.8867299423710532 0.001738533364438968 7.784902763856901e-05 -0.0010827248735017407 -0.0007030303519517548
 -0.00017513445130956033 0.0003304059809345765 0.0038196700893345535 0.00014003050343094355 -0.29217621730631665 -0.8329306183740669 -0.1170985316342506 0.07079147108763427
 -0.0010272206828251258 -0.003351475425681755 -0.0019096277874993295 -0.00024119468592693097 -0.1234383293458367 0.06626751376215638 -0.23825258585118966 -0.8657141242490852
23036710000.0 0.2824349949174238 -0.8694918321408349 -0.03657743642470306 0.012802929554140969 0.0007206083473600167 -0.0021689760166923866 -0.00018510997944868056 9.767877414484245e-05
 -0.03596892865731355 0.012127529777040458 0.27901407844105713 -0.8987798896144755 -0.003145346222726923 0.0005325771215345157 0.0005396772614446902 0.00048629577148758045
 0.001968962868156749 0.003092468688525576 -0.0003124421607229035 0.002941708384574449 -0.2804741714476605 -0.8233692744992502 -0.1192873952927004 0.05771150613386489
 0.001510381167827335 0.0006198993467246685 0.0007930661885209705 -0.0009323654767689048 -0.09516077711101728 0.048000810319363305 -0.2331935973989296 -0.8643978540561965
23106700000.0 0.2910927214377619 -0.9037415520334801 -0.03870443812358243 0.012560227246062683 -0.0007115849132667942 0.0018627347636864322 -0.001230894649439645 -0.0010724355326856509
 -0.03872732118131981 0.011628331672689476 0.29340145352610436 -0.8947307373292797 -0.002401466585535373 -0.00017171798196184083 -0.0014627540964547074 0.0017351823159851283
 -0.0023112345963873003 0.0008119197100587655 0.0036446706631348444 -0.0016826988972444 -0.30597748427481475 -0.804104438291942 -0.12134047829574027 0.07953431948224089
 -0.0010333544845599737 -0.001615432429168477 -0.0024436735800145598 0.001039261664457397 -0.1107195556192889 0.051660905130451205 -0.24487822121173564 -0.8298799980113274
23176690000.0 0.26592771057546055 -0.8793721084713866 -0.0386340873082515 0.011811994500741389 -0.0019034128679198449 0.000212270869583354 0.00034840141690445787 -0.0009582432713526423
 -0.0373947976785022 0.012283502770488137 0.2814120717743111 -0.8905578485483487 -5.385333410561268e-05 -0.0005364672587459456 0.0006545244379371657 0.0031951196851489586
 -0.0016906078791241296 0.0042052010788156185 0.00033507205155464646 0.0024440235283514707 -0.3092831693833483 -0.8214977603547231 -0.1117765909172844 0.08689670351563455
 0.0025290602142048956 -0.000509739448716477 8.02621213644569e-05 -0.001692093974645717 -0.12653927527565598 0.06802673227818211 -0.28428166041081976 -0.8613630845476531
23246680000.0 0.26033666102193853 -0.8764081065583961 -0.03848621464249947 0.011832700202290233 -0.002568693150554514 0.00018043146540575386 -0.00039548908567348676 0.000601491043258648
 -0.03794777368193149 0.012232153151708548 0.27358291022052034 -0.8807720956622085 -0.0025182323097357336 -0.0006951690491298864 -0.001544676542808789 0.0003147256537659996
 -0.0028042908546580428 0.0008386607984637517 0.0022000798190593305 -0.003810574767104676 -0.3260912927998356 -0.805161564008063 -0.11564730717872902 0.08005858327725762
 -0.0017587676926824505 0.001323330337506055 -0.006518821341192315 0.0022463156717765407 -0.12011513231917477 0.06312444522289985 -0.2772888071350414 -0.8445459878353193
23316670000.0 0.2638250599874501 -0.8826883709992824 -0.03928933994246635 0.013658933372262655 -0.0007603249220554226 -0.00018454327116846397 -0.002615016471471702 0.0031620230671189566
 -0.03920933613579237 0.012951914470031935 0.2589924690732513 -0.9029951809475618 0.0024348472819337294 0.0031934562397129933 -0.00015932229729933865 0.002728512059534829
 0.0012869809531031752 0.0005468960467743563 -0.002614071260665718 0.003186944715940661 -0.312862557287811 -0.8259214799430149 -0.11756285011703127 0.07074001917960748
 -0.0008041029339613333 0.0005681259540921519 -0.00251991785268278 -0.003053732622380895 -0.09520696637439716 0.06745195992578662 -0.26350679610878824 -0.8439007029461674
23386660000.0 0.2637746512781479 -0.8739184647321375 -0.04095327659400245 0.011609224379089818 -0.0022286660010677624 0.0009532144522780337 -0.0013501511933860118 0.0017584199091677235
 -0.04048214393452907 0.011412340235750185 0.2835747919175536 -0.8927412465427838 0.0004192138761774656 -0.002565897238642389 0.00028848468630391445 0.0012999474602648647
 -0.0004124033417789009 0.00035288102108951776 0.0007758935043420669 0.005518218416019555 -0.3184534283510416 -0.8137677638777056 -0.11997279971794761 0.07749779885386608
 -0.004073714229878659 -0.004726626895024447 -0.0019195046507805885 0.002048645804437193 -0.11678259726668255 0.0726203682610741 -0.2818519284364526 -0.8451549800662643
23456650000.0 0.2493728526879638 -0.8887463225936069 -0.041208548430312186 0.012574263001623476 0.00018391220145496854 0.0020058974677605685 0.0007204823125365996 -0.002573743908548954
 -0.04088757543805193 0.012583347766820949 0.250144156768152 -0.8904662148259498 -0.0017043605781930974 -0.000586349372046137 -0.002235861159836842 -8.688578925152964e-05
 -0.0009028442812197513 -8.891921817884141e-05 -0.0044796386976818856 0.002658577713328605 -0.32984903965239154 -0.8035319366064989 -0.12097899157474126 0.08045557860411812
 -0.004248624245653661 0.0013947323066685262 -0.002382633988329022 0.0012574004459841282 -0.10099816439453908 0.0587030709568713 -0.24589630809885907 -0.8689270326859316
23526640000.0 0.25283671789811274 -0.8736756409364811 -0.04222404247189709 0.01248577087376845 -0.0003259613846410108 -0.00020012599366324215 -0.0023661447895555764 0.00018385961732814499
 -0.04071221973046848 0.011684423174910818 0.27726477603594346 -0.9006356516971185 -0.002675583473982042 -0.00015920732112063846 -0.000703179692797184 -0.0015217226343274901
 -0.001537365576817629 0.0011511345724875546 -0.0009488348411285933 0.0013985873277995522 -0.3223200137623396 -0.8187808233420931 -0.10985698175181792 0.05819131987380973
 0.00033699375658659145 0.0036333856511805702 -0.002291047318329336 7.681400667008826e-06 -0.1371332798855655 0.0701827993698576 -0.2896878003544533 -0.7957810430113865
23596630000.0 0.25853740272977954 -0.8854844544703961 -0.043430827608457054 0.01217024008661509 -0.0006424207639370512 -0.0020455123743097206 -0.003616593391420274 0.0018983433465476678
 -0.043562480025662945 0.011777716614818957 0.26445142052769544 -0.9005944248115012 -0.002205813330692646 0.0002707538475981309 -0.0008513079129554555 0.002866928522125832
 -0.0032475551046920077 -0.0019485672479295595 -0.005964669947694369 0.00012383805126721484 -0.3453751573721285 -0.7976336003557072 -0.12750882614519835 0.07542443060362025
 -0.0005593007249231149 0.002039312025194866 -0.003908977934808393 -0.003925742488813643 -0.12525583776317956 0.07364534846142876 -0.28706520521604817 -0.8280645969612316
23666620000.0 0.23912812699582056 -0.8863958621730744 -0.04309354362600957 0.012458358406110471 -0.0010165857771523219 0.00174209926190299 -0.0031968186445902407 -0.00036818838094476996
 -0.04313577151624953 0.012976482293253487 0.24411441689936297 -0.9192279620560531 0.0011765264284349826 0.0013013527501400382 -0.0025516216955622077 0.001135895090198171
 -0.000383323212689883 0.0024233417486768326 0.0026709908866894556 0.00469996050451024 -0.3497008942921541 -0.8092811402813851 -0.12297202744843547 0.08257210239533225
 -0.0028381616950628337 0.0005977116487383566 0.00044034664997512357 -0.0029105845656189192 -0.11734619482630952 0.07896103445233 -0.292398268373725 -0.8204110950967941
23736610000.0 0.24590435613272232 -0.895642358516848 -0.044563501461632654 0.012442269331779656 -0.0007244864121870928 0.0030682374009435203 -0.00022046367327414047 -0.0007445353302618938
 -0.044530661387382424 0.012663132331892094 0.2522131562514625 -0.8883344503104632 -0.0023225187591188793 -0.00037744731619191656 0.0008066721920958765 -0.0008991424006432498
 0.00119616106244769 0.00029689567208893917 0.0009304195100777556 0.0050609447988085214 -0.32816324245173756 -0.798005529783991 -0.12785765914473163 0.06756206257643779
 0.00014015920660417726 -0.0012370022090706608 -0.004595324012339744 9.426841352595309e-05 -0.11344846192727188 0.06601400314661177 -0.31329117148697716 -0.837988804409039
23806600000.0 0.23936965575774286 -0.9017622292110274 -0.04538366211509009 0.013397687262898217 -0.0006818180018199988 4.83901174532969e-05 -0.0023054504477270704 -0.0006555852121500658
 -0.04540530717013419 0.012141687024033518 0.23464995293569788 -0.9061626046594924 0.00046516000352782733 -0.0007980694720370191 0.0002818029388441739 0.0012766297913019663
 0.0009899884005420323 0.0006582898033676141 0.0015622901115526636 0.0008880057003961225 -0.36292308786336663 -0.7806446648409613 -0.11591469098731254 0.08435396140502918
 -0.0014801344348404374 0.00021200394865779942 -0.0016433438353487472 -0.006542716021614204 -0.1214420317582376 0.0788897887208135 -0.2675536021746438 -0.8559786565197899
23876590000.0 0.2274931958300776 -0.8765797349536246 -0.045314240824049334 0.012702789313206687 -0.0020462989465227393 -0.0013470934431631964 -0.0005105885010665018 0.000875868291463759
 -0.04469288427861312 0.012109540705925964 0.23411970214859582 -0.8905795872435487 0.00019090071117933792 -0.0016691369762634738 -0.002849097037113182 0.001953996323122734
 0.002326050091278353 0.0010964667740133516 -0.00013855554228237035 -0.005902573193044947 -0.3504013232992448 -0.8118163564032751 -0.11871255929577298 0.09119376992512429
 -0.0014609844795124398 0.0010420562409186476 -0.0018763699489510622 -0.0027434803951978883 -0.11849135152254332 0.09124403602524447 -0.31634064765395614 -0.8077290148811926
23946580000.0 0.23109447465683475 -0.879563713304199 -0.045885457771046884 0.013424540983707624 -0.00031713108599133917 0.001033140788360885 -0.0031325327258245436 0.00106805473942154
 -0.04610666810561042 0.012390734993260726 0.22404509867493552 -0.8888906456310356 -0.0015200911586938843 -0.0023838518468649525 -0.0017401895675552962 0.00011347851501805593
 -0.0018740771213108605 0.001907414320400691 -0.0004344651008690421 0.00023461853632876655 -0.3455608088935322 -0.8154392418981153 -0.11379058784765457 0.07683712550613551
 -0.0009349004486975425 0.0025499079686461114 -0.005115295209729857 -0.003847307797728071 -0.1206004683559768 0.08064600021571679 -0.30941286094445986 -0.8399822115467843
24016570000.0 0.23303174316063516 -0.8820770172859466 -0.0471265327775237 0.011333915604331942 -0.0019459817807246365 -0.0018733732798605683 0.0006158370319359506 0.0015076242512737457
 -0.04819688460338249 0.011926541104837386 0.2443825283305299 -0.8891736787017177 -0.0018756460204299387 -0.0009054428054495445 -0.002627053750883554 -0.0009420649092382672
 -0.0019156341432019026 -0.0001872726189886977 0.0014215344807869928 -0.00018832537712382502 -0.37149526034869595 -0.7859753076026893 -0.09636114273843507 0.08510813081352928
 0.002173762025240732 -9.496057566457863e-05 -0.0052997796435766105 0.0027257516621168165 -0.13213948652404 0.11496188397281797 -0.3481989218985154 -0.8259748074236861
24086560000.0 0.21753933542141285 -0.8814736678175051 -0.04802955737920273 0.012898955101064374 -0.0008588793567426319 0.0002552695617769285 0.0018683003739382745 0.0006796324095549989
 -0.04817189158108694 0.01250852191272184 0.2284678107896723 -0.9027628238595349 -0.0017406844765943395 0.0006480257397939366 -0.00040735099650741305 -0.0006591662657636023
 0.0011177657129247589 -0.0010374159436365167 -0.0005660448125866716 0.00034849462015728964 -0.36550455429964135 -0.7841950720285326 -0.13139892979091441 0.0780499969344054
 -0.001601250432074579 -0.0030264068405350033 -0.0023332256581507513 -0.0016160057312987251 -0.11416424663778177 0.10124365991313142 -0.3184224854891205 -0.8150003603157489
24156550000.0 0.22320370769758396 -0.8892575502249636 -0.04916005176776669 0.014155399854896564 0.0003821395892351635 0.00019702465602836107 -0.0019344745924682557 5.276093489102241e-05
 -0.04978699224783556 0.013256878621349789 0.2073700023295952 -0.897652751344917 -0.00153743879971911 0.00090128513329839 -0.0033779052583342967 0.0014077328019253576
 -0.004667241854889713 -0.0006757281546004311 -0.0008094035043498008 -0.002859361755225516 -0.3774566260077131 -0.7975103139202381 -0.12894775286139548 0.08735835921910998
 0.001032173799542765 -0.0015907141406740558 -0.0006976110240506948 0.004105743367872359 -0.1380801400044877 0.07429285966068581 -0.30967514224444553 -0.845468012261395
24226540000.0 0.20483070012395038 -0.8824922263627358 -0.05169718317089606 0.013341887903454999 -7.077909947174678e-05 0.0016889565662310873 -0.000874573557504369 0.0005180169479150993
 -0.04931118214786972 0.013367151113495051 0.21837976447927648 -0.9153858675452713 -0.0003593570981574113 0.0013531385777289504 -0.0008516944216081329 0.0005418831033339708
 -0.0022538429201751555 -0.0020849634415591907 -0.0031452981218950764 0.0009253894724035039 -0.377032355042597 -0.8106049588518192 -0.13386264809731216 0.0806781579825433
 -0.003726332415742704 -0.0054586074209654455 -0.0010818930023194235 -0.001223451236353624 -0.1366796769794275 0.08113896689833756 -0.3366765435630257 -0.8192156720852344
24296530000.0 0.21532275745159515 -0.8788777347071688 -0.051361855677364635 0.012692605247388944 -0.001470757345427081 -0.0003844251046582344 -0.0006683488092024964 0.00037150024973220657
 -0.05010878146487409 0.012321808005107411 0.2128190932915714 -0.911457977789867 -0.0005673942593231408 0.0023074077223945097 -0.002638689637698034 0.0022644360275649767
 -0.0004948449484504959 -0.001680104633885906 0.0032844287526613007 0.001888525797836805 -0.37697274846424933 -0.780559890396819 -0.14655437002650656 0.09925871812053265
 -0.0019981793844096093 0.0009627586146453965 -0.00012381358497882218 -0.0049073814562230825 -0.1307838132412012 0.10756472410724681 -0.33373936649982455 -0.797559834347402
24366520000.0 0.21786661368067486 -0.8871443544639406 -0.05286066454206418 0.012072049049566639 -2.1079299304044574e-05 0.0006444218881965997 -0.0011123919543216804 0.0007824578496556199
 -0.051821217097084114 0.013253475943041895 0.23268390281898108 -0.9033894762278261 -0.0014673346869298557 8.449292837230867e-05 -0.002006513355227718 0.0021412686113932975
 -0.0008877759902104866 4.7743016544527406e-05 -0.00028108810606308955 0.00045871027358341816 -0.39102391924092783 -0.7824353313517438 -0.1275684304881628 0.10214858998620031
 -0.002273840864876663 0.000607296359875614 -0.003903462503117383 -0.002516352446000577 -0.11510502591222059 0.08784919358282908 -0.35810409051036546 -0.8113783086642984
24436510000.0 0.21259723391742202 -0.9010957744929285 -0.05223998810740634 0.012323789645530771 -0.00021433817133138363 0.0021318938728096073 0.00018940665958458423 0.00232988854701595
 -0.05378343425325371 0.01363417399020054 0.20458685359581072 -0.8897187945959203 -0.0009159608698905746 0.0010835825537593587 -0.0018603219026098684 0.0014921375362505775
 0.0009406194120282176 0.0033574674034538583 0.0012944726058719974 -0.003173414113920762 -0.3716940910264198 -0.753817237534571 -0.10649986253577261 0.08831902612422898
 -0.0031695269892857217 4.514309644832665e-05 -0.00043376212635933643 0.0013344278031344645 -0.12445921648828594 0.09334645683173991 -0.3585371942541018 -0.8154206450190205
24506500000.0 0.21393023917856133 -0.9071651182349202 -0.05319330161707876 0.01268999477463821 -0.0003768136932676006 0.001099468026393237 0.0010764093180522579 0.0005478936685111381
 -0.054034793254155965 0.012177068384147819 0.21310580256422457 -0.8926680361978951 -0.0008613120983833229 4.873663729202464e-06 -0.0029552876161850505 0.0017517298450823735
 -0.0011816674361045147 -0.0002703623214922462 -0.0021918999788830516 -0.0009646599954358934 -0.39727030992343554 -0.7718244524581654 -0.12357286627447943 0.09674800808978155
 -6.673441628156182e-05 0.001323294307167564 -0.0010667229121800912 -0.0008175259331892505 -0.13369545360026996 0.10643381970548128 -0.3521472792328551 -0.8084050928505991
24576490000.0 0.19540851889041164 -0.8955575213621815 -0.05351470562748655 0.013514174522728043 0.0005605649312187918 0.0015097117674507856 -9.411029077239227e-05 0.0012252697646709728
 -0.05486814817690071 0.012920744638759092 0.2093241024173753 -0.8932186671019829 -0.0016497081065278473 -0.0023018255716485254 -0.003034644215740229 0.0017768145536785553
 0.002020695322412622 -0.0017410865628183227 -0.0006028046233332959 -0.002456660935283644 -0.3694389136074652 -0.7655573288703239 -0.145667706778317 0.10109622121559378
 -0.0002767550680001816 0.000365548422059759 0.00035649073015153423 -0.0009678868883507196 -0.12060180972036627 0.10734850234006224 -0.3484223743770407 -0.8364260669693375
24646480000.0 0.18402071468020492 -0.9002587039224086 -0.05521065565423835 0.013893776003003221 -0.0027976397906386936 0.0002195894707400664 -0.0021297755519822433 0.00048476447293373747
 -0.05580125778376753 0.013501909956404568 0.1939171651789033 -0.8944201575217655 -0.0020359876625151976 -0.00010015701817759244 -0.0007064851188702815 -0.000425103473735244
 -0.0022766150694400493 0.001207268235759146 -0.0010154679970876958 0.0009695447767076744 -0.4049716068310875 -0.7547879782000954 -0.12864709107501898 0.10404407735860516
 -0.0014730011736013352 -0.0009557486556717944 0.0014537564193348505 0.0016367187189857224 -0.13623111176100974 0.09056966613350094 -0.35915310475335566 -0.8343490002615532
24716470000.0 0.1935510034627644 -0.8930820486764721 -0.05626752838467304 0.013910111394429981 -0.0025563187650360195 0.0007478395769740083 -0.0015455500767941504 -0.0006106881249433888
 -0.05721370427152498 0.014458594222681545 0.18492892511633477 -0.8983209886633738 0.00046830196140777155 -0.00020825814224793108 0.0010721710100907258 0.00074156149123861
 -0.0028059312939846684 0.002279838779557745 0.000713200005477598 -0.0008327013328420225 -0.3888478018410956 -0.7703857528276353 -0.12892418870618963 0.08472215478010399
 -0.0013378269471127305 0.0024913289897628126 -0.0013789841635155724 -0.0034210623366717147 -0.13123488834011318 0.07990253407854189 -0.3546370403570176 -0.8194707581307685
24786460000.0 0.18993255991892544 -0.8908121491715365 -0.05807487870620851 0.012998515181715617 0.0001478965224712841 0.0005370198711454411 -0.0017246187406115263 0.00045608257102931803
 -0.05677058666965674 0.014941256631814033 0.2120721901750912 -0.911448446960625 -0.0014431284474168032 -0.0005817056455167292 0.0005037212129614485 0.0007569520986854089
 -0.0003318375992243153 0.0021736375863975494 -0.00396723054519936 0.0032939740778902336 -0.4154321654313606 -0.7492466566182546 -0.1251337666374241 0.11158535539543807
 -0.00019476601106172545 6.990089820342501e-05 -0.0038920068165444912 -0.0032504850396493693 -0.1271310096506105 0.08510293722727277 -0.3787600441343388 -0.7774994234168683
24856450000.0 0.18328463581965163 -0.8994231344129028 -0.057730059738718496 0.014378203356235296 -5.033591942175218e-05 -0.0003023774712473968 -0.0020823280239330244 0.00036218493131752314
 -0.05910417080743782 0.01511469067645597 0.18920537146173486 -0.8972477570154131 -0.0028170059884308003 0.0011261859488353933 -0.0009025086301101658 0.00038712897367656384
 0.0003978050268543387 -0.0028364745245044727 -0.0029279706792944772 -0.00015308461755622073 -0.41963174711256945 -0.7458948024087004 -0.13473302669734685 0.10857187879334898
 0.0022508552138318654 0.0008723604979041494 -3.917678588103422e-06 0.006126266866508701 -0.1237750910648323 0.09076628154539516 -0.38201597513466684 -0.7914503197152725
24926440000.0 0.1698863821473028 -0.8823360224235441 -0.05770553706923164 0.013536305374245758 -0.00075496253858063 0.0005202888636054518 -0.0006943261847344329 -0.0022127551071229883
 -0.05851889448364743 0.014872996091083526 0.19688183890463185 -0.8998790852698989 -0.000978944127035533 0.00012414852613313226 -0.0009412221540781178 0.0009253175491609454
 7.772887953665793e-05 0.0002581924515267247 -0.002252740595732755 0.0010036962030503657 -0.43312450952106935 -0.7744041561227893 -0.1458148330298199 0.08025851874523861
 -0.00219546067745295 -0.0016037999867715793 -0.005814376826018832 -0.0017329763745414079 -0.13405279958995867 0.10556001427304229 -0.37553349372495837 -0.785543293971778
24996430000.0 0.16339282657040835 -0.9022144014420705 -0.0603027474710381 0.014399177748436652 0.0013415537324796977 -0.0007808120078890469 -0.0011034743917936046 -0.0009461093586933205
 -0.05928202972698374 0.015760323413599214 0.19662488485731813 -0.915429201328083 -0.002607024307143457 0.0016187552398608178 -0.0031792024861869287 0.0013142302483023529
 0.0006343791627326934 -0.0018505183099959835 -0.003079649575951954 0.00021793204218414715 -0.4388192521675209 -0.7620985963822702 -0.12875419208415192 0.10631805291939603
 0.001401375383628673 -0.000533276254635189 0.0010297140347258935 -0.0019813285688505917 -0.13874115790912608 0.10055257348236406 -0.37543007422278174 -0.776759714748681
25066420000.0 0.18043177152870668 -0.9055825183556223 -0.0618961763050885 0.01524829811446189 -0.0021719370335036357 -0.0006119235260866531 -0.000482711631935533 0.0008670016658064992
 -0.06143251467114249 0.015641824833556816 0.1665138151832164 -0.9152148446242395 -0.00279461888575435 0.0005258869095540984 -0.001111429167727166 0.002712776004008012
 0.00023078394130292905 0.004007560345480678 -0.004463422045961521 0.0011214157061826171 -0.4211738433477372 -0.7295768322139524 -0.1299968360308074 0.09306927997998334
 0.001332954054988155 0.0023198242731861077 -1.6129967520282754e-05 0.00087962789908024 -0.14103222529912282 0.0966014928418553 -0.3783413182032289 -0.7728129975704456
25136410000.0 0.16174987632077695 -0.9029669430790184 -0.0610281369129173 0.015444986067780744 -0.001340656752729698 0.0008488648227585103 -0.0017836270163749774 0.0004469440384793323
 -0.06178478256198217 0.014531200306762148 0.16858062563778467 -0.9068261748079453 -0.0006181664334750001 -0.0018776784341828256 -0.0012563369526990753 0.0006742970745147994
 -0.0030076565827447587 0.0008061354590718058 0.0013254547134674876 0.004682831633754695 -0.41636774786705855 -0.7567380340511263 -0.1273905701159882 0.10320671626409626
 0.0005175369153048152 0.0016138042896293326 -0.004492719609450876 -0.0007722083881169301 -0.13814141376733824 0.09965528836581151 -0.3935584785537534 -0.809857688892619
25206400000.0 0.1673460694683102 -0.9064338701842705 -0.06356662470355055 0.014807387657625399 -0.0007121805493080489 0.0002538776412802322 -0.00010362349886053961 -0.0005094577559776775
 -0.06398379598186395 0.015106145696913587 0.16760028902555787 -0.9128044007560545 -0.0013991458219094867 -0.0013623213647036322 -0.0024567874366183597 0.001221848176610122
 -0.0002504675879771665 0.0004276637956022806 0.0015584877653563867 0.0027956390678535586 -0.4221849083187205 -0.7591837074680869 -0.1354658792595438 0.11859517128451785
 -0.001339543398932549 0.0034897208841987073 0.0011026675619968149 -0.00023141312233837362 -0.15064210311904758 0.11017423622532527 -0.39050784788706927 -0.7862318817548788
25276390000.0 0.1508769175197599 -0.9128071590823865 -0.06381298060900634 0.01534794334527635 -0.0014324148549542072 0.0003909079024001384 -0.0016567471316235945 0.0016192884487689573
 -0.06356766023205487 0.01709927351460431 0.16680631537161225 -0.9134887861229695 -0.0010661892460424906 0.0005991178811077869 -0.0019250772436634896 -0.0010703007493603682
 -0.002589296346410652 0.00012055916443012079 -0.0013618437787953463 -0.0007660792557112997 -0.42605967875737827 -0.7328732795508026 -0.1287187761374236 0.11706389966140295
 -0.0016361923004857845 0.001233384729752016 0.001134211364963505 -0.004190961327984486 -0.13450995691711387 0.11834553130216255 -0.38057235196703804 -0.7793324657339156
25346380000.0 0.17456310035464298 -0.888524208563991 -0.06481283349881785 0.015754372742944823 -0.0012239488716462308 0.0006634219460843107 -0.0006802314695921187 -0.0003055397711382262
 -0.06493087114257602 0.01508719088061655 0.1739036549377193 -0.9084300849896356 0.0016854816206760238 0.001682225342020564 0.00032532422251295087 0.0011355067143791588
 -0.00037810769175609737 -0.0025994721704751876 0.002286006268191059 0.001169502420121599 -0.46654996221702827 -0.7617192792370154 -0.12356759826694555 0.11932242446860651
 0.001037711802720107 0.0034362588161686246 -0.0006171379638723185 0.0030901859775306147 -0.13789642928818235 0.12023624627827086 -0.41452733299928873 -0.7723002970334198
25416370000.0 0.15236157503760714 -0.8999464481050928 -0.06443331303568267 0.014938750571395968 -0.000829661219999179 -0.00017437280646247908 -0.0004207594359093643 -0.0008046196514728812
 -0.06402252029794528 0.016743335373139285 0.16784983215569924 -0.9033645189821558 -0.0014556460887524697 -0.00023776861630479213 -0.00040857899644823056 0.00038578542215316484
 -0.0028678949435719837 0.00021226077404538975 1.7293998928442173e-05 0.0010150886705234997 -0.43249764486770065 -0.7232380217716724 -0.14212033323018056 0.10843533567200223
 -0.0010496746846782616 0.0021499611577001226 -0.0017213816646664709 -0.0013485086285408164 -0.15412639095031283 0.11687301585492896 -0.38898021048574727 -0.7888744933078314
25486360000.0 0.14534435472536728 -0.9041620579090295 -0.06549849652297436 0.015938233311422273 -0.0007814574018192068 -0.00023112221493097254 0.00032708758107546427 -0.0011966712785394455
 -0.06645491830857232 0.017227375562900167 0.1523646182422113 -0.9055784682882709 -0.0019731374321389906 -0.001272989853458039 1.4918260892054147e-05 -0.0011147516241998981
 -0.00044931523367155524 0.0005537110857890142 -0.0027124105800116157 -0.0008993974640420325 -0.4416443839347436 -0.7401573221739414 -0.13460707513717454 0.11207199988911289
 -0.002096830730668154 -0.0013326819223584113 -0.0025676551169560393 -0.004761722212970721 -0.13999342194674186 0.12946886577161287 -0.4183570092565755 -0.7726582032592704
25556350000.0 0.15140658678095553 -0.8933279898565807 -0.06827367966815871 0.016028533581727896 -0.0018452230589880837 -0.0004868020659632407 -0.0012991200222268935 0.0017688611109630415
 -0.06777188727656375 0.016857858963658552 0.15763448118294227 -0.9142006132046873 -0.0005148588797951207 -0.0005077747666176851 -9.505839824915769e-05 0.00040822123829314743
 -0.002039306135824354 -0.0019497023401177625 -0.000973671788784854 -0.0001316490517178302 -0.459050985030495 -0.7513177265489882 -0.14422745392171735 0.10955158603425472
 0.0032831160746738908 0.0030218757264430392 -0.00011071279347394594 -0.0027391609119673597 -0.1393320700046969 0.11391249310181997 -0.4114063317779371 -0.7663796691448347
25626340000.0 0.14525807777111915 -0.9029836709538709 -0.06953519645363221 0.01657883075463507 -0.0006109719829994421 -0.00047312816536087084 -0.0006569032144979589 0.0021984776309143203
 -0.06873718203748516 0.016398708735154813 0.16156894713077571 -0.9214349667824114 -0.0022440579271341614 -4.8507057484240615e-05 -0.0021985375927651633 0.0004807778222377781
 0.0005575039906769186 0.00012885015062957624 0.00010717049278968023 0.0015512095826424827 -0.4681816177352623 -0.7299261767170393 -0.14018684727627337 0.10703136462156038
 0.0024968436428826463 -0.00012443374501053427 0.0002675143134522554 0.002339140448752224 -0.12463016269827618 0.1336078716454644 -0.4267902192312073 -0.7567726688141503
25696330000.0 0.14286216818742808 -0.8986976481409233 -0.07044950487272249 0.016604749315452444 -0.0009583555738678006 0.0008033010831184459 -7.58842889608898e-06 0.0007135073307686028
 -0.0679405352057605 0.01669948961574552 0.15373159044558854 -0.912569939703443 7.906287880456511e-05 0.0006595086027685395 -0.0006763425869057127 0.00036618997463123433
 -0.002692277436606651 0.001163440549012461 -0.005187477763163947 0.00014740022204387345 -0.4872541278351995 -0.7276427173290877 -0.157831534566444 0.10191521482196352
 -0.0009776557618853777 0.005842271782224806 -0.0010029368773011725 0.00040138168686558456 -0.13908501523505912 0.10950454822830583 -0.40948886207267526 -0.7486320882600598
25766320000.0 0.1405503004521484 -0.8978953199218156 -0.07089379500439971 0.01770248991681769 -0.0013969684011070989 -0.002882536060680405 -0.0006950818513263235 -0.0004787764817983417
 -0.06983952326596858 0.017709992800440666 0.14460832143410826 -0.9269366942523296 -0.0018217917699234639 -0.001066105252807185 -0.001671571088237942 -0.0010940579854497295
 -0.000591624897963021 -0.0020920541199996407 -0.005039691696978778 0.001930591271863012 -0.47527593211178637 -0.7224278566738201 -0.15903679727961062 0.09447645018152638
 -0.002716693286142835 0.001264414322067962 -0.002593106240947873 0.0014457892222705256 -0.13301383638980402 0.1268831248855305 -0.43307248604888854 -0.7452923502769983
25836310000.0 0.14673384984733448 -0.8852101290902874 -0.07054515105052213 0.015536820134000583 -0.0015919720434010483 -0.001064296527129381 -0.0010538615301726492 0.0016672438075606031
 -0.07064369549020103 0.01696944005296546 0.15616367461638048 -0.9013924578507995 -0.0006483539156114355 0.0004187875533554286 -0.00019496288398517775 0.0016904749930137938
 -0.0022762806746894656 -0.0012597590177877936 -0.004644912948386969 -0.002934939890916254 -0.49169565049438524 -0.7493642181462778 -0.15468046451363382 0.1099334045453268
 -0.0014610740442956795 -0.00014786689639983475 4.115441605761065e-05 -0.0037967280260774294 -0.13142462019858542 0.13334192652239946 -0.45535741543709823 -0.761244741371998
25906300000.0 0.12312985845135593 -0.9114164659339834 -0.07195798659311911 0.017624646985209675 -0.0009914284887398471 -0.0014505175301743165 -0.0015585223410683072 -0.0007331058781190662
 -0.07197490628446356 0.01841441774850381 0.13513198131598875 -0.9067352279868742 -0.00020870195705139716 0.0010144691912349017 -0.002424324597640968 0.0003695232654933739
 0.00030180636011459033 -0.0013391299850758053 -0.00200746780617785 0.00016348489585371349 -0.4883162998691016 -0.7073977099601281 -0.13225805484293252 0.11689974589632877
 0.0011484552632670965 0.002703216446494814 -0.002512884935249385 0.00023537833573918708 -0.1276076671271376 0.13106980218077177 -0.43834766714430445 -0.7760025396384179
25976290000.0 0.12280455501655928 -0.898116663464253 -0.07470034130837117 0.01733975204935343 -0.002054614186319902 0.0003640552659529119 -0.001281098097495402 -0.001769435998720733
 -0.07261718227579678 0.01865708256414226 0.13365951802734896 -0.9149293692052104 -0.0017471935536049704 0.0008549394771400381 -0.001256038665686277 0.0006730163876864265
 -0.000252946237072366 0.0007286385484642188 -0.003374513134965864 0.0021758174572843944 -0.4867547706952009 -0.7045778389185042 -0.13568795241464526 0.12608637847223456
 -0.0017557498824658168 0.0017975385825354736 -0.0006551280640865621 -0.0019637444904112614 -0.15073949160198571 0.13430304410859858 -0.41600777509915504 -0.7328361293072082
26046280000.0 0.12437127815573848 -0.9103038325011513 -0.07606249723413168 0.01778750421494092 -0.0010723867106492803 -0.00039057333553583486 -0.0008178440776088349 0.0010252073389055618
 -0.07522573482032238 0.017595839930655523 0.14488058400132398 -0.9407735158850692 -0.0002801254020282354 -0.0011496873961986565 -0.002481475351464693 -0.00019255115703176778
 -0.0010899575113309126 -0.0019072464627014438 -0.0008003384670104855 -0.0039602460871329325 -0.48011588637256436 -0.6829153592567002 -0.14108079025488773 0.12507872601152792
 -0.001198876438001048 -0.0028983920975858344 -0.0022679154406234827 -0.002934445541079128 -0.14717528364573831 0.12200904014290995 -0.4295352632489035 -0.7388220203826311
26116270000.0 0.11376916128850532 -0.901618420258625 -0.07490447886329807 0.019132179195600552 -0.0032284745770495907 -0.001306302722109973 0.00025565679454723936 -0.0004679106216767136
 -0.07404783908688943 0.01977541629512269 0.1244344557897673 -0.9155013628205885 -0.001294480262442607 -0.001260485346437969 -0.0017495981256900326 -5.9464741380014575e-05
 -0.002133691627616943 -0.0013594528419826985 -0.005444103486788955 0.004107269913268375 -0.466926017981993 -0.7118851403848976 -0.14777687413151894 0.13966846970435592
 -0.003197318163111277 -0.004119537253701162 -0.0019219411832767002 -0.0014711419139962984 -0.14993228127627573 0.1471411622567553 -0.46862428026940206 -0.7290417680409682
26186260000.0 0.1161157680437464 -0.900919196165737 -0.07586876510843542 0.017465341851477186 -0.0028773733820808734 -0.0012858519099840455 -0.0009588859000298216 -0.000737916470388897
 -0.07778918165596427 0.019349890449696393 0.13061590580318957 -0.90648668013902 0.0006233971114792089 -0.0008157480872891689 -0.0013475544587389426 -0.0013813677877106774
 -0.0012520214733737396 -0.001804062028241465 -0.0013520778326322716 -0.0036091703483889857 -0.49766487593984354 -0.7153210622077038 -0.14887417639318185 0.1317053338067049
 -0.0015403287734651436 -0.0008287124278030186 0.003522428731098905 0.0004175299448130488 -0.13429574064639163 0.1372829730215226 -0.47900729195933806 -0.7519024213265286
26256250000.0 0.1262333323492998 -0.9072394181937096 -0.07642259919851391 0.019779312901988238 -0.0005824764268980925 0.0018376003570754022 -0.0013033927081478735 0.0010396171943803894
 -0.0774257850941693 0.019332120753392613 0.1136024269450892 -0.9087467791269549 -0.0014509379552780134 -0.0008267481247650117 9.133705445793028e-05 6.045974412372823e-05
 -6.410698653030868e-05 0.0033547195394926553 0.0008106585478472539 0.0027926007671443286 -0.5236687213428165 -0.6738362488182844 -0.1367641900686699 0.12449471599855536
 -0.00394738194179199 -0.0018835319479603722 0.001226631154057846 -0.004292172726968731 -0.15325460249168682 0.1294542537488142 -0.48185984018389666 -0.743697252607135
26326240000.0 0.11075894670439827 -0.8914457437977805 -0.0781462791866263 0.022426979679502926 1.9438907062953373e-05 -0.0012316687357497727 -0.0001467350326680258 -0.001022461975210463
 -0.07857244030891646 0.020762961807020187 0.0915700520728466 -0.9154428300542652 -0.002100443271246525 -0.0004061394961284417 -0.0016493833129186488 -3.183968475489497e-05
 0.0013362757861361658 -0.00215377430297614 -0.00037759878425549327 -0.002046869327081543 -0.5134262359601512 -0.6801953143073722 -0.15476205623289532 0.12063391749516633
 0.0014748121522540065 -0.000994608580726966 -0.0011030967338110467 0.0012214297545581109 -0.13052784427376843 0.14589620470878986 -0.47074293283360585 -0.7455113970374112
26396230000.0 0.10951588743239533 -0.8990563181479915 -0.07850813241256605 0.02032068834243492 -0.0008956892086986687 0.0006453096423905373 -0.00014942051564049695 0.00016826975628040424
 -0.07799718626782187 0.019183785941424357 0.11006209054203558 -0.9201044199270999 -0.0012229372739088074 0.002264466696893767 0.0015469307058630605 0.0021602511736563807
 -0.0020237657355715245 -0.0003998942513432505 0.0009977932824473954 -2.5553769732633365e-06 -0.4913066719834481 -0.6840328922176612 -0.14810714790614887 0.12618774840234864
 -0.0017180658788477964 -0.0012300733230326492 -0.003744475098437163 0.0031629267444936633 -0.15758858966967 0.1398940242457696 -0.4719559328165697 -0.7564002819187579
26466220000.0 0.11833765688679797 -0.8852682467747277 -0.07981981845689494 0.01877228321520485 -4.322418762655617e-05 0.0029616194317323877 -0.0019973606282997947 0.0015072299785162616
 -0.07869462886729632 0.018253750956115103 0.11460633495819536 -0.8958246107958467 -0.0013138392242850465 -0.0010805290933970015 0.0008073679749005566 -0.0011172298100939474
 8.373686535052339e-05 -0.001460288453612421 -0.001141328976376988 0.001842620156628259 -0.5489232660737027 -0.674552213894303 -0.1492639882540688 0.12469742631336313
 -0.004828757983413434 -0.004052814462741187 0.00029166895666864987 0.0008147732067268516 -0.14196303668788973 0.1318043478502347 -0.5087421305620741 -0.7362341852785276
26536210000.0 0.08725603107994848 -0.9135481473965872 -0.08038703782459056 0.019963030483817146 -0.0018114722081629747 0.000807243069703111 0.0005595608025040919 -3.0274512860173097e-05
 -0.08014596969267243 0.02172922141048342 0.09991512152810543 -0.914551479400152 0.0006893033043964596 0.0011953846661212162 -0.0013275722124139041 0.0004895013908241352
 -0.002260276799782941 -0.0026831098170102636 0.0042714929449304455 0.0025497231771403357 -0.4725023461286339 -0.6575130040387399 -0.14975023770370993 0.13792493687724275
 -0.0007216394449923966 0.0022540622467298183 -0.002560198119510025 0.002639014784924307 -0.14723500572843165 0.13509625123356364 -0.45879431932055076 -0.7086645035564977
26606200000.0 0.08380497027313706 -0.9005073216805952 -0.08229788500830763 0.020764054766808357 -0.00040000976687913024 0.0018849066102672326 -0.001182566513599195 -0.00193528082590926
 -0.08117321769843225 0.023266079961759778 0.09154192836166442 -0.9136609958795767 -0.0010320590767424415 0.001411070163398098 -0.0015164493982730157 -3.165122863096904e-05
 0.002857244050040425 0.0012474845300580047 0.00261648942394567 -0.0036966507879538212 -0.5210984109910871 -0.6887532173483061 -0.11692869253710717 0.14321353332143766
 0.0023923033966465335 0.0013306635599616497 -0.0011233598057614983 0.0012104415013709552 -0.12379288251172509 0.1276520301263005 -0.46594145555367594 -0.723873307161833
26676190000.0 0.0907532874480427 -0.9075061808768541 -0.0823541221519754 0.02030692430467773 -0.0026012181911836342 0.0011265478971480595 -0.0001062176786849556 0.0002639731291243797
 -0.08263761288081638 0.021702388599003808 0.09591381009970931 -0.9004135260709454 -0.0018592972942428822 6.745921862269421e-05 -0.0008968895615270876 0.0014997691867451508
 -0.001027391388497901 0.0015475962262543586 -0.001087679556757877 0.0011170256534073545 -0.5050954180349126 -0.6484919984206318 -0.13064250497363009 0.15341109293870267
 -0.0017789563824218246 0.0017980917484044674 -0.0014144419770549125 9.521922157211936e-05 -0.13470135018157106 0.12955855327909802 -0.48575958201818636 -0.7147413184853476
26746180000.0 0.09550741239860377 -0.8868757225520115 -0.08315173435384945 0.020496210452382653 -0.0003574300007256683 -0.0007164082628680744 0.0007332816276565551 -0.0005095855504025497
 -0.08295105642181418 0.020009746744931035 0.10684997404082082 -0.9033760247008245 -0.0025522267599185086 -0.001524072048211568 -0.0005312165715755956 0.0008419761530178607
 0.00014306756101329661 -0.004189024127271656 0.0005813602965458422 -0.0021142541187276643 -0.533653975542427 -0.6685901223443756 -0.12769774582405222 0.13486626443000319
 -0.001200081281872099 0.0020526894743088764 -0.0045077175869582264 0.00137880141142588 -0.14097713934845185 0.14154963183056593 -0.5108944854195052 -0.7263578813740138
26816170000.0 0.09010452862246211 -0.9050757202935394 -0.0858756203246809 0.02279180771144199 -0.002901905063422627 0.00033835922522182827 -0.002873809574283453 -0.0004857537988920161
 -0.08585334116695927 0.021212367971920332 0.08797592517162191 -0.9257007142206698 -0.0015536796048137018 0.0005308318238032183 0.0007435779791878888 -0.001005699382249511
 0.0031410927905919503 0.00011809674749403919 -0.0034403661608321556 -9.665699163898634e-05 -0.5240515514201567 -0.6557283301083566 -0.1371890997222388 0.14456815735034728
 0.0003462212417808495 0.0018162814061494597 0.002611382262342009 0.00410843583233206 -0.14824263949099017 0.1571375415472789 -0.45732771509079073 -0.7393274594003831
26886160000.0 0.07931383201475499 -0.8937659802168464 -0.08584740407902426 0.021580740389938447 -0.0020736128867603473 0.0006484758146479195 -0.0009006787518251374 0.0009831491653236805
 -0.08499629060727741 0.0225303247344291 0.09314467279261379 -0.9125263568643788 -0.0030773767831521305 -0.0009978046097595488 -0.00028513968079712495 0.00030125701797884414
 -0.0026126743367865125 -0.00017591543097040648 4.610679635626752e-05 -0.0024106328900603225 -0.5463775157759593 -0.6737841776173265 -0.15150335189848313 0.13752236160943135
 -0.0016077340460827598 -0.00365352490181985 -0.00015650813196122423 -1.739036832653808e-05 -0.12646523739172952 0.1357593333616632 -0.5026438172388541 -0.7279874264644278
26956150000.0 0.06483810139323683 -0.898246279141229 -0.08551525681003647 0.02289103003898274 -0.000692951584442766 -0.00031255064181594385 -0.004467086532101504 2.8169260818406634e-05
 -0.08503748122645632 0.02334021243562565 0.08520174522155897 -0.9067537839555242 -0.0012898097039357472 -0.0010482821494731966 -0.003818505064222868 -0.0013798076258974726
 -2.1295515582560995e-05 0.0012223176933115758 -0.00012987819922257842 0.004688883678500628 -0.5191738527489091 -0.6548934862130277 -0.14969642022693855 0.14482445765846144
 0.000226871732130184 -0.00147255801764541 -0.008970057547096292 0.0068665154705029275 -0.12535124110033832 0.15472133739540936 -0.4869542904138528 -0.737093276027545
27026140000.0 0.055863158929071496 -0.9084004605992434 -0.08668645039865906 0.024592391238477014 -0.0010625386178262806 -0.0010081987210183883 -0.0018694654948330175 -0.0007903545733394412
 -0.08631897798806135 0.024758579612735324 0.07286496313145283 -0.9186174252332616 0.0006340741907138439 0.00018753908223462825 -0.000316670395795881 -0.00011930178188169111
 -0.0016983804714875907 0.002902009728569935 -0.002213144022783517 -0.007722525015173339 -0.5384180380593099 -0.6549213369951264 -0.11793712748669914 0.1270483583254596
 0.0018887047902374533 -0.0010619480744790714 -0.0009313722631863581 -0.0007263362260443085 -0.1524371724562389 0.13458685383994753 -0.4882285288176053 -0.7204115433897961
27096130000.0 0.07004540505104231 -0.914004135809831 -0.08846636446842226 0.025152404240751672 -0.0015013738897805464 0.0006356909987964266 -0.0016923843571313814 0.0022274617236328394
 -0.08809857091732341 0.02416848443653981 0.05270709569343325 -0.8997577782830726 0.0017642640052965672 -0.0009095741566967899 0.0018803790122755468 -0.0011696202269591326
 0.0009852324396994634 0.0007823789926712214 -0.0011265797277269104 -0.0030912732066788206 -0.5330641217378836 -0.6525122742394771 -0.1562048597389749 0.13835934279298098
 -0.003966470767125145 -0.0009092809981366455 0.0003601827433858007 0.0024711036028460583 -0.14726747603517784 0.14374844447729118 -0.4823000722537426 -0.7259969356065321
27166120000.0 0.06276383602683876 -0.9216701333038084 -0.08851932093866025 0.026716961406343536 0.0004437470506761895 -0.0005950836827066946 -0.0017981131832006938 0.0024620987722405257
 -0.08984876030685635 0.024174598643816658 0.05672460060158728 -0.919354606788179 -0.0013679522975009336 -9.074898117793733e-05 -0.0002786003052304522 0.0024301246509913503
 -0.0015129725841312052 0.0031168269581607713 -0.005094855816512914 0.00043255555231854484 -0.5298660967007255 -0.6490183095828058 -0.13584638909313748 0.17596581306548692
 -0.0015607744279710323 0.0005618395196268148 -0.0042344446005406315 0.0003110473380377131 -0.1434261788661073 0.15591525564397937 -0.5049337561569937 -0.6932703252122269
27236110000.0 0.053649282982774014 -0.9060170127745051 -0.08972750847679534 0.023124430291316878 0.0019130614037314436 0.002497179806818185 -0.0016358994834730063 -0.0020925155692795142
 -0.08838683394709525 0.025449226199459996 0.0573836534367674 -0.9101099316346469 -0.0003427042598961916 0.0004514912798292976 -0.002680698949191064 -5.766454011986761e-05
 -0.002171850620405997 -0.0016898144230787367 -0.0058716733337707905 -0.0030608080152003197 -0.5585767596822676 -0.6532378821823278 -0.1299548098000193 0.16873757522617056
 -0.005008438723044485 0.004301948297850403 -0.005022424360649673 0.0003878477165010468 -0.1618549140872167 0.13623656720411675 -0.5171021440698841 -0.6867113417714252
27306100000.0 0.05829523304345309 -0.9036536803032489 -0.0905044702452259 0.025007106238034937 -0.0030057326649831923 0.0004376532161750139 -6.010748623008261e-05 -0.002746094571797086
 -0.09094579048018783 0.024510621962439777 0.05796856408188259 -0.8986240554642909 0.000826115438464329 -0.0020061585262785685 -0.0008420141297285741 -0.0016042223432517551
 0.0026516627562284106 -0.0013435543160623812 -0.0033792157068820218 0.003560128940736191 -0.5657350759562257 -0.6505629327774334 -0.14580964270899438 0.15114754807459602
 0.004496610690839565 0.0015531036440545808 -0.0032936509070949495 0.0022699747579556784 -0.1418296847834721 0.15852315705995274 -0.5432141076057746 -0.7228571873355463
27376090000.0 0.06972203841959608 -0.9247391193789757 -0.09372482012562201 0.026470221214355185 -0.00012861891814505008 6.017013785525338e-05 -0.0011277885501571117 0.0022530059290912182
 -0.09423818191035943 0.026757340249220694 0.05515988876979701 -0.9212248876825759 -0.0033531036656719395 -0.000856446960274228 0.0005934055302973052 0.0017671081953510121
 0.0018110940400845087 -0.0008930572934521778 -0.0010820956550911273 0.0033293198241687787 -0.5483068387021672 -0.6177704525661323 -0.1377260072291269 0.15424933319899625
 -0.007782047664831234 -0.00392416133873447 0.0027904098715776228 0.001041137708010521 -0.145647636615881 0.15186350264175 -0.5400138127288102 -0.6755659787072924
27446080000.0 0.036295125077430226 -0.8943852033924825 -0.09206386862030852 0.028434095859705376 -0.003522306831631333 -0.0007964092262933643 -0.0018273489336652197 -0.0003691253421014123
 -0.09142139105840359 0.026002051107541273 0.048916220680582635 -0.9243877089859149 -0.002585404503429141 -0.0004644842986126553 -0.00027470928781108214 -9.701550897828297e-06
 -0.0016582665447065453 0.004306985311216766 0.0025742567300099653 -0.003911287754004031 -0.5514692675361518 -0.6413278065650504 -0.14576421184953167 0.16360159001033228
 7.361479481075095e-05 0.0008534407307847419 0.0045452531624751435 0.0023379899691940652 -0.13648700143640835 0.16069587672774055 -0.5149776254915149 -0.6798613462064671
27516070000.0 0.04402791149113936 -0.894278745539101 -0.09435324234018039 0.026008879991513058 0.0005070979797253937 0.0007171225290850154 -0.002134640447986986 0.0022233477107502083
 -0.0919287978029197 0.02610752468157289 0.05863987802376294 -0.9170932636716107 -0.0016311477089761164 0.0010948217137822394 -0.0015746571114840235 0.0004813278326660263
 -0.005035553964732647 -0.0032698895777278462 -0.0031138351395948775 -0.005469865316699361 -0.5771790950111783 -0.643995315198925 -0.13896166090662804 0.15325282220115238
 -0.0002506186910931657 0.004303012813791608 -0.0034065104430956 0.00046726989167448075 -0.14795000861852503 0.16745778424934923 -0.5274526778514663 -0.6641451420039574
27586060000.0 0.04840960371480332 -0.8987406608591827 -0.09330199014856513 0.026650145006174485 -0.001250890848766408 0.0007674961885161141 0.000324753239221939 -0.00017048545265720084
 -0.09403193372215028 0.02683201715323497 0.02352373228134587 -0.8964695810667701 -0.00042118478919728165 -0.0006134008758440819 -0.0014210047672433492 -0.00048144525579560735
 0.0012773406130061559 -0.0006762451125172917 0.002407771545109411 0.0030697759733674403 -0.5681942466057507 -0.6424526748504992 -0.14655879185505816 0.17019494391794746
 5.8662867027785005e-05 0.005522433543948039 0.0006045536480903773 0.003172869604011878 -0.15084359398685124 0.14893956962340715 -0.5384475508688055 -0.6972480090409822
27656050000.0 0.04572968922955204 -0.9029169755449568 -0.09640797410699599 0.028158424982987262 0.00029308325901310385 0.00098067832062051 -0.0017741045910784862 0.0025301859784269544
 -0.09615504246575862 0.028018991848101634 0.0323446780047674 -0.9162034301116003 -0.001662737084070973 -0.0004692473912302956 -0.0008369005837456897 -0.0014977334827500281
 -0.0024593390197077533 -0.0013825051309503493 -0.0008916700480873311 0.00446002295436482 -0.5397999757627971 -0.6317945465488618 -0.12341094138363323 0.17244406484197808
 0.0012679816207173255 -0.0003074765348129645 -0.0022625712145677326 0.00033814353364085937 -0.13828981534962753 0.1489780859348434 -0.5346029015558126 -0.6917078031095957
27726040000.0 0.024308851843194916 -0.9056239766773286 -0.09814705790351935 0.028184004870934917 -0.002618444447505335 0.001333657551196787 -0.0028172475305675046 -0.002051917931815434
 -0.09742284110171756 0.029179515466204488 0.04302710501170352 -0.9173895765064383 -0.002135077842886293 0.0006334807266128928 -0.001720059826981463 -0.0005711743054740741
 -0.0002987340914464679 -0.00015716228886093932 -0.0004697361444045377 -0.001594947304080468 -0.5756040231415284 -0.6125424126926452 -0.13801544109804126 0.15414515832566036
 -6.560629655087973e-05 0.0022565529441491467 0.003233057962245619 -0.0032296560454878297 -0.15582400387147927 0.16394616647266522 -0.546374985653878 -0.6696402982430398
27796030000.0 0.012898475890615404 -0.9134927838739959 -0.09603205932836682 0.02777488871115225 -0.0006323521562137903 0.0032240492064024035 0.001516398217540173 0.00041410264206851886
 -0.09791734358304498 0.029878789039900197 0.042271433595650325 -0.9172733373979979 -0.0004700697595518266 0.0012087261734988054 -0.0009300960639445547 -0.0014290095739434446
 -0.0026479183663523902 0.0030590191406140114 0.0002666508079334957 -0.0038196742087482694 -0.5424441449057509 -0.6359606232117189 -0.12070969657038995 0.16314051095402665
 -0.0013451319499844028 -0.0013942537625954788 0.004666405069856172 0.0011697755572509332 -0.1334169210044419 0.17656823345055772 -0.5459860595247312 -0.6835362136732622
27866020000.0 0.034118673723972426 -0.8898183975882118 -0.09871674149095015 0.028681359304428274 -0.0020391607414892822 0.0002623005761422288 -0.000435720707870751 0.000173330026049165
 -0.09808181417054786 0.027480360578381584 0.017844613204064996 -0.9105477416553117 -0.000802181057676462 -0.0013515480501216173 -0.0018114507067179923 0.0007160888652679166
 -0.002668611461863413 -0.001148142899287526 -3.945943349742992e-05 -0.005802043179148416 -0.5940995245489054 -0.6150920437282515 -0.15062175279458928 0.17644581484724045
 -0.001101051398435944 0.00430121216603991 -0.0014292199176620007 0.005005410079355115 -0.14752186385104518 0.16360978300923038 -0.5589964931820227 -0.6826368978753654
27936010000.0 0.022586617427926767 -0.8987972046032734 -0.09947869805273946 0.030626261560754 -0.002126435639389176 0.0012778783379171568 -3.7059399027769423e-06 -0.0007788325314237096
 -0.09879540535003134 0.028872391834283175 0.019891867908196078 -0.9102546570361856 -0.0013691486072240728 0.0005876043524841427 -0.0025095610749396443 0.0002182871018699151
 -0.0022305136753533795 -0.00037412046167845374 0.005098797635158134 0.0009503874908331553 -0.5806088471165238 -0.6357809640215354 -0.14871876906605286 0.17587341697152123
 -0.0015204052533032348 8.430644985017172e-05 -0.003066468969131082 -0.001485850379478714 -0.13657046698562114 0.1684592231043725 -0.5213447213885415 -0.6600634875473951
28006000000.0 0.022810353409815777 -0.9082306062181278 -0.10235383768564463 0.030520396049095847 -0.0013126209020977821 0.0003322587220223082 -0.0003132893540548322 -1.5375023801357523e-05
 -0.10112102710393893 0.03170433393521127 0.024038350237947842 -0.9348091390929217 -0.0008317067777777897 0.0009722493576961703 -0.0005650860495108854 0.00112296256815908
 -0.0016016944972909988 0.00037279376373864514 -0.0009872177873942005 -0.0056337020572091705 -0.6064420612466893 -0.5887576052718968 -0.14129719478630207 0.17506463733401822
 -0.00033494704297857463 0.00391117515126909 -0.0019147897333869964 0.001778081049972219 -0.13262866240907936 0.17831272332276363 -0.5466668899716736 -0.6571718316378587
28075990000.0 0.022546994880796787 -0.9129681039126692 -0.10185664465360571 0.03248290197801396 0.00035297061331385503 0.0017863656851130384 -0.0001552782029759945 0.0003160346820509768
 -0.10173618366883802 0.030838067113828378 0.006644767920312766 -0.9072092214872572 -0.0005497503348189072 0.0016851498016519403 -0.00034007019594696047 3.807707250631802e-05
 -0.0021857010485438104 0.0006290605211025945 -0.005780829230859623 0.0020301620676319646 -0.5900583691258253 -0.5865610978257348 -0.14107370122366877 0.16645909237666145
 0.002043707143347221 0.0009019847949015825 -0.002225346209707513 0.00036084995061666075 -0.1443643104708863 0.1602917349737121 -0.5591145255106482 -0.6569991623479218
28145980000.0 0.017782959410685185 -0.8832819413793159 -0.10401385104393368 0.0313184752277464 -0.0006652312327995787 0.0001276951995163201 -0.0010398799706901538 0.0017430519802499192
 -0.1014988029313659 0.030583416953917343 0.02119513547478435 -0.9136065825956904 -0.0027202529510958274 -0.00021753321427863114 -0.0008109646707579578 0.00016480396515051093
 -0.0032961783157860088 0.0019023208049118315 -0.004568090202124481 -0.00040213868292046515 -0.609358177308212 -0.6174498285981141 -0.14095127785700334 0.17665765860101718
 -0.0055486157675212625 0.003990698412579902 -6.411011702579485e-05 -0.0023891625562655755 -0.13775210572697677 0.18624013211633966 -0.5808063228804584 -0.6487232680192494
28215970000.0 0.012724855482457994 -0.8885958378480875 -0.102273257225871 0.03005992877212967 -0.002199078863357149 0.0006395199915190763 -0.00242535917643502 7.069925587998446e-05
 -0.10116652914221153 0.03202876535282321 0.0010915373112505085 -0.8939458266832953 -0.002221123333308911 -0.0004605992057403985 -0.0038864914395825463 -0.0003230654760328177
 0.0026546570835311043 -0.0009174749244083802 0.001283395917568365 -0.0015459983994972966 -0.6076656649292292 -0.6046019710777956 -0.14707575187323482 0.18399742701993102
 0.0005331965204002888 0.00019021052806805238 -0.000625277635069302 0.0007621633740495026 -0.1426574317433452 0.17292320983767606 -0.5776750923460338 -0.6605193180399743
28285960000.0 0.0022073787970943136 -0.8954491127031418 -0.10519930359269755 0.030840374033693243 -0.002041955925552956 -0.0007010175645087601 -0.0017581634350723261 0.000866439036740661
 -0.10441157111690692 0.032813286303053565 0.03283256179493933 -0.9173942640851087 -0.0018675317411877143 0.00022386332492805986 -8.938591908063312e-05 -0.0002915598919072507
 -0.001894792565848738 0.0013184361070717127 -0.004301301175254511 -0.006084870867672073 -0.6141088481985073 -0.5890573689808644 -0.14012600387686402 0.18082785035645854
 -0.0015630883818563606 -0.0019636570336422797 0.004214059018451254 0.0004880195158800194 -0.13741982009250817 0.17154822176823398 -0.5611837472110054 -0.6196988378051711
28355950000.0 -0.0007462669397410963 -0.888199750224537 -0.10647092253556159 0.03160868078310339 -0.0020552325351836103 0.0008955392099840672 -0.0033366824587479837 0.002417796809761053
 -0.10310115068810459 0.032209777811502076 -0.0011683165039071614 -0.9188684795730441 -0.0016428292682492713 4.738343225493632e-05 -0.0010820434651199339 -0.00012653272500523147
 -0.0003730990518306555 0.002859036275561172 0.00015178260660570186 0.002646228050617943 -0.5834703391424632 -0.5997171217543166 -0.12648086845624829 0.17140786956697562
 0.0014116230420453987 0.0020549882736637386 0.002701267684679303 -0.00015143453634273708 -0.14339235980329143 0.16606011376405108 -0.5696363507989352 -0.6377708574012338
28425940000.0 -0.0007200979335236003 -0.9148240333880012 -0.10757793988889584 0.03203235360535423 -0.00042986904114064535 0.000675112808681795 -0.0022741572284057346 0.0008444731000896776
 -0.10833166850188478 0.034429559913810144 0.0004682951874950131 -0.9055462510250335 -0.002967684496716386 0.002147858539614795 6.756293725431524e-05 0.0010568561213635547
 -0.0031723778972934167 0.005786743783008835 -3.8515396846726216e-05 0.000635761173404011 -0.6165895213373336 -0.5765019444054923 -0.14531845132034799 0.18016074938868562
 -0.0016493561261702106 0.0002414823828582549 0.0004261469967926072 -0.0012651875468805448 -0.16425403719161558 0.17014885992511367 -0.6050338332300397 -0.6577596473783663
28495930000.0 0.00046041935389091906 -0.9172490809635891 -0.10571661750331755 0.034825952036266775 -0.0014727537511465593 0.00046452138590606906 -0.00028740924220259503 0.0003714954595845945
 -0.1099805699847884 0.03150837861047912 -0.002195160719486439 -0.8889192798982851 -0.002606975642053543 0.0006330109120728712 -0.0034393706400041584 0.0002761149887703364
 0.00029978427507610565 0.0027636357437047752 -0.0016738073351429054 0.0015552671091956136 -0.5923180572445133 -0.5863685950394222 -0.13240119583303622 0.18850671223861207
 -0.0018901911383907303 0.0012994372757908345 -0.008910148188829958 0.00439179507171073 -0.14862329596283919 0.19992964533073987 -0.5686292878804933 -0.6548368667700892
28565920000.0 0.005920368325580006 -0.8883953088739107 -0.10687101180176006 0.035331378933424015 -0.0007086795924568344 0.0007892541640140778 -0.0036697049291258294 0.000571065069935178
 -0.10649095492462032 0.032673227814592296 -0.009399691065378251 -0.9042484168101229 -0.002989262432510828 -0.00010435077910591726 -0.0005239620161496196 0.0014309499329242207
 -0.0006007314500767085 0.0006170601142228636 -0.00915684477735537 -0.0002913009290187847 -0.6161126390983401 -0.586863788770619 -0.1473713124717523 0.20187957671892753
 -0.004599731280927044 0.0026486602448405447 -0.0011884443655102257 0.004683656522595411 -0.14621510398782497 0.1749823628781536 -0.5541008462963453 -0.6384906473885049
28635910000.0 0.007066458214679672 -0.9056481726659095 -0.10881728829847413 0.03412880479369597 -0.0012869454796281396 0.0009532318871415536 -0.0026076680603041966 0.0026955606895103764
 -0.10985450502242108 0.03196870938183015 -0.0008329995343841165 -0.8926004077258872 -0.0028420432063591167 -0.00021743593102830077 -0.0014425925633235507 -0.000995356328957422
 -0.0053968665470976295 0.0015984095426701535 0.0011440154888117157 0.0004102459004721738 -0.6303128130205923 -0.5668015885575548 -0.13387457561415095 0.19125451085577444
 -0.0025629613732218314 -0.001301890424596605 -0.003587620940874812 -0.000584801824992875 -0.14777578841463432 0.1861881602215104 -0.5862467616006702 -0.6334591735737571
28705900000.0 -0.00752197929238222 -0.8747580431691834 -0.10824663369956714 0.03415184308308432 -0.002063052421592079 0.0022196115614703978 0.0015636961289921367 0.00027206921241755447
 -0.10854899930462955 0.033314828064427954 -0.005779118408336091 -0.8996944275862621 -0.0007906004829143282 -0.00017853058343957425 -0.003744141318812976 -0.0035960887743990877
 -0.002627788981611225 0.0029672623792872943 -0.0023085858255512243 -0.007570367737540591 -0.6154898678480912 -0.5718103678554725 -0.14524150088155313 0.18492739512962322
 -0.0006870186303814245 0.001889733207256287 -0.0007846525618048383 -0.0026203838648874976 -0.12211146098910781 0.18742298091426454 -0.5875946550496665 -0.6182461786907419
28775890000.0 -0.027233448242448822 -0.8861844444698166 -0.11051403584142075 0.03796998890762206 -0.0012926745453060294 -0.0005876785750163971 -0.00028565740803596903 -0.0016010494009218845
 -0.11046256361188038 0.03792773305305774 -0.03288938207460679 -0.9196195610714708 0.0013960213277627075 -0.0004394117601055066 -0.0026236392840224745 -0.0020386847277827818
 0.0023265122574065026 0.0016975073202105558 0.00033315544784892707 0.005295221476208217 -0.5962063357329356 -0.583944195339783 -0.12009917829282234 0.18879996677410765
 -0.0019685088095527594 0.001330061642153652 -0.0034988924597238614 -5.059769648648526e-05 -0.14141098022560855 0.17848535689753497 -0.5596411247573156 -0.6158424998498485
28845880000.0 -0.013710065472536757 -0.9019456586304361 -0.11341430807867287 0.03658942047464767 -0.0008122015370313726 -0.0021533722126448832 -0.0008808541405044152 -0.0013343747495216621
 -0.11270327140136337 0.0371386683045656 -0.016483823565271723 -0.9046268475880274 -0.0032665881633852888 0.0003557014989418963 0.0012257948832377498 -0.00221261364599593
 -0.0011587976900034205 0.001999256089224344 -0.002298092988940949 0.0010737530240182086 -0.6577950751716082 -0.538657901281139 -0.12611372881845778 0.1982397629753929
 -0.0020638803921605394 0.00023805811327128192 -0.005181858334329891 -0.003613153375464489 -0.14333002338983716 0.19012664648122127 -0.6028627652974358 -0.6238271190247261
28915870000.0 -0.05081852855372554 -0.895641405127142 -0.11087796652588167 0.03525223827608015 -0.0005938689868968649 -0.000535653663437598 0.001138787474943966 0.0004358335981731396
 -0.11220228643109265 0.040896628361662496 -0.013339743545699266 -0.8940633547995854 -0.0010863523413755074 -0.0002739373673630882 -0.0006511499486459233 2.8871625206135383e-05
 -0.00037999022552577267 0.0005467403914466853 0.00021152719546715812 -0.0034354912716255685 -0.605573497097128 -0.5979818268835564 -0.1340320041682919 0.19927353901313705
 -0.0010058490417053237 -0.0013219970573386045 -0.0017424532349486683 0.0029207551247263735 -0.15798305360823608 0.20530597955644053 -0.6152108520354292 -0.6261414727311383
28985860000.0 -0.027803903681751403 -0.8960469884374644 -0.11238192338086946 0.035875156298544826 -0.00265711801927635 0.0028115235234912393 -0.002105174319995608 0.0007757341149773831
 -0.11238813998822504 0.03740943488271157 -0.024402781278781423 -0.8994951836472432 -0.003154547904892952 0.0027271822303605955 -0.0002890801452953762 0.0023393334113881972
 0.002121887743943957 0.0017835116465991674 -0.0021642416177379566 -0.007127785544108919 -0.5941697111930718 -0.5353572082413014 -0.13861374839261098 0.18841288209882187
 -0.0006641525899304125 -0.00020837597461581268 0.0012037102072387025 0.0005886683560276181 -0.14288131515670813 0.18540058790355676 -0.6084218981720836 -0.5983163277421416
29055850000.0 -0.03361480559014725 -0.8866484527884926 -0.11591037554134241 0.03703251549918699 -0.0007759752667310842 -0.00047236074578233016 -0.003810091133160867 0.0005522128657152826
 -0.11334350020194241 0.038873132195407764 -0.0172408498701559 -0.9094764630452732 -0.0014409504615957595 -0.0027080949510497223 -0.0010272180822525237 0.00044962627502621925
 0.0021382519157787496 0.0023677160309301523 -0.0007793653615815274 0.002841396582660058 -0.627274800381279 -0.5531533427750939 -0.12753000634393982 0.219898184670876
 -0.004418113882959392 -0.00161504282526988 0.002732045273770078 0.0028203274046139154 -0.1329382021503944 0.19970220061235044 -0.624401510464401 -0.5898460987144243
29125840000.0 -0.04760129465659804 -0.8869275925197465 -0.11760775450963246 0.03931015271489151 -0.0021207768093388824 -0.00021682685280036116 -0.0010169471594061014 -0.0016826636464981957
 -0.11526904273837858 0.039763014772485 -0.033374783476217744 -0.8996063614387966 -0.0008205910690975945 0.0005234449012761514 -0.0003328064061595094 0.0016982424193839542
 -0.0011048902933862765 -0.001927398091581413 -0.004641435147304995 -0.0019320524828648571 -0.637266830774404 -0.5533859581699824 -0.12655549379293024 0.18581237742499004
 -0.004130371472915129 -0.0006296381197326665 -0.0015166259154297222 0.0033308893240424587 -0.149895324169961 0.1896363500244966 -0.5974182346977611 -0.5796243544137007
29195830000.0 -0.046774947166837506 -0.8855194737889013 -0.11804836111277853 0.03943978839124488 -0.0009680644295194187 0.002762812162099081 -0.0007893482870337133 3.4641750804303165e-05
 -0.11579371221553317 0.04328589361140457 -0.03704659199441303 -0.9112854522337493 -0.0047115485531443 -0.0018020209757835734 -0.0022142103155396004 0.0005270337660415882
 -0.0030741681997458856 -0.0002356646266072788 -0.0016295664640495749 -0.00465375400740443 -0.6569066911542595 -0.5505793933247188 -0.14166415064582058 0.1759763182746759
 -0.003821594147947883 -0.0019716441097719505 0.0004111760245731187 0.001690865404985232 -0.14343792816424178 0.20619424150548957 -0.6331696049595423 -0.5875255046052666
29265820000.0 -0.031657924455163675 -0.892487043281649 -0.11605171297891775 0.03906338314261905 -0.0005341783390721448 0.002441465638846553 -0.0008944964526741012 0.0009474524835198874
 -0.11788294705571731 0.03907874763038143 -0.04329312330559017 -0.8956784801390404 -0.0014269746630436227 -0.0017011809653363502 -0.0019625889329427833 0.0019346527639507896
 -0.004134601154535725 0.002115846046437083 -0.003213579742886336 0.003642424232090393 -0.6572890222700235 -0.5254962593351669 -0.1195160329581878 0.18712512795465314
 -0.0033640432532147622 -0.001480368638889949 -0.004890355575636058 0.004440373020655105 -0.12268751270197506 0.19193926435605566 -0.6142711681882211 -0.5930621843470553
29335810000.0 -0.07103053130374408 -0.8880924777209611 -0.11774829780962186 0.04095798454912942 -0.0036194799393459544 -0.0008842551073214431 -0.00016063092223233475 0.001393968838497417
 -0.11634913254731641 0.044497136018577445 -0.037952926154872606 -0.9032159425409191 -0.0036030904985126237 -0.0013621125178037605 -0.0015416399413824098 0.0012354045927592135
 0.0002717066620507079 -0.003898718656076413 -0.0031848963098573824 0.0021965713707853864 -0.6339815847296671 -0.5582675716149174 -0.1287460083021371 0.19049275306734914
 0.002287531775699172 -0.003196171027273291 -0.0041014209229305355 0.002592610299160257 -0.13004779516625464 0.19439662794004398 -0.6198249779650105 -0.5877747149569387
29405800000.0 -0.057974280910183355 -0.8913673634670216 -0.11889230103922964 0.039548591243596436 0.0007030643777820743 0.003081335940366645 0.0006747734513014553 -0.0011451805616865382
 -0.11848350126715143 0.04282097612609977 -0.03306747197702364 -0.9042211312174306 -0.0014764071911078226 0.0016077195198403375 -0.0019820784252159492 0.0004898797419018547
 0.0021783431773187197 -0.00021587596055011992 0.006200875940905559 -0.003977582089599443 -0.6281334115819253 -0.5121215333717308 -0.1221179497301773 0.20259070136716553
 -0.0012416125105257768 -0.0005025265009520693 0.0026679875354238347 -0.006275819978394235 -0.15647304918030305 0.2103841321344067 -0.6139720371166923 -0.5898692078103854
29475790000.0 -0.07120169684944624 -0.8933440719162107 -0.12061515455175936 0.04271751539739437 0.00011571870258001177 0.0008137101365906441 0.0006195341443493709 0.0038601065754410727
 -0.12178547938772129 0.04532573239424951 -0.0510397961652354 -0.893672358813667 -0.0006883922151360383 0.0017408014542075927 -0.0011742356218737073 0.0013805225970273624
 -0.0014863189571077472 -0.001059214555709395 0.0030590619722680014 -0.0008896278713766933 -0.6343193322863936 -0.5225839188540892 -0.13224966543047684 0.19629424706854817
 -0.0012511014419568965 0.0006159817172673613 -0.002807716395201027 0.003866590036285932 -0.14765640598799837 0.21238327800922027 -0.6274417025769619 -0.572880795548024
29545780000.0 -0.051143815279420045 -0.8836458611450592 -0.12098084146693629 0.04671488896890996 -0.0038160161674614217 -0.0012765693551690799 -0.0010117752392357735 -0.000795353993957764
 -0.11997792339386985 0.04288462139653494 -0.0797088721934588 -0.9019523769144401 -0.0017255107758007398 0.0018108063561885364 -0.0038846300169515027 0.0014932159895961273
 -0.0011041426721882502 -9.552621789715441e-05 -0.0023775743409367896 0.0010477133843488113 -0.6960056873110753 -0.5030654556439069 -0.1197704489808406 0.22000333284231477
 -0.0027946427913989936 -0.0024623790761995803 -0.004983446976421488 0.0009487504901281146 -0.13424943832404587 0.18361680646319245 -0.6227598791811516 -0.5700646967122082
29615770000.0 -0.06387658522316411 -0.8791497949964212 -0.12374418289371304 0.04424300292470383 -0.000773057552095863 0.0007020704650777042 0.0016009609799527036 0.0010823056670133037
 -0.12079098406126584 0.04508478124938995 -0.04752346422303912 -0.8982435635914866 -0.0025891267016205028 -0.001746335413559145 -0.0009564457335595172 -0.0012013536728736809
 -0.00176460654669773 -0.0030030378486951862 -0.00058492714882229 -0.0035048181396641655 -0.6492337167050813 -0.508809967804984 -0.11626869015631645 0.20779299443128604
 0.00018588713584033917 -0.00021908413631469736 0.0012669924342552168 -0.003699623352013437 -0.11464515382784812 0.21546374004811392 -0.5975235877925414 -0.5398339065940784
29685760000.0 -0.05829610212203989 -0.8866617903557145 -0.12367460262175746 0.044448317715208976 -0.001832738262943492 -0.0006419235442340056 -0.001932816958378589 -0.0006958759761987151
 -0.12036892696130988 0.045341315408544795 -0.06105555140480999 -0.9040822472316395 -0.0001908440775058079 0.0024625793859363227 -0.002627521726235715 0.001864467922405165
 0.002462048548239677 -0.0014189170752196571 -0.010204391140405453 0.0033038565486792296 -0.6534180403848107 -0.5140378877828969 -0.12788958342605397 0.2246851508808261
 -0.0033323967033038653 0.00026547838436754374 0.002615148618645106 -0.0032957619039236936 -0.14013674173763974 0.20371051100419127 -0.6262003952271952 -0.5466563944861385
29755750000.0 -0.06867548771565056 -0.8779429663218593 -0.12432427663928128 0.045884136951033674 -0.0001208957072533645 0.00042082052765925545 0.0005015025441442055 0.001625744391235345
 -0.12276501332365673 0.044570739212022335 -0.06745961652312822 -0.8969936250833359 -0.0028353515331374216 -0.0006635483661373734 -0.0042431580742785585 0.0013566047200169323
 -0.0032707308769958946 0.002155838890317603 -0.004810686967738849 -0.005339697212447023 -0.6489762850697097 -0.5256881884510637 -0.1306301495950926 0.20376199793966068
 0.0018079709216989282 0.0023037588595295044 -0.0031069155636820997 0.000695764758878708 -0.1375865374357573 0.19080283049452146 -0.6341742622900842 -0.5556548236180341
29825740000.0 -0.06638921770663055 -0.8863622086826506 -0.12318707043170121 0.04747342586204984 -5.2873950711101946e-05 -0.0013720652650572253 0.00038552234866503376 -0.0011068815272996086
 -0.12435018580664361 0.04384111652741725 -0.0767662483331256 -0.8947917682631056 -0.0010286906675965792 0.003793274650055119 0.00015640777158758314 0.0010548150938219142
 -0.0019113540958910272 -0.0015677705363854797 -0.001098812536014814 0.00034830637153478183 -0.6689776014008888 -0.49500835071539245 -0.11666762729056807 0.19196755176852015
 -0.002547548438988161 0.0010251565187523674 -0.0035368023053109904 -0.002803677221865987 -0.12123566150131303 0.21190031029073092 -0.6180245489171213 -0.5644843121592171
29895730000.0 -0.0869623733951134 -0.8895485765572889 -0.12661270032064145 0.04636023132522033 -0.0006980905779015648 0.001957276592321288 0.001640062963336241 0.0019987155626478843
 -0.12459106922004735 0.048401256921788 -0.05199106037685791 -0.8979609701376613 -0.0032505632735617533 0.003997906463084028 -0.004075375421107036 -0.0009822033882598358
 0.0018091325842362373 -0.0019271060569279843 0.0009591109107231601 0.0029033399171855337 -0.6466597893375171 -0.5013278408670999 -0.09790869461854076 0.2297581495516632
 -0.00042929069753864786 0.00017505832364314355 -0.0031924524555341062 -0.0010059883470586966 -0.1326268481479362 0.1986071447315871 -0.6557734856505204 -0.5427266745056897
29965720000.0 -0.06368107342683758 -0.8870182772009357 -0.1276104107235224 0.048405592956987646 -0.003133711097532632 0.0003386702909803363 0.0002403804491984184 -0.0010542597061919542
 -0.12673598289004892 0.04656949815207709 -0.08572870595122467 -0.8955493289159149 -0.002008705569884224 -0.0008052677099817906 -0.0013641908512420189 0.002515237735001695
 -0.0009719533853413501 0.0018130349044427178 -0.0030400663806611577 -0.0003132540515052104 -0.6730651002697814 -0.5016123456536141 -0.14726510784168476 0.2202463259020651
 -0.002568534381121856 0.0005561955762443711 -0.004450450547017514 0.004052453279807891 -0.10894623317471908 0.21936596821864424 -0.6373507213225534 -0.5262270522809979
30035710000.0 -0.09571508942073706 -0.8891467686426551 -0.12925282868246232 0.04697215171695421 2.4405574813042895e-05 0.0005242094341456923 0.0004424101042847068 0.0006180061293572218
 -0.1263469980850825 0.05006054101623351 -0.07461332007739895 -0.9091034629611805 -0.0004707082256426721 0.0061878471104894 -0.004273195861439525 0.003301783852346168
 -0.0007299778359085465 0.0022938452854909344 0.004985127578194372 0.001434258224385908 -0.6536336784042608 -0.45155009039163 -0.11727815723836499 0.21228522906732272
 -0.001558510711002915 0.0013450472749000817 -0.0066278249108162315 0.005874185206535509 -0.14598937099985618 0.2002072706996325 -0.6364991713688624 -0.5286701650509666
30105700000.0 -0.08641768696573399 -0.8891513897224552 -0.1251101821635764 0.05138567119663177 -0.0013259720231685677 4.686933931235775e-05 -0.001760939815927352 -0.00054340495940017
 -0.12703230768138854 0.04877585378241183 -0.09074025280528232 -0.8823086027702188 -0.002131889960472082 -8.977386136164532e-05 -0.0036003978452433787 0.002133987873125846
 -0.0014474192352170684 0.0038661140468551737 0.0012590665171005276 0.009836097709978477 -0.6700780873476371 -0.4776709658702491 -0.1336066853696886 0.2267928922969059
 0.001684729329287386 9.451530446922887e-05 -0.0017023981568744261 0.0038990094904571724 -0.11940042776735241 0.21480951831395445 -0.6494936878499202 -0.5838447803179262
30175690000.0 -0.11619542353331364 -0.8851105291659633 -0.12899606425562773 0.051069769259457366 -0.0040234056475950365 0.0025798183337044406 -0.00024056433106881851 -0.000512769178429999
 -0.12712189322577666 0.05239560384900727 -0.10281937520761664 -0.8952015582651763 -0.0011742283423394663 0.00018240976178177386 -0.0035816645552221842 -0.0005041096073146447
 0.0014813148524659254 0.00397487549534969 0.0012814904599042225 0.00032993668869173186 -0.6603001751895056 -0.488744469829973 -0.13418636081691435 0.21157607515401214
 -0.001403464483836016 -0.0010503191262918017 -0.007412003420871821 -0.0005745519838748028 -0.1317661664415575 0.2107536999206349 -0.6433619579189216 -0.5371580405462135
30245680000.0 -0.10315612048874287 -0.8626382509447659 -0.13039747269271884 0.054272820665959114 -0.0007637453197013199 -0.0009596505417098551 -0.0025750581875388884 0.0005149587047787865
 -0.12759876206307988 0.050407896061745394 -0.10880851273401185 -0.9019709398412016 -0.0020098501516812597 0.0005541711052096445 -0.0035842085332527013 0.00020377086693937498
 0.0025028830993688573 -0.001433010935290745 -0.004508169385752136 0.0003491722025659068 -0.6589669123381555 -0.46990292699113634 -0.12176792268014205 0.21344380618009312
 -0.000980185632014295 0.0023524761574810135 0.0006505900261914528 -0.005640612329608613 -0.1419522618980324 0.2205752626068809 -0.6425954342872996 -0.5317731060243847
30315670000.0 -0.09287924581531107 -0.8857167568341197 -0.1307914473254455 0.050590209701349 -0.001406747142499748 -0.001165839998158385 -0.0024519049260001706 -0.0013813744587624784
 -0.12924767602404197 0.051389219576410156 -0.10725856567584773 -0.8881331310554403 0.0013465384536067004 0.0002398974632632521 -0.00538092391877422 0.0030272823520218115
 -0.004267462255112383 -0.0012092113457300437 0.0007931056526383334 -0.0033624353956212398 -0.6662681080222539 -0.47589915687546613 -0.12398297989600886 0.21635250007411608
 -0.004759319530206733 0.0033875007833084124 0.0001036193199444691 0.006653295865649759 -0.12378895188730718 0.20922899962490996 -0.6653129392904246 -0.5357670667092816
30385660000.0 -0.11553320180286716 -0.8858025203549531 -0.13351717141853697 0.054029573949077016 -0.0016122443799896477 0.0006918450132058336 0.0007701025142674426 0.0006753108958562336
 -0.1313592883065416 0.05327832730667043 -0.10162027990533361 -0.8991222208267502 -0.0035720230796314847 0.00310814544287126 -0.00257036123547108 6.334346846811004e-05
 -0.0027887921580701685 0.0009248487881955845 -0.000786111188596062 -0.003524892082408397 -0.6897013461571893 -0.4655142413832397 -0.13528800591400902 0.22493556793740044
 -0.0017460637402991364 -0.00010121248911939686 0.0013113818091250809 -0.002437254862124929 -0.10942940671252359 0.217208649996482 -0.6513699852769755 -0.5296863435600724
30455650000.0 -0.08498046484279671 -0.880172734737142 -0.13152818055453566 0.053622373422793 -0.0028635747985767926 -0.000389954679988755 0.0009191624038826667 -0.00046830854922517344
 -0.1328331609367278 0.05084548803819781 -0.11235288507651192 -0.8836968235132484 -0.002376023642064048 -0.0008152973974337531 0.0003634566561884902 -0.0012229096243400522
 -0.0018254654428168132 0.0005235472342507695 -0.0005438803517069936 -0.0014807910173407098 -0.6856679395177283 -0.4757605037081461 -0.12488044128084706 0.23286102577497222
 0.002168450469163931 0.0035293218065600715 -0.005490342457154312 0.0012386111627032848 -0.10795451672229252 0.23234082647382354 -0.6711150667905558 -0.5299101476434559
30525640000.0 -0.10411574917158539 -0.8720870776048801 -0.13317008486812135 0.05356562183671557 -0.0005805635908983436 0.0009029647028471385 -0.0037712893975363716 0.0018022720782764124
 -0.13235458562828767 0.052844563014415556 -0.10903718275526879 -0.895076997810997 -0.0019670814599818407 -6.461210388643744e-05 -0.0010232911951301778 0.0019999359384008574
 0.002421131309436445 0.001934164441291824 -0.005541691921408131 0.004106341908582208 -0.6989832628135226 -0.4733753589110386 -0.10810714723736076 0.24725102012394795
 -0.0031138404226903837 0.00015825252581422712 0.005356129886126637 -0.002331227301955249 -0.14266216341273247 0.22921685963785976 -0.6549063467797154 -0.5168947206289636
30595630000.0 -0.11668448390388081 -0.883864011072767 -0.13476843060465316 0.05665862813928348 3.883023552345082e-06 -0.0010643442292436118 -0.0050216175123229045 -0.001230937287324408
 -0.13408012730447164 0.05499710232861922 -0.11447006837589235 -0.8968884401300949 -0.0014202955767807176 0.002374589155692479 -0.0009355385302071004 0.001894574716046201
 -0.0008824740728220993 0.0005285264483961358 -0.0024866078071498366 0.00014167005490615936 -0.6882262507976263 -0.4554285623532699 -0.14554787929315538 0.2192705285360043
 -0.0035791475360977794 -0.0038366082331413856 0.001845333273172309 -0.0006937397876205017 -0.12625575477124515 0.24154810874386204 -0.6751419289205209 -0.4934003259133425
30665620000.0 -0.11318610553000628 -0.8568930036572531 -0.13105392975411392 0.053757417309177304 -0.0014287043174947953 0.0034189469113705914 0.0007973214470153061 -8.542714916734317e-05
 -0.13483290665509143 0.05344456582732735 -0.1138868611526511 -0.8665021607183522 -0.00130112927723824 0.0010124894442411284 -0.0027974909322574944 -0.00043094491132143986
 -0.0023747080795154703 0.002038831588946364 -0.0024963636026922357 -0.0006680114294362497 -0.7025101266400419 -0.46983689725604333 -0.1272340502399949 0.2118233568335989
 -0.0023264170929518362 0.002745965264712819 -0.0011548531061763834 0.0008749621060868185 -0.12173427863057956 0.23131903629043718 -0.6943533517072377 -0.527077262232977
30735610000.0 -0.126081855965384 -0.878572904060911 -0.13838334487118922 0.05174601953827965 -0.0031309540323332346 -0.0007945735354537543 2.2926669876414986e-05 0.001071945462637798
 -0.13623795616970566 0.057929790346983874 -0.0989273957741817 -0.89136309668854 -0.002461640176640213 -0.0018979503855463204 0.0024312497196595883 0.0024980712491905243
 0.0012211974934982798 0.0028969341567861517 -0.0012237509629044086 -0.005055716154318365 -0.6849333774119338 -0.4713931958484193 -0.12196454451288923 0.24445205658594502
 0.002756597604130333 0.0028402184059335427 -0.009377360829597996 0.004037559533222428 -0.10737644435636019 0.25024691154497253 -0.6817666744198163 -0.5037979571234028
30805600000.0 -0.12229427193623876 -0.8680439376152497 -0.13749753226126712 0.057379756354462685 -0.0027949452234462004 0.0018001355322819828 -0.0034323773547008125 -0.0006779731873594885
 -0.133652891418241 0.05615285994336903 -0.13115016780323094 -0.8804420278035942 -0.002864696031364755 0.001118436472952527 -0.0029325468006217536 -0.00033781353570314814
 0.00021088232351795604 -0.0007267152179857417 -0.000319592772019623 0.001439342762845378 -0.7285787326178351 -0.4482719561363442 -0.12789058535914788 0.2237457991510085
 -0.0016488269038119115 0.0013836526496696427 -0.005524603023330787 0.0002539723795494255 -0.14262497791539303 0.24069371075117438 -0.6811783147556839 -0.48892123974048407
30875590000.0 -0.13270702645263158 -0.882760540318016 -0.1398667439346772 0.05712441383392433 0.0005860787818463838 0.0017822301158679974 -0.0028198431844283474 -0.0002847486770283511
 -0.1409900968990856 0.057761882545840304 -0.11961201067849955 -0.8908940572622425 -0.0027354295459278604 0.0014294644698511377 -0.001467771941279506 -0.0017702709582516495
 -0.004312503672062269 -0.00017184351977928363 -0.0030567997408167727 -0.0043044050239650295 -0.6969217473503906 -0.43529225646717434 -0.12380971049931686 0.22674021366938926
 -0.005767668928456608 0.0014813041631800065 0.0006647246371622436 -0.0030666880737506013 -0.12635002316774663 0.22724692982157352 -0.6455064937295276 -0.5206869678582999
30945580000.0 -0.1257282070718046 -0.8797631906505748 -0.14179326970745626 0.05712705418937194 0.00014923433542207617 -0.00016946263728134797 -0.0010392143301267242 -6.31896859264764e-05
 -0.1402819215596393 0.05742515034715489 -0.13791602112877022 -0.9035347440153814 -0.0006961594215932599 0.00198789700772534 -0.00464004699983402 -0.0021949355596095166
 0.001198704677199813 0.0008601828125818206 0.00238022563245832 -0.0016360550241219089 -0.6878078471824344 -0.44914817078971103 -0.10894946135970097 0.25478619859155993
 -0.0020192002702085366 0.004455807944423949 -0.007062927694204838 0.0028376607844806277 -0.11966950779018776 0.23003882540995207 -0.6866943313608801 -0.49493898356785193
31015570000.0 -0.14764531789393068 -0.8685757580917689 -0.13773218815923238 0.05706659400103301 -0.0014152886238017995 0.0012187979054296956 -0.0013266547073804156 7.845533341467977e-05
 -0.13879391115969852 0.05830112076318826 -0.12900829434647682 -0.8639201485782784 -0.002336620860840777 -0.0004402589796259053 -0.0020402638055596815 0.0016021416081850608
 0.0019632012482009697 -0.001121367927770158 -0.0015543710703369228 -0.0019712785949992893 -0.7137775707614982 -0.4339119036285364 -0.12191256495232072 0.24751145905833286
 0.0021371519346708332 0.002485138564544339 -0.003995690499469493 -0.0002285289173982826 -0.10889570370767457 0.24937104484225997 -0.6876142015781683 -0.4866310072376585
31085560000.0 -0.13577254763789876 -0.8524046295485175 -0.14177930548431109 0.058672415981343665 -0.0012069593580328786 0.0009782312499780799 -0.003795747384031944 -0.0014723114896409042
 -0.13962168933947716 0.05934959849519967 -0.14330542808174995 -0.8822672633125258 -0.002330141860704415 -0.00017183047738701885 -0.0026357501091193868 0.00202211677490122
 0.0012620536334046566 0.0017508767477428114 -0.0021818364796003255 -0.0057778135918426605 -0.6899737348602865 -0.44567421956832176 -0.12284252926421857 0.23285267342026209
 0.0015081636318089778 0.0007520619551735897 -0.004582866416907517 0.004651022968220288 -0.11095652905682361 0.2500976840744699 -0.6867175462574189 -0.48206936503957315
31155550000.0 -0.1456083274490984 -0.8801100907125808 -0.1404157500308572 0.06241642399617073 -0.0005642787029216637 -9.256700200862768e-05 -0.0024417500627680953 -0.000142304119396196
 -0.14022711830541135 0.06237068202535066 -0.14686316635892313 -0.8803633695537479 -0.0040927331134308674 0.000845977658584193 0.002675068399550215 -0.0016584504435978597
 -0.0018148371753312778 0.001554707070547587 0.004182713120244426 -0.004136828383292917 -0.6767029817594354 -0.42063228356538923 -0.13492407583567123 0.24305519839744968
 -0.006926248383761346 -0.002255260094932302 -0.0054877735941046 -0.0025589092291851243 -0.13103497678214124 0.23301343957685902 -0.69478585735035 -0.4969007648438961
31225540000.0 -0.1426846299025458 -0.8575264848335112 -0.13971006086309207 0.05977160150041542 -0.003697103280120107 0.0006303769440664591 0.000615167046343147 -0.001053453866901745
 -0.1416189777697668 0.061148473914504696 -0.1355028824678898 -0.861164928335026 -0.0007507846540417487 -0.0006248134729683637 -0.0001823784136309377 0.0016486705143559286
 -0.0046286609928067254 -0.0009446986896631434 0.005335040922143112 0.00207287684125277 -0.7149285640772142 -0.3840436740025877 -0.11500278545034412 0.2479868541298101
 -0.003952626245492369 0.0022803760651767552 -0.0026901714818587425 -0.0017488540831290906 -0.13740883771050494 0.24612333525805727 -0.6943405497393035 -0.46249527025097253
31295530000.0 -0.13839397150208949 -0.8645074468228904 -0.14799911022746107 0.0630537107617789 -0.0013368406912404448 0.002994909224421757 -0.0029623937783882968 9.700461048785467e-05
 -0.1419596925277944 0.06151618221697462 -0.16076584482528428 -0.8831564641715691 -0.0020424632161738857 0.002004839925920495 -0.0022731451014254855 0.00040018277836776327
 -0.005129177909151466 0.0019212420449526103 0.00296100966539405 0.0011832404625762725 -0.7271021658193334 -0.4290654727192726 -0.10931363595025607 0.22887745897282374
 -0.00023521288942055687 -0.001092156311254226 0.0011476480803897494 -0.00043151886488045814 -0.11258656992089008 0.2463498810687664 -0.6872527712854702 -0.4853947452185419
31365520000.0 -0.1331208400513216 -0.8737422604086538 -0.1483610359632882 0.06199688328701727 -0.002178389579014257 0.0014640930038999063 -0.0016837099904790588 0.0006333613903011857
 -0.14637817498576036 0.06220200156875906 -0.13537022020874712 -0.8888092931658441 -0.0054329050793671535 0.0004626313964556806 -0.002028534855223658 -0.0006725002171332052
 -0.0033547427414979234 0.004223901852844862 0.0022215852356903686 -0.0002982947950005131 -0.7336866585216655 -0.38658365301148745 -0.10437847398411841 0.24071898892566576
 -0.0008163817951302826 0.0017020064004529118 -0.006388479888331236 0.003072398284745952 -0.10891657011218413 0.24284897078623077 -0.7151758659740509 -0.4397004334799514
31435510000.0 -0.16359510386181206 -0.857571172211644 -0.14569867145671256 0.06198381489987523 -0.0020668110522656003 0.00037863730082035894 -0.0017913417087425572 0.001697117382755581
 -0.14564455323370054 0.06554113312448921 -0.14615542852662777 -0.8702001338548258 -0.0038271569672178513 0.0016796140951447485 -0.0023944379293865973 0.001770420170367662
 -0.0012757288215408662 0.00011363582589033972 -0.0022574157454818915 0.0041779655138826505 -0.7056186733601316 -0.3931053335603046 -0.11445771425546877 0.24385117547815388
 -0.002220789959175971 0.001959977950486992 -0.0007927654481637247 0.0013845826953595096 -0.1195327216772349 0.24971552038071396 -0.7203235114760578 -0.47800393073601893
31505500000.0 -0.168067831178158 -0.8677710155916791 -0.1458171796743723 0.06420818496273373 -0.002419560432970078 0.0013101512873314265 -0.002642168269779999 0.001728696691934934
 -0.14800029574869525 0.06651893798659776 -0.15180399387789467 -0.8679541553867992 -0.001095713056038725 -7.625460035296097e-05 -0.0024455619689975755 -0.0006450723861000316
 -0.0038439801573242733 -0.0005147812323293226 -0.00044572958697241096 5.982540985339065e-05 -0.709475143361351 -0.40100460168713264 -0.12339456212103578 0.2483187734937215
 -0.005980907372543604 0.0033044035889651818 0.001859139847716368 -0.0015099253323397712 -0.11452460519528442 0.24828742734931114 -0.7156383015325083 -0.46321349347939134
31575490000.0 -0.14946529224747618 -0.8523355720558705 -0.14898808324205676 0.0632984709012458 -0.0024316033315285993 0.0005749052553152723 -0.0007735782590974417 -0.0019764568588072056
 -0.14778325133435113 0.06483324637072414 -0.15684478794632362 -0.8706255349159192 -0.0025695823579973006 0.0020364214302032403 -0.0032251372548146055 0.0006434860675316516
 -0.001220129947334118 0.0028399703682402216 -0.004597848786828701 0.00375452632939022 -0.7493095262741788 -0.41423337391410936 -0.1291555578708898 0.25999757616739955
 -0.005429087354281165 0.0010821389961166257 -0.003257239256380049 0.004032980286513286 -0.10744541587240142 0.24705801193416194 -0.7248066612567783 -0.45952569668197435
31645480000.0 -0.1522288450630453 -0.8713968220658891 -0.1467267094954081 0.0675798472318565 -0.001388725300701986 0.0008550446149360354 -0.0018225814029264123 0.0005825818699765621
 -0.15083372858914235 0.06545732236369005 -0.17438720618519296 -0.8785868383054077 -0.0001034064909816715 0.0013816772439728157 -0.0013521003421598568 -0.0001922012453106372
 0.00021191000944284063 -0.00016779665619076408 -0.0009046254870951267 0.0041421094626582205 -0.7280395042798867 -0.3806956104858021 -0.12337180495899767 0.23687691931852017
 -0.0032095846935720268 -0.0005018557483800209 -0.001164971057157016 0.0016703506447164511 -0.11206346701349017 0.25975159619998833 -0.6874158196821021 -0.4612245005751004
31715470000.0 -0.1561158189979838 -0.874863713310962 -0.15182036765449683 0.06852719593553423 -0.0023234691771420843 0.0009349237443226186 -0.0022351346978826624 0.0011707214390418083
 -0.14753477840474066 0.06922969715282498 -0.17489610096322553 -0.8912552634631767 -0.0035662090744669602 0.0011622902540021898 -0.0011478511954181767 -4.844236819147215e-05
 0.00018209242975054135 -0.0010821386156355018 -0.003924691124947883 -0.00014774625924265992 -0.7155396825613362 -0.36662989237044186 -0.10122367634815105 0.23890729576059958
 -0.004894747859906744 -0.00020122274885497776 -0.0065582228099717544 0.0040340775920473405 -0.11675333740754737 0.24868555647223192 -0.6999082345917501 -0.4241333160150793
31785460000.0 -0.175129712615437 -0.8508731898981327 -0.1487654235073597 0.0676558803671405 -0.0036239800430733146 0.0010168260485082 -0.0019449719503999638 0.00048638930037614084
 -0.14819916998429408 0.0703527068545879 -0.17453888255686026 -0.8795117720106302 -0.001836787302795874 0.0012577545655121007 -0.0020119552140347697 0.0003453845453958066
 -0.0024860198058654494 -0.0004987865701963584 -0.00024787899927328303 0.0030385309123599413 -0.7260398790698833 -0.4005905569965983 -0.1089627581096777 0.2557056727546633
 -0.005813245278198561 0.0013545173310442616 -0.002749885800687577 0.0015516949272903317 -0.12256723269996804 0.247123399213484 -0.7082309767703477 -0.441783926867217
31855450000.0 -0.17593358673290158 -0.8451156881749369 -0.15046610375768563 0.07131755051795234 -0.004113123468361285 0.0022495465791048334 -0.001289462287244121 -3.823655950435562e-05
 -0.14929378148011552 0.06962984028582671 -0.18497547175631826 -0.8747293799445929 -0.0028433919734960865 0.0010939591869073638 -0.0029702697001689022 0.0014659029322629294
 -0.000234872706801506 0.005873588965301168 0.0031006784968221368 0.000858806277297656 -0.7334025044609381 -0.3923443070810034 -0.12299782109826517 0.27401249642163644
 -0.0013385053204819336 -0.001296816535798016 -0.0018455803997687143 0.002099700772134959 -0.12272477184105174 0.24422338802305654 -0.7239252832618338 -0.45310748087153513
31925440000.0 -0.190800013556071 -0.8566940089191958 -0.15068141529676243 0.07503440658479836 -0.002061564813253361 0.0005459016198915735 0.0007509189611369726 -0.0006900283030136194
 -0.1526852647079735 0.07399085690334578 -0.19182643576246153 -0.8757410708473354 -0.0036343972543611963 -0.0005675913131153206 -0.0044805440135098195 0.0014703295249506897
 0.0010346791257513448 -0.001060222894245013 -0.0015593293346626187 -0.001632800117626261 -0.7175723350341976 -0.3877002436403763 -0.10513917051864503 0.24834044576879838
 -0.0010050756315906496 -0.0005404422948794171 -0.0033481078532124928 0.0020066991909062945 -0.10175428787622338 0.2488036244274759 -0.7106191384472006 -0.4617001469631421
31995430000.0 -0.18826679535837462 -0.85623661273123 -0.1530010926310649 0.07359827887521027 -0.0010366680007408717 0.00046404540606716937 -0.0024309917745234037 0.00023527696205940933
 -0.15042089682549853 0.07372462189454307 -0.20423698108921756 -0.8740894297732205 -0.0034409452762161185 0.0011337014857649588 -0.002443214231999403 0.0011717300787519572
 -0.003252909165539482 0.004284804129230124 -0.0015076717929547836 0.0018162058367593979 -0.720648319931558 -0.37960923230187166 -0.11671262949105807 0.24922385347537948
 -0.003280252307962849 0.002482140553657956 -0.004060064139127814 -0.0027002588500898606 -0.11451979501027482 0.26565286718559444 -0.6712313615806071 -0.4456172698809794
32065420000.0 -0.1742969235567777 -0.8707285205665289 -0.15333111500524021 0.0732137166261862 -0.00045276733371593496 0.00240961711628309 -0.00390953744330441 -0.00030319750712002995
 -0.1562305141971489 0.07347420642027645 -0.18580279586685186 -0.874959383884109 -0.0013433096520695542 0.0019045168596124524 -0.002835890518817406 0.000821696843146944
 -0.001992539673402148 0.0018319774417904584 -0.0017358263341865135 -0.0015915395220137075 -0.7433371213682393 -0.33925348058718485 -0.10931329136894884 0.25382018393951733
 -0.0040723194387790726 -0.000995428121209081 -0.0017632186534027345 -0.0013108525970957608 -0.1332732723075277 0.2558792611052758 -0.7238739820417683 -0.4257853538768291
32135410000.0 -0.18387070796742408 -0.8614868203286732 -0.15666466681037514 0.07162715387313827 -0.0044969701170433736 -6.812671161692057e-06 -0.002587239089156258 0.0006026406375235042
 -0.1570136321545891 0.07473933528047641 -0.17535605499299117 -0.873895518368107 -0.003457735273721402 0.001721289092272907 -0.0027149348387864197 0.0006356775096072869
 -0.004498526008745851 0.0009621669065508421 -0.003028648783895403 -0.004490325523963683 -0.7265789360912891 -0.33364217208393476 -0.11493048803970919 0.2660841829890541
 0.00041095714563662715 0.0003377352107037419 -0.001527571896700164 -0.006025141672460434 -0.10878332112016141 0.2577796885162189 -0.7294508202684888 -0.40778990523423936
32205400000.0 -0.1971806627597203 -0.8619936691202251 -0.1546504134501038 0.07545344156569725 -0.001959126675110811 0.0020112894023177866 -0.001806622842735245 -0.00021002401988078501
 -0.15471995702475286 0.07645963777979166 -0.19412910706014042 -0.8637169375390397 -0.0035261974107459364 0.0016236594681493918 -0.0028879102899593257 0.002590873485305655
 0.00046619623332086913 0.0044117682484021755 -0.0017802328468643858 0.0011353306371685008 -0.7098455660281175 -0.3634136215453495 -0.0951880442415359 0.25830722260374017
 -0.0017903047394123557 0.00016306596944849294 -0.005324881698458084 -0.0013866705232772844 -0.11785389134169731 0.25681339684259646 -0.7209998529013083 -0.4076297714154201
32275390000.0 -0.18905710883654886 -0.862774121181835 -0.15663265954555444 0.07516751229989065 2.1937318292399653e-06 0.0028219925882428604 -0.0009649693038267819 0.0001791949201148731
 -0.15932533803408458 0.07669694439377714 -0.18589655632289273 -0.8556906246263519 -0.00369789111284709 0.0022936921817409985 -0.005364052414933773 0.0016498393187952683
 -0.002826885846563913 -0.0018592061014597223 -0.007694854637881946 0.00022831074472520364 -0.7287579806912728 -0.34024206322002365 -0.10774159200185549 0.2708954168426097
 -0.0020013810096043273 0.003354032924772073 0.0009718192518037301 0.002498782461137523 -0.11090756286100313 0.25608254036872036 -0.7615570948026481 -0.4355285193872912
32345380000.0 -0.20967276904290183 -0.8683276765972208 -0.15511302803732133 0.07686418606874343 0.0001281631632233065 0.001047407934070672 -0.0007084301848530553 0.001102587350134719
 -0.1597501756624138 0.07944738378061919 -0.18942224802400542 -0.8556935735349362 -0.0021303810455635145 0.0027411322844579276 -0.0017578283525086732 -0.0007497446958499485
 0.004521767712969941 0.0008976758445122177 -0.006776174839774168 -0.0012026771788651025 -0.73738755061522 -0.31068725919609474 -0.10540840439215972 0.2691724271392404
 -0.0008773087689404858 0.0005275571783342488 -0.002025858300920431 -0.0010890752282769946 -0.11308692289380916 0.282170298790113 -0.7335541582618098 -0.4366685182284743
32415370000.0 -0.19611366914131392 -0.8510268640335259 -0.15822779484077093 0.0755223193492982 -0.002116497376488338 0.002805394981864391 -0.0016070464703124537 0.002796230011840031
 -0.1596732140446242 0.07482834584402305 -0.19603090275590362 -0.8634959227055351 -0.0005401456045192169 0.0036278933344775647 -0.0032802189681329676 -0.0008377881214320127
 -0.0033008591813531675 0.00040300819167098204 -0.003391633172821959 -0.0008437556930998994 -0.7480312486085726 -0.32824753951910807 -0.08139485612498724 0.2645583990979455
 -0.0013229161936398129 -0.001306108240613996 0.0026634566214803314 0.0015844989131393184 -0.09844541707772309 0.2610489595378946 -0.7448570133788522 -0.40141304844844367
32485360000.0 -0.22552673766959708 -0.8378855876974407 -0.1573513017808618 0.07699095965500222 -0.0018259855654194138 0.0027834271665005896 -0.00202861300561868 0.001758777211579164
 -0.15576185380591448 0.08150926923243382 -0.1861746366194507 -0.8545905611531116 -0.0009652972634462838 0.0016657075594540022 -0.0006970278322443569 -0.0008214011893415862
 -0.0017719922185890013 0.0016551059723041832 -0.006958355729601303 0.0016091879159316807 -0.7012309155052617 -0.3407702069217478 -0.11061010709871275 0.2666953699845759
 -0.0012192785635753865 0.0003685677754740548 0.0005299031049574711 -0.00036385049009909177 -0.10429504562076143 0.2636315946767964 -0.7255973889203162 -0.3899738359842519
32555350000.0 -0.22157818299233162 -0.8486718867122475 -0.16201790569910307 0.08015517716653361 -0.003114579824285979 0.00028996710563461127 -0.0016314655985709922 0.0003503724768902107
 -0.15885642302387531 0.08325264514776015 -0.21279239646238193 -0.8600472872153613 -0.002406760379022135 0.0013161508908309557 -0.004613181532436313 -0.00023441212489555302
 -0.002478675332845666 0.0025116860461097687 -0.004358907046776648 0.007184217714043924 -0.7036852512647555 -0.35719450336084346 -0.09361865049220255 0.2580907572219904
 -0.002883436611075408 0.006373554059731981 -0.0022958241362382482 0.004384961722078187 -0.09519879246086342 0.2754555692990843 -0.7164136034500147 -0.4078102373294218
32625340000.0 -0.21856768029957635 -0.8390102032599898 -0.1602350576847588 0.08322053288671183 -0.0008909938283154931 0.0014935653068082735 -0.005052436458083787 0.0005972799382189529
 -0.155332278809058 0.08138534272115737 -0.21351813093083585 -0.8588709332344743 -0.0011654051049843916 0.0026521498925550797 -0.003078916803000434 0.0040200425868422455
 -0.0020145866376173236 0.0033608819946845257 0.00036942870050449907 0.000408884970109292 -0.7351387175389453 -0.3511441520941763 -0.09550780264334335 0.27990682617246365
 -0.002849719751549539 0.0013480909570617301 -0.0069784525509264915 0.0016188789182917784 -0.11071139701053699 0.27617178257185315 -0.7464633266409341 -0.3809937924774103
32695330000.0 -0.207772690242845 -0.836676826327087 -0.1593745917960265 0.08318660328368739 -0.0010774412721806948 0.0025936416069197448 -0.0027323701083890135 0.0016183017084749778
 -0.16164407388292165 0.08080175628011765 -0.21934756331698113 -0.8541785708681036 -0.0021875414122071216 0.0007218806243442316 -0.0004705258289518454 0.00016047152666086206
 -0.004641730372444945 0.004862829749332716 -0.005357660930848847 0.007466996570845261 -0.7474277660224163 -0.30502114311709777 -0.09585786913745097 0.27201374328628103
 -0.0032585712687307877 -0.003183694929491091 -0.0008217453524217629 0.006931541948114471 -0.10257639429205682 0.27097128085190203 -0.7107345385836769 -0.4087251500648697
32765320000.0 -0.218624232277732 -0.8469913524508178 -0.16189276722184204 0.08355157375746775 -0.0021701845794364757 1.422296692226123e-05 -0.0053791996220789095 0.0008569193300899711
 -0.158222957955198 0.08374928871450528 -0.21771595058317703 -0.8538846336861363 -0.003034049338517093 0.0036728315517069593 -0.0014498116738782625 0.0010392344258700551
 -0.0038113214825106247 0.0010957590092312086 -0.00022581592023619834 -0.00026228974636740296 -0.75406490389687 -0.30380195695316237 -0.1006072280814533 0.262201577831918
 -0.0034087738564551016 0.0026589937618617335 -0.004147576339369416 -0.0038173268503718994 -0.09280841548534767 0.2725106735168382 -0.7340792789214043 -0.3821049175867153
32835310000.0 -0.2271793049324859 -0.8670842066835934 -0.16201930309222015 0.08168111941034759 -0.0020418724834420253 0.001882886244387874 0.0006369659752568509 -0.0014512657735803623
 -0.16272181259817145 0.08577424372563051 -0.21203997693858004 -0.8461664117207807 -0.0034494819289969925 0.0020055353025720635 -0.0018870282658446625 0.002614726297744359
 -0.0031372196246012883 0.0006620423427591739 0.0009690413255473904 0.0014105075486225522 -0.7589884661224369 -0.31112756896479193 -0.10356328820064346 0.26542623284054634
 -0.0008416731756586021 -0.001432431159992466 -0.0014825098048835972 0.0019207126496190016 -0.08021519109373654 0.28321409330880465 -0.7359278726049902 -0.4007927947428577
32905300000.0 -0.21959061108608693 -0.8296979966662138 -0.15857757379406331 0.08650562223973562 0.00013018867618718442 6.809369205267093e-05 -0.0024977494087392647 0.003155695272684237
 -0.15797958022062547 0.08228733166578789 -0.24469395681502618 -0.8344034717725533 -0.0014529668095280047 -0.0005147708358676697 -0.003491173310892777 -0.00042225582442287455
 -0.004251614486655895 0.0024638807866744646 -0.001953347766088151 0.0044493440233194384 -0.7760488145267957 -0.2827255955409505 -0.09481459561600562 0.26887959890633867
 0.00038089394025517194 0.006744753546999622 -0.004821150663603248 0.0037274588434123464 -0.09166362232226774 0.24547498895309783 -0.6930776987752963 -0.3627852208969896
32975290000.0 -0.2263482174435884 -0.8503804852443587 -0.16567635246521004 0.08845698817009218 -0.002125312398369303 0.00029176269844243316 -0.002417237268718671 8.265041372293651e-05
 -0.16147232437639664 0.08784061308972042 -0.2397556107654595 -0.8700120728792253 -0.0020697755762565397 0.0008105111557609592 -0.0021972330202611177 0.00024978758770687173
 -0.0016413739091898124 -0.00036732971136420984 9.23712090260168e-05 0.002768556621036104 -0.7707050652080524 -0.295222614699943 -0.11996589494896945 0.27073373730545586
 -0.0021134077968124367 -0.00025069561312896513 -0.00785821078129288 -0.0010383066333591623 -0.11241982333302 0.2802281290134861 -0.7459478821369924 -0.3571726568405357
33045280000.0 -0.2339114484602577 -0.845101042610428 -0.16395016755710123 0.08672473009900847 -0.0019551198492058154 0.0004356741199572589 0.0003964762384362485 0.001267307858764429
 -0.16285183354528487 0.08873477038586561 -0.23043421772734293 -0.8452461772993746 0.00014313612606377518 0.004996528507881729 -0.0012737713082318419 -0.0008168898466007734
 -0.0015052465753086887 0.004412164856256969 -0.0023345286468841675 -0.00660877676349745 -0.7478682810339288 -0.3138727511187395 -0.09422273227073981 0.29418019333885154
 -0.0020495806755850784 -0.003034879232920456 0.000986240144563624 -0.0005642123734607326 -0.11039044661702181 0.26633911935734483 -0.7533903889792227 -0.33932542815636546
33115270000.0 -0.22759336573659425 -0.8189708900963718 -0.1620024102966408 0.08488804319117714 -0.0033030871056120917 0.00028653720154342833 -0.003592602737307876 0.0024689151213976735
 -0.16163092897488612 0.08741685130597139 -0.2269930135517714 -0.8473801726856852 -0.0030151160764319467 0.0032911021295142363 -0.004440535164471881 0.001562548511243986
 -0.0029547801205618805 0.00026911404876397505 -0.0001736895498617018 0.0005391588366941502 -0.7725137311301483 -0.31421943067406377 -0.08903676286279526 0.27414907999766375
 -0.0004274434215157184 -0.002489490163807996 -0.003333860218283035 0.00027790126959447505 -0.0900542241957954 0.28122112407428396 -0.7447321955678754 -0.3695489544720484
33185260000.0 -0.23873226177219936 -0.8492431030588493 -0.1667198510876325 0.08792446292422021 -0.0009719652460593762 0.0013609259911589397 -0.0026884646068558817 -0.0005273485833851519
 -0.16968108605204482 0.09151518371736533 -0.23831162918213267 -0.8413346676013473 -0.002924816523328307 -0.001014586814124841 -0.0024892768846713404 0.0022232012062999348
 -0.0056778400355806495 0.0013571770682865502 0.00030002029407956736 0.0004115835039713353 -0.7556328621441505 -0.30548267092726406 -0.08979203150032329 0.2748360152212631
 -0.00021516657819161758 -0.0032045809596685433 -0.003612433540154677 -0.003911303649181073 -0.08725389705973463 0.26385458285504837 -0.7446252855366703 -0.3698652508272562
33255250000.0 -0.24750264952986956 -0.8403678236607405 -0.16409143578377397 0.09181098966725554 -0.003131746153112609 0.0032921303366722885 -0.0016463694041424933 0.003117261250562367
 -0.16526217981914573 0.0916783542186233 -0.2446130409727495 -0.8441408475996763 -0.0010344082446941555 0.002173551603535598 -0.0031077531735919143 0.0027114670871369686
 -0.005669143147224451 -0.00035849015592600626 -0.0037869431287163298 8.156676939134965e-05 -0.7516207283169524 -0.2947597430980683 -0.10189396510586037 0.26463079923524463
 0.001699364328609741 0.0005561240676810535 0.0017940037143834606 -0.001929391086101798 -0.09985064058778685 0.26887803650269 -0.7294298277005171 -0.35679320624813415
33325240000.0 -0.25701261478718407 -0.8471718795994321 -0.16912393627793507 0.09208610033408896 -0.004186058565422787 -0.00024510528470834546 0.0007360136305948629 -0.002360671635315328
 -0.17037273010929616 0.09538558148621029 -0.2361414861022155 -0.8562613030205156 -0.004188246171180384 0.003032274806977895 -0.0011810486792931077 -0.0017641961497743392
 -0.0030871569710012475 0.0026142298488255563 -0.008957473737406144 0.0009438078445547307 -0.7418407895348947 -0.26254807081421233 -0.07513308094703136 0.28007196404810253
 -0.004155597132239533 -0.0008022127711156974 -0.0008322696564368705 0.00018521546862992227 -0.10751483853813779 0.2748905217596896 -0.7789523317533799 -0.3367874317680896
33395230000.0 -0.2558584192866047 -0.8189489958130661 -0.1648730331776514 0.09382960781766622 -0.0031193896097176325 0.002254404459643819 -0.0034019101999898916 0.0004357706078675885
 -0.16238702683968537 0.09561013527009714 -0.2629153128261 -0.8379079348811139 -0.0007385710694897817 -9.507305364400246e-05 -0.0015713279521456117 0.0008891449181911342
 0.001836757365112516 -0.0031943969974467523 -0.007958478386866481 0.0020486616718123542 -0.7742032426156077 -0.29416335177363834 -0.0765417976874182 0.27041191299813977
 -0.0004204928431591474 0.0008270328136045271 0.0020343447943206926 0.001198945350040431 -0.0924135267192551 0.28562342278742997 -0.7410755663130505 -0.34010008613559684
33465220000.0 -0.256819734777447 -0.8303225173107083 -0.1676568523134377 0.09115190104268174 -0.001886952909389675 0.00028595423622376927 5.909518745585164e-05 -0.00026863657529194824
 -0.16618086238704122 0.09461805880570956 -0.25391019133704723 -0.8460423985575881 -0.004635707096769527 0.002619276094240134 -0.0015953771573077355 0.0028587725334045
 -0.0016360302585132858 -0.002805437427699905 -0.0036189421631999032 0.0046955783535787875 -0.7600096834936291 -0.2865851167231762 -0.07655881728934752 0.28589703119146814
 -0.0032957480553292466 0.0014419529792999179 -0.004046658862135373 0.0009858480742598796 -0.0863588438494975 0.28809928046959765 -0.7678074858791539 -0.30450195052847073
33535210000.0 -0.2533427927009092 -0.8365308737590328 -0.1726717805358185 0.09318770461668895 -0.002569570900702503 0.0008880361937030356 -0.002381725031094899 0.0007603985641717837
 -0.16685513243640446 0.09744602041497119 -0.24236994501935583 -0.8428676399954871 -0.003800495666802867 0.004978238922812413 -0.0026942850336044064 -0.000317058770326903
 -0.005186081633365072 -0.0009621009554115686 0.0006634319885879501 0.0004184343220307267 -0.7554892899139269 -0.29005963196049883 -0.07646737331606566 0.27165182109855923
 -0.004841562356891964 0.001145424803811294 -0.0036405758549174425 0.0038525208239797164 -0.08874084688830883 0.25747685588379143 -0.7584892128808145 -0.29902001972436476
33605200000.0 -0.26879367709922214 -0.8237236385905737 -0.17163064468167494 0.10095539284547682 -0.0028303702083720492 0.0007196691476494219 -0.0019297477304927313 0.001655647916326444
 -0.1696438785028463 0.09794749196529617 -0.2678039334968955 -0.8481060165345171 -0.0024107040918357895 0.0014394585024650934 -0.0025093646111924947 0.0027647660089508215
 0.0011022537810378324 0.0018616262953646883 -0.0018971940882486465 -0.008960503168970572 -0.7806799106041028 -0.2756408160588766 -0.09198830385317226 0.2891921171181242
 -0.0030605272147239604 0.002276165391550494 -0.0007957006210281616 -0.00408956152165816 -0.07618760804535211 0.2945404826106504 -0.7455607974875141 -0.3326968668751117
33675190000.0 -0.267647490035602 -0.8547699117841483 -0.1711800931497957 0.09637159457831239 -0.0013644542027673916 0.0015873327766839887 -0.000821867956212441 0.0029696374697320725
 -0.17482976402339923 0.09727902563205532 -0.25848103552566404 -0.8429323010882535 -0.003532181499512753 0.0031742228324628074 -6.493865949187426e-05 0.002992476617161389
 -0.007309552443855561 -0.0008031987864396122 -0.005946255941916563 -0.0008187547394472906 -0.7617833597067435 -0.24537115803186618 -0.07718451065065703 0.27144014921075915
 -0.0009175784623137064 0.0031852838650658468 -0.0061998588942510716 0.006348774157687627 -0.06779611721205717 0.2837149479226719 -0.7557845179502003 -0.3346509297986773
33745180000.0 -0.25952674264711195 -0.8203121572261158 -0.16994614156316099 0.09266303135961687 -0.0017336167037866053 -0.0001719745705740491 -0.0026435368760807953 -0.0017738860941365988
 -0.17002417977916487 0.09436507067130853 -0.24896177259253566 -0.8323445012494455 -0.0006298812910499775 0.0008494205368086894 -0.0013309516605757537 0.0013036053648569181
 -0.0033704088224168734 -0.00037307311307803085 0.0036135476804162333 0.006212322269760172 -0.7777645478196293 -0.28250526414056115 -0.10088921014170703 0.282993737707045
 0.00044568176461755836 0.0016398497417559048 -0.0035225009422285365 0.0008915587254532154 -0.07006629452208943 0.2794864536926741 -0.7772318264033613 -0.3512210874069977
33815170000.0 -0.2641098281379168 -0.8420080770976266 -0.1672567682115914 0.09681188668547243 -0.0026089229439589284 0.0034405568106572614 -0.0017305177806958493 0.0008150799420683112
 -0.1738398214943255 0.09842714867444213 -0.28425681114850365 -0.8051585390831562 -0.000949073303949136 0.0019332498099163347 -0.0024815057778265156 0.0006091213527676414
 -0.0006731283077356619 -0.0034519429271134914 -0.002463156645880008 -0.0009516089833281635 -0.7632273426293258 -0.2590837430957385 -0.08089568823027701 0.30994452250619225
 -0.0006028314573265517 -0.0018816160851671537 0.0031400258609679027 -0.003501141299707387 -0.06873124919953584 0.3047465146829143 -0.7619455853383148 -0.3506008297241956
33885160000.0 -0.28784777620991037 -0.8302611201899672 -0.17568491964470687 0.09814755113437713 -0.003504278467804572 0.0033224964847919152 -0.0012960802747039864 0.0009294086425784827
 -0.17235173604561885 0.10531298261238804 -0.26561577662887553 -0.836992485693994 -0.00044271277386294817 0.003173002194676327 -0.0028284958403784195 0.0029993550812791483
 -0.0027815374244054944 0.0018585357991300296 -0.003465331364577828 0.003900285000448875 -0.748058885681769 -0.26025574887081965 -0.07697225421749916 0.2779145919752724
 -0.0012544193738260657 0.0026264756888690387 -0.012463621110981841 0.005468552874093984 -0.09253423314839791 0.2770424778312036 -0.7768116889559695 -0.2951435866192038
33955150000.0 -0.2779142635823758 -0.8182163628546699 -0.17417459882043004 0.10300903249637207 -0.0014167092114672555 0.0019424015680761127 -0.003642322429797138 0.00087376520854395
 -0.1713767816372702 0.10019506882284998 -0.27967294635162115 -0.8366743874375336 -0.002356635121782511 0.003791149654885044 -0.0026915818169307828 0.0013043969129932756
 -0.0001384030781874745 0.00501350065608319 0.002901203218387333 0.007622531275203929 -0.7885526963177723 -0.2758737796679766 -0.10810305002885556 0.3018603461706816
 -0.002279094343274518 0.0019902621027934847 -0.0040779558694408686 0.002658913401923003 -0.07490593575983885 0.2724159286342864 -0.7499487232484079 -0.29532798925938575
34025140000.0 -0.31254586621236613 -0.8148218581960406 -0.17885138833868472 0.10493778042359891 -0.0006964296686072035 0.000564193134677208 -0.004109048500014188 0.0021823918556394023
 -0.17426286116689874 0.1079604097206515 -0.2852871495174366 -0.8538763516949862 -0.0029707549636872467 0.0018049266754570313 0.00035078931103190515 0.0014174993018663908
 -0.006068108480765605 0.0010889825108773281 -0.005921996566593367 -0.0041642264766080204 -0.7716479878417989 -0.25688609481072655 -0.07813607310502678 0.29148162568400965
 -0.00035512989069670816 0.0033998566016464893 -0.0033433142791211685 0.006536475022107667 -0.08980824866296011 0.2804041262480529 -0.7503221170901138 -0.2688595955123239
34095130000.0 -0.28514510135851917 -0.8165988561154994 -0.17855162904931554 0.10302160657719857 0.00022024344988782975 0.0002152843145235254 -0.0022245030129145796 0.0009398819070402398
 -0.17438449164472694 0.10557814163712068 -0.26679479449203247 -0.8354851636618933 -0.0015333720601397934 0.0017786114812942844 -0.003698066543007363 0.0033337648944693305
 -2.6866910425499435e-05 0.003072436361294312 -0.002983558101600849 0.0028748654053054414 -0.768077297483903 -0.26518868303033355 -0.06368359409666888 0.2857801415859915
 -0.001642544218304213 0.0031590394766868504 -0.0013429262808617754 0.0016701738949575261 -0.05672773656844369 0.29451375187606704 -0.770281719219585 -0.29880352217252865
34165120000.0 -0.2871280356668623 -0.8148675790856491 -0.1746487954314065 0.10318870194407295 -0.0032694245410564045 0.005043795006986056 -0.0012754671152797883 0.0008961605739753071
 -0.1752682117595372 0.10736158403003007 -0.27577024765858377 -0.8311603765181352 -0.0009848241954513264 0.0016780352111572937 -0.0034549058904339964 0.0011950585011713606
 -0.000502372544161124 0.0037653477145785505 -0.004636053377767752 0.009522437878448869 -0.7719844716537775 -0.23038066016860248 -0.08963152490736971 0.2964027223910508
 -0.002669776995804627 0.0074589000844581 -0.004899763385528946 6.805880804535409e-05 -0.08322794929808977 0.30138860456330824 -0.7716203821103254 -0.2942088409476123
34235110000.0 -0.28283645915867534 -0.8255287624662903 -0.17486895495271232 0.10588521574784335 6.335219502056683e-05 0.003109470073115726 -0.0015586400561179955 0.0010474416276749323
 -0.1766306420161933 0.10466639476607201 -0.2906070836461295 -0.8289853935068908 -0.0007536027481134776 0.0014927278182211572 -0.002863256018999781 0.0018481367064088732
 -0.0015537679273684149 0.0028589827720041767 -0.0011592535168830874 -0.0005322854292606451 -0.7810788344428775 -0.22631248864172318 -0.08345104134909137 0.2805711563257397
 -0.0008596140220798298 0.002284000128080625 -0.0016495453544647448 0.002599327728226131 -0.059274874835242464 0.2852771126943174 -0.758834902754024 -0.29896350597880117
34305100000.0 -0.2934332823400835 -0.8029121380076575 -0.17897241561952051 0.10271885484949886 -0.0006876838736938158 0.0035113820065680113 -0.002626692194874178 -0.00025048813127025605
 -0.1768314979330836 0.10335972526999261 -0.2798280417190295 -0.8262794306118089 -0.0013526451460092457 0.0027842403681527274 -0.0033930163003092198 0.001738439367742343
 0.0016885853449172422 0.005432117101632713 0.002326942757529923 0.0006850952511379151 -0.7632566347918842 -0.22991031539849457 -0.07037534566159157 0.3003462553625034
 -0.0010096318411934703 -0.001139424855228041 -0.001212386762927491 0.0006974968645221565 -0.08535847274265776 0.30165044752925135 -0.7714752268939646 -0.27872200641710115
34375090000.0 -0.28044591311197736 -0.8213273931591472 -0.1809386334589329 0.10813947375962236 -0.00112652754389086 0.0014628733642690626 -0.0006537373626241737 0.003105913438938798
 -0.17680305848164057 0.10521392527007797 -0.3055544266223704 -0.837679266344448 -0.0020833458463344204 0.0014051604521942236 -0.0017296301526344379 0.00021675515912311378
 -0.003878173076714537 0.004137917654246365 -0.002645309135988914 0.0016157367302811814 -0.7892493040970466 -0.21984571327620225 -0.06425093920689036 0.2879024030193399
 -0.0061377167861917555 0.00731931460557854 -0.0018197334817371157 -0.002932220735789466 -0.0758386217456243 0.2941758465755275 -0.726583586991434 -0.2695501932950417
34445080000.0 -0.30863262602885666 -0.8206036557033631 -0.1753953673921086 0.10707019331256519 -0.0003231240707015629 0.003029116803163114 -0.0022245087739454447 0.0035223083202033244
 -0.1805338114374435 0.10943510000114343 -0.30960287627261274 -0.81572144936147 -0.0029126045959552063 0.005377727696780087 -0.004623320343634982 0.0008352158934101273
 -0.006388496075184293 0.0032549468434851046 -0.003907919636294781 1.1485934345154658e-05 -0.7552553820556578 -0.22266480468474734 -0.06705565776687694 0.2867846798500748
 0.00017990245020055084 0.004940373074617796 -0.005520856128747935 0.0016663611040175015 -0.07825441129319131 0.3165051295451384 -0.7850958241712466 -0.2855529001506155
34515070000.0 -0.28665085298164644 -0.8072286521787624 -0.17955145805097325 0.11162706893870163 -0.0014292431393102955 3.4825118566370656e-05 -0.002893852295486232 0.003024785376666213
 -0.17854420177504446 0.10846013891563602 -0.30463132002565974 -0.8089234544498075 -0.0038942913213113007 0.0030729443604475925 -0.0038487223059639327 0.0005115329634494709
 -0.0035152966724027166 0.0006461543898532799 0.002014255183606271 0.004803368782243782 -0.8114118560849031 -0.20580404131966384 -0.07337304003382829 0.2964046154475168
 0.0006255749268737295 0.00234285360312559 -0.0029020884148674795 0.004382898451158271 -0.08060719546125453 0.2995103526110322 -0.7682498809746737 -0.27748246397354165
34585060000.0 -0.3095999989180502 -0.8141971823398033 -0.18077403000028022 0.1111059624015936 -0.002128233089949393 0.0015248678874459248 -0.003020250760256307 0.003707392524566125
 -0.1803989870873373 0.11266976824600754 -0.3062133074407581 -0.8227893328450198 -0.002380908449802675 0.0024158788009920906 -0.0008210631861046561 0.00308218833281237
 -0.004924859760363141 0.0009390752848793942 -0.0010400965667669152 0.003127155857625817 -0.7689855838127327 -0.21803738156850958 -0.060647739996855445 0.32034692761895883
 -0.001986002272111386 0.0006886622616578947 -0.0023358290632297728 0.0008602139765381797 -0.044572107851144634 0.29759119940447637 -0.7509667561018628 -0.2618523551662092
34655050000.0 -0.3015406076258146 -0.8228901565366395 -0.18032914703217717 0.11209528508839553 -0.0037080920616060953 0.0014043523775765189 -0.000878427283259801 -0.0002794384014832219
 -0.18439405044627602 0.11431890774067244 -0.3072643558507642 -0.8067999523369265 -0.0027822241194770687 0.001967876632295173 -0.0020052019564102464 0.002630946196604594
 -0.0020234596756546768 -0.0016689369475590622 -0.004555261218954569 -0.0014265021165773138 -0.7723920342048962 -0.19457335361807515 -0.06721650651653101 0.30438553423125064
 -0.004450167272504252 0.0049117082590832 0.001087769300906152 0.003859574070150075 -0.07632632260449435 0.29273011188772874 -0.7845402817968549 -0.2859075688351077
34725040000.0 -0.2980404953006035 -0.8115185821328887 -0.18355281482941846 0.11584276454930072 -0.002421430060951732 0.003514470277352478 -0.0016557224233652963 0.0035884586825870833
 -0.1820547970945506 0.11307988917982117 -0.3246951903183981 -0.8192591625715961 3.738158540837257e-05 0.0029703670000160846 -0.0008995136078005 0.002407485085765654
 0.0034502456526736215 -3.309859477673988e-05 0.002421620570743579 0.0014116957598151651 -0.7832861892861326 -0.19235005456048565 -0.05004590048833779 0.30009362976687026
 -0.0014851114630798884 0.0014289749797512575 -0.00631882165564669 0.0008650877823978155 -0.08585587082432927 0.31144085952388134 -0.7712041300597277 -0.2335674506276449
34795030000.0 -0.3096047790599896 -0.8197822839770718 -0.18275915516258773 0.12077032929698221 -0.0010072818276762351 0.002667806055218058 -0.0029897928268255085 0.0009374428671564631
 -0.18526551830698793 0.12065100715549196 -0.32376818052816114 -0.8211347742819479 -0.0028894559576994904 0.0001418790957102942 -0.0017370459697729165 0.004726752543000959
 -0.005690415224012654 0.00044896464231264084 -0.0024533324199271763 0.002535535996005004 -0.7838655369522493 -0.16695468296340085 -0.06315776708717231 0.315023463632397
 -0.0031040992387000423 0.0009567309607744235 0.0019907968238633018 0.0018190697731868533 -0.07148216268841517 0.28856523348775137 -0.7799938090654704 -0.246193047906162
34865020000.0 -0.3272780608637273 -0.8058192087711357 -0.18548580813970034 0.11867786720163923 -0.0017508717379005909 0.0009685874907421595 -0.0026159705468113133 0.0019373207534483315
 -0.18444397546235686 0.12010728120304007 -0.31786356461894605 -0.8298373066581808 0.0008094996643027144 0.0011950544342057556 -0.0026686657226258634 0.0018565329787926254
 -4.169764175804052e-05 0.005894108585698016 0.0006258124356977721 -0.0017299216060456194 -0.7570272719414124 -0.19937787861990977 -0.06249071847239677 0.28073636260950785
 0.00016695364737206891 0.002265021937182587 -0.0005685587468655692 0.005489535013704085 -0.0595303117163716 0.2834624025686454 -0.8079615455154396 -0.21082719023342533
34935010000.0 -0.324395809600522 -0.79660417707346 -0.18196578530725296 0.11685539139711022 -0.0027106658250080694 0.0023660228563445684 -0.0012158446584462736 0.0012419438713018184
 -0.18340804682510925 0.11824826270935489 -0.32022796727253844 -0.8221816710447302 -0.004683797285622805 0.002698635634972923 -0.004200460602454068 0.003353519745411615
 -0.0012866491295888817 0.0048307305720770785 1.9809294436366435e-05 -0.0014745357720856271 -0.7742194600552921 -0.1874020971159002 -0.07249495317740734 0.30666327975219826
 -0.002435416619771276 0.0038295017169937672 0.00026376180449685726 0.0048852062981618125 -0.07931451605112082 0.31497082104230184 -0.7756788042424501 -0.23838249659016084
35005000000.0 -0.34507616847357453 -0.80851528653059 -0.18507815048353665 0.11990249332363428 -0.002365511231417447 0.002530583424370976 -0.0017841940259212734 0.0008795071201435711
 -0.18531664013304258 0.12574540700785897 -0.3331605043070723 -0.8191339298585922 0.00020767607043708323 0.00382791061018466 -0.0017178065480849159 0.0019605424413545146
 0.0007108403616753259 0.0077171576597861 -0.00025692527859326973 0.005157447071111382 -0.7468410552645482 -0.16978916031472788 -0.06981850577414242 0.30793164250031213
 -0.002018737460221613 0.0029037281475129645 0.0016632655873271731 0.004895804872134142 -0.07360616028176417 0.29568422301293207 -0.7548321261850806 -0.2414203453898625
35074990000.0 -0.33070316379604187 -0.8062213967990931 -0.1850599101712797 0.12204538280652846 -0.0021836832672719503 0.0006696157110788231 -0.0013728595220299997 0.0027178470580994808
 -0.18714203200994806 0.1217163600385565 -0.33088801382623123 -0.8132171686491879 -0.0027962497791912382 0.0016831468452881014 -0.0008716455894117103 0.0023209555470071297
 0.0028223821524878305 0.0009291672486539646 0.0008921446859819064 0.0015933018256674698 -0.767133107753807 -0.1814825460858627 -0.054824432344296015 0.3097675710700272
 -0.0019906302125051825 0.0005662309199321411 -0.0013897630830061243 -0.0012045639947223508 -0.07534114858712432 0.31851435036598497 -0.7721513397440812 -0.2557190174911214
35144980000.0 -0.3340783225766447 -0.8034370659473034 -0.18502812313577635 0.12128528204335955 0.0013762774396705805 0.004405093635336572 -0.002770389358995527 0.002452085293401944
 -0.18704230388134 0.12334010672045856 -0.32339417570782114 -0.8031596593590534 -0.000943390742413799 0.004020809601252202 -0.002934512727771142 -0.00024226637204377257
 -0.0006997425853689987 0.0013322538547480506 -0.007780651903351017 0.0012733637067845684 -0.7864285579717801 -0.1694802448427767 -0.0731394939456374 0.2974882485068741
 -0.0010001694758304284 0.004032140765968985 -0.006162499938366499 0.0038630016589362606 -0.06206085124802847 0.3085378493558383 -0.811884498528743 -0.24443449656651461
35214970000.0 -0.30988203152448973 -0.8151016017962639 -0.18486330002466628 0.12555798857929237 0.00018781732898502104 0.002856516708499579 -0.0011628643067565624 0.00361602119434834
 -0.1892660586667656 0.11971562400086913 -0.34222118577600635 -0.8088982590902094 -0.002190439596449478 0.0012099060009709978 -0.0007682206987754099 0.0011792128220652425
 0.0006081515225416548 0.004065237457131503 -0.004736860838169237 0.006619525427126882 -0.7978952344057926 -0.13003269320106264 -0.05609391340507008 0.2976459410298788
 -0.003763503924072831 0.003378008510341949 -0.004464284245733779 -0.0007761077227931647 -0.05837119471342813 0.31613122762631174 -0.7709058926966194 -0.23022876996023772
35284960000.0 -0.34731213714324294 -0.7806551232041838 -0.18832421465939783 0.12257600558324681 -0.0026237320898241634 0.0011213092568417736 -0.0036861192244125136 0.0004981535861336114
 -0.1835150530878531 0.12710454651392783 -0.3332892938496478 -0.8118440326003215 -0.0048032351595513455 0.0038615827709605204 -0.0016221505460387645 0.0004127574340262148
 -0.002037970328960709 0.0008754126182884942 -0.005640370107394287 0.004081941935528055 -0.7893759528940021 -0.18343359057507438 -0.0649749573770299 0.30013557195868723
 -0.0013624342307629604 0.005597888186848326 0.003920915486973389 -0.002249816404742798 -0.042255869225584546 0.31935634590438305 -0.790927337856255 -0.22537023278074594
35354950000.0 -0.3298388253021655 -0.7829871521794142 -0.19214403264506547 0.12111198734372489 -0.0007670956453358803 0.00334483516470809 -0.0017286304497908843 0.0030230306865490176
 -0.19068731105117634 0.126489043576881 -0.32462508001545076 -0.8087209569201801 -0.000793996911164514 0.002728386741557796 -0.0032928009632023666 0.0008037943714934852
 0.0016073579063308869 0.0037587794044792607 -0.003625201206717612 0.005517036600271157 -0.8004030938418776 -0.1666822998808664 -0.058089252485895596 0.3201558679889488
 -0.003190290711251264 -0.00013098530718135928 -0.005571558040628705 0.006370618517981063 -0.06564075022642198 0.34502008991207045 -0.8082586696171028 -0.21810006020087283
35424940000.0 -0.32867876711647936 -0.7915852902611732 -0.19330790689769348 0.13389866758154426 -0.0016279945339644506 0.0001586538255244763 -0.0020758341311638995 0.0025286551502953242
 -0.1850918638463094 0.12955073044727725 -0.3761886980461329 -0.8265677138142927 -0.003909929003175923 0.0011675178074986587 -0.003970439183134929 0.002706754534706645
 -0.004526346406046962 -0.002432449993255096 0.0018390962245790482 0.003472196761343259 -0.7938820332063719 -0.1665318079373368 -0.046964576167519125 0.3043310631082996
 -0.002462476206187708 0.0020572998734357585 -0.002040290262979625 0.0030283535925447248 -0.03729484682353101 0.33072084088506976 -0.7685201403530624 -0.20710509375289834
35494930000.0 -0.32703526475176387 -0.7872895339256666 -0.18938562463339334 0.12157734219811484 -0.0025839139399755147 0.0013859528498563467 -0.003345406060009568 0.0037807617985517856
 -0.1874197570701559 0.12396389343837445 -0.31423971981997456 -0.7900669542290768 -0.000347700067816016 0.0020417023876184645 -0.0036837656032739506 0.0010718017345697467
 -0.002271067485008664 0.00016941117030467166 0.002659207492192538 0.002417643700127927 -0.7956247422433612 -0.15138068212210354 -0.03792507223615954 0.3171616741960979
 -0.0010224398605728742 0.0024401289439262394 -0.0033803364589709123 0.002539670964567253 -0.06603455344444656 0.2882318437314147 -0.8176572832287495 -0.18119988749744298
35564920000.0 -0.33101636773749166 -0.7855486837377422 -0.19378346638471794 0.12986586979237896 2.45906611282651e-05 0.003730165174376519 -0.002582146101144089 0.0033908278964151096
 -0.19149320117428192 0.12900192883796355 -0.3484589548567582 -0.8074750457052696 -0.0028544364244898917 0.0035014192558198353 -0.004673317519901911 4.985428320120703e-05
 -0.0005059639023686363 0.002940566505937933 0.004182517536328429 0.00399720504723167 -0.8071520522325053 -0.1455408292401916 -0.044394022389502526 0.32160839407065017
 0.001059845105865946 0.00437243594124419 -0.007899533686615522 0.00191128805453673 -0.06057251052095816 0.3112704804769355 -0.8137401811652573 -0.18835147278341993
35634910000.0 -0.3549654099086742 -0.7759341824709689 -0.18432470336979923 0.12774388041517712 -0.0019551531931693107 0.0033660021464108915 -0.0022666989257708616 0.00203003240068258
 -0.18581837846014507 0.12947832424785963 -0.36976142010688956 -0.7813749131093142 -0.00047946772664235736 0.0005669578251171512 -0.007123934199421343 0.002073834161028977
 -0.005370981331386537 0.005551818777094305 0.0031573123075441336 -0.0010792396211601765 -0.7492735872436544 -0.14687262141430113 -0.045685994265492184 0.3243792940107886
 -0.0036210583909045044 0.005399689503529439 0.001114216685451236 -0.002553399402445078 -0.045136919564780054 0.3308494872023152 -0.8075013813729788 -0.2078915546147773
35704900000.0 -0.3381130501797987 -0.7953862675034826 -0.19086099525219927 0.13441773464114765 0.0006856472643580444 0.003866887873401283 0.0017279855741801468 0.0020372765367810118
 -0.1926943538290738 0.13390910718953394 -0.360304995707684 -0.7920050733115132 -0.00034765044642078973 0.0020317805034896406 -0.00438029280195623 0.00029306581746001674
 0.0012062986362289235 0.004488390776823671 -0.008591015172608319 0.007765710587624138 -0.781324242366684 -0.1406837852740821 -0.04759009401379523 0.30965321613480373
 -0.0065049740378285885 0.006836054245978797 0.0022290928751941283 0.0012667657235289171 -0.04577406013211535 0.31029423349220525 -0.7739363968996444 -0.1933758391473659
35774890000.0 -0.36234405686671123 -0.7733811751213099 -0.19030338937746263 0.13482161157933237 -0.0001723315740816982 0.004075628697401434 -0.002714738964994686 0.0034918980572280463
 -0.18377178711798703 0.1350160210729606 -0.371878849303745 -0.795183810050754 -0.0008334498451411679 0.0041276500783651105 0.0008237174506452199 0.001541232596187645
 -0.0035487888807648037 0.00408300466571533 -0.0004715095795034498 0.0008619011401461824 -0.7608593600200236 -0.14499855788994634 -0.04260004216791289 0.3025154691614675
 -0.0010312538369210446 0.004159661888159949 0.00019255388105617356 0.003011264584923396 -0.06572421246137408 0.3153160495826574 -0.765934593335571 -0.17376163668759545
35844880000.0 -0.37051743377697216 -0.7721567780093685 -0.1881797414008458 0.1361418471514061 -0.0012148238119778713 0.002467260728821316 -0.00020330384875931438 0.0016034367300972895
 -0.18486887990518033 0.13702310183929584 -0.36017175089751463 -0.781983572802161 -0.0027757403623405266 0.00461123607166592 -0.00483230807865111 0.005253788743244465
 0.001229597365968348 -0.002372514845995069 -0.0006056562640674426 0.0023153567810182997 -0.7462223103932096 -0.13021382663572192 -0.03897520423675829 0.3104401930064903
 -0.0037630927703697155 0.005233042080255999 -0.001970889103647647 0.003432747619566595 -0.061376454542724106 0.2975838754190894 -0.7652834969793907 -0.19195190216462646
35914870000.0 -0.3791854011209637 -0.7715716768375568 -0.18875351158770678 0.13963405760732 -9.224183587402167e-06 0.003635089446630751 -0.005051907426580581 0.0039884534268953865
 -0.1918101091928734 0.14128753103754804 -0.3852505879585418 -0.7858457007141976 0.0009496070602083052 0.0027879307118253223 -0.0003472184867114058 0.0050694014100851285
 -2.1385814790127515e-05 -0.0016061829349323649 0.0009205057120925991 -0.0014733350748104054 -0.7740146970115405 -0.12224155493721274 -0.0579205221327684 0.3074385481682339
 -0.00042147044484335715 0.0061034160995623666 -4.551262228291502e-09 0.006519202930209109 -0.04283803584013564 0.3162101251060385 -0.779686216192898 -0.154305664819651
35984860000.0 -0.35522729159010885 -0.7759767287512994 -0.19074940349571548 0.1400624804872146 0.00026572350682051106 0.0028721241981444707 0.0003440359646563439 0.0022782633072875617
 -0.19192157281805824 0.1358960945734941 -0.3719802240457939 -0.793130388940968 -0.0013008333095188853 0.0038639870826475938 -0.0034920865013631625 0.004243613622161037
 -0.0022730401055885566 0.00037194759355621586 0.0029652196952290014 0.005829701987186993 -0.78934185558031 -0.14302224235552966 -0.04775936044055015 0.31650538335025336
 -0.0020619276310802036 -0.0012663295851666149 -0.005497534119323987 0.0027460149018944404 -0.04932981271723156 0.3099672125233031 -0.7909203545786815 -0.16648852937013775
36054850000.0 -0.3579840671413383 -0.7581394989062207 -0.19150873428722473 0.13002561790743852 -0.0010703031201001784 0.0004246318912125192 0.0022204902756654547 0.0031935666649668864
 -0.19136749552562965 0.13415481275435392 -0.35054672706654877 -0.7859818429368204 0.0025717344356828123 0.002510894281164602 -0.003489950614949805 0.0022791691619912864
 -0.0011395801876131256 0.003395090759848207 -2.5598896377636794e-05 0.008827061933345452 -0.8059208384814033 -0.11449431032978567 -0.0429467251807726 0.3042773591813242
 -0.0001395836482025438 -0.003267164556106473 -0.002182012019428633 0.010995991479813868 -0.03339019340211971 0.3103833481240728 -0.8203779800027382 -0.18905233873986535
36124840000.0 -0.36463824596653893 -0.7654080147302109 -0.19222897943118297 0.13935878353112624 -0.003170318066054071 0.0031272860936941292 -0.0007058954638237796 0.0031423279404512636
 -0.19600185678755144 0.1383286624741793 -0.35958246079443135 -0.7801558077652162 -0.002727594745022155 0.0005046976812035835 -0.0016525156449011566 0.003382882807442696
 -0.004658207303451429 -0.0024835641235186586 -0.00628925425637195 0.01037375745797176 -0.790838701918478 -0.10752298768571221 -0.055848810699452044 0.32262239384466374
 0.0033526467079806415 0.006047924011592981 0.0013513023853811274 0.0022616430090763883 -0.057197397942676406 0.3264823665905968 -0.8038647158526553 -0.15659912009982888
36194830000.0 -0.39020874111113724 -0.7698992820919817 -0.1917081453221557 0.14439269096492457 -0.0015363808921373286 0.0037013653471276334 -0.0005861097841166013 0.004458945587816065
 -0.19074029129534217 0.14740383420170425 -0.39144863452434653 -0.7927884235914693 -0.002563078152155036 0.0024836654128419693 0.0011446961705406631 0.003813717692720806
 -0.004192025244476154 -0.0018300830234298942 -0.0047048872033974955 0.0015156571890774689 -0.8038183290051505 -0.1083005252408469 -0.049361860788560905 0.3387622594023712
 -0.0048618663775421775 0.00139777341810921 -0.007899851058938917 0.003199175274067967 -0.05829510885088348 0.3201261406101331 -0.8081218740733187 -0.17718184334973436
36264820000.0 -0.3783571132270446 -0.7424619268493912 -0.19665483994235416 0.1417802958006866 -0.002142320366167056 -0.00036700556939652196 -0.0021615788376604553 0.0025517430486120866
 -0.1945576889948122 0.13952756570852984 -0.38421192636931584 -0.7842256158363257 -0.002081840807425006 0.0029611490342715593 0.0011538267896809718 0.002115682858334499
 -0.0006366883671356266 0.0020740178173353323 0.0014964044188523918 0.005601296856008498 -0.7792833629961724 -0.1017728070620472 -0.04131498830681269 0.29556916817391565
 0.0009469701261530122 0.0038600479894163263 -1.8883420034369383e-05 0.002749557195086179 -0.05696897711108247 0.3090384107388327 -0.7715158256316922 -0.1498962171593834
36334810000.0 -0.3854497232315963 -0.75759546229432 -0.19274888543230878 0.13853065241590748 -0.0006220575513142449 0.0023742315725155724 -0.0013668798478461538 0.003407280937154787
 -0.19189827425087458 0.14854923625432037 -0.36962155709109423 -0.776849447698923 -0.0025700177913927738 0.0020728247524597464 -0.00131410759183818 0.003676325395013215
 0.001771128175391966 0.0015799528125531993 0.0006953689092855034 -0.004398151395888404 -0.7699550214280682 -0.11561327181423535 -0.030672283854766585 0.3393736455289708
 -0.0031600858481366633 0.004996560160956661 -0.0004359091746009704 0.009060631603679183 -0.05719274439474759 0.33281119231381734 -0.8178447484238047 -0.17501870702994782
36404800000.0 -0.3852260951985687 -0.777804609866208 -0.2005567096715701 0.14707687042129505 -0.0010795991839225466 0.0022989396136919174 -0.0001004704203920953 0.0036897637240856512
 -0.19750649641618823 0.14635473942575297 -0.3977776366052791 -0.789080425391922 -0.002217339385423343 0.0029278207145096193 0.0023454101757080944 0.002327304225759503
 0.0016938143954781206 0.004100197915721473 0.0015984393836247879 0.0037203842842598797 -0.7707880303801268 -0.10792938479369005 -0.04301106960698376 0.32400581834815806
 0.002962568145724333 0.001646364906949947 0.0018653088591894125 -0.003730287492189767 -0.028973071868663387 0.29734009388413973 -0.8239231328318224 -0.12770023703247763
36474790000.0 -0.3827439065609182 -0.7697772831746064 -0.19599262035819015 0.1436446271984466 0.0010063407625002078 0.0030305519209086634 -0.0026030875967323107 0.0016314706566713571
 -0.19925905608164468 0.14645333635757835 -0.39233977750892773 -0.7588765369491353 -0.002028535442081669 0.0029475350758587553 -0.00045990893242919747 0.00547524765534269
 -0.00349295082390956 0.007117072926514389 0.0057458274252227565 -0.00017612034696350975 -0.7753100153099207 -0.10089333983674456 -0.05507398003251549 0.32589814456194444
 0.0035132431646188594 0.0032999108148897525 -0.00015766655711357922 -5.7982505408600884e-05 -0.02148513572646976 0.3231314011012406 -0.7855866066191742 -0.16331642541715904
36544780000.0 -0.3776862274976927 -0.7580215984879649 -0.1991598926065825 0.14461158289805393 -0.002348628706399027 0.0032038523612993542 -0.0004998438323378633 0.0016837855079920429
 -0.19779209133573095 0.14601095635337455 -0.3888784046627661 -0.7795775283401826 -0.00030828635254036963 0.0010670764917383394 -0.002770112687687054 0.006842065845694656
 -0.0028419316593821277 -0.0029825393173768685 -0.003049137483368427 0.009500540228310225 -0.7899520322319061 -0.10692784960772637 -0.033408024191842314 0.3335148434742492
 -0.0005763402931877631 -0.0017601418852687333 0.0019045300861205536 0.0031114676872707626 -0.037818457595793664 0.3046664398458684 -0.8227217146846669 -0.12528872803420688
36614770000.0 -0.41400300790706945 -0.7394977415655534 -0.20227523229836125 0.14979220069049834 -0.002540926601176411 0.001278541993585246 -0.0023436923070217688 0.0034332138929743846
 -0.1898559383009198 0.14901702383500634 -0.39685292162576813 -0.7863683303242469 -0.001369609084286598 0.002822993205495927 -0.0009090471817547207 0.001743513494672143
 -0.0010134819007655159 0.004517868685139441 0.002060915672611117 0.0015365022253404162 -0.7879094647631658 -0.06272661668672305 -0.021593585727006485 0.32020833712444285
 -0.005079991800211834 0.006487750337164606 -0.0032365608835111595 0.004327754353766635 -0.023295657705709266 0.3429771364821935 -0.7929087183961552 -0.13492341352576115
36684760000.0 -0.3856271027564057 -0.7540519407348996 -0.19960772393123358 0.1513293854144435 -0.00031319299182561394 0.0015904505082385751 0.001168280603185889 0.004168039038012452
 -0.19525624475712838 0.1534623292081668 -0.38379375139941324 -0.757563523722163 -0.0010621291472946717 0.003841105841287357 -0.0025816942584219156 0.0033094631318003956
 0.0020689002567177706 0.004487204507521064 0.0027934881204841853 0.005056908663700263 -0.7979335693533762 -0.06787256621992381 -0.0135266771541653 0.3370166211043584
 -0.0033288421034368904 0.005735561079234441 -0.003079192935813377 0.0015465723850708504 -0.03095980805112705 0.34127192346351704 -0.8116600917500181 -0.1451063660774519
36754750000.0 -0.39639658392973204 -0.7592660355325614 -0.19905480645106227 0.1534661416905689 0.0012189971293914094 0.0029409984412724784 -0.00400898702904947 0.0011271623314675948
 -0.19616988491159476 0.15162278596200887 -0.4039708215515677 -0.7737837590460728 -0.002778020493544561 0.003996184402635122 -0.0024052402961365436 0.004491813883108185
 0.0023181806705112017 -0.0043787581791231754 -0.0003348726285586069 0.012880189980690182 -0.7933539743979242 -0.06191169427800232 -0.03590193009090283 0.3298485561145065
 -0.003693137723292927 0.0038890762273075035 -0.006404840782272653 0.00574560510032195 -0.0167915462854853 0.3124382540640792 -0.8110873804042822 -0.11863136622588988
36824740000.0 -0.3974905016204803 -0.7545333530715338 -0.20292187931844033 0.1566328530016109 -0.002034986071468468 0.00279287350840528 -0.0006319048612713049 0.004961208879828037
 -0.19959850137212395 0.15823045430448687 -0.39526269529856795 -0.771600577469864 -0.002125139731583483 0.0011973032151484245 -0.003331822219303336 0.0031045618002557367
 -0.0052479842408163285 0.0027707419565195877 -0.0009572231801945475 0.006616090860566754 -0.836330529510063 -0.06493948446959545 -0.018018529490965777 0.32170775022436277
 -0.0007265988363875941 0.0044606057922815905 -0.0033470169545894105 5.159166655285348e-05 -0.027045655289949382 0.32888535810882485 -0.7984993449861294 -0.1315765263922732
36894730000.0 -0.39321093074323127 -0.7408973605618918 -0.19401536691273363 0.16148751744232046 -0.00017383051180981817 0.0030672677181766057 0.0016773666530527805 0.0012796750590822958
 -0.19513815870115614 0.15358009791686938 -0.41281218443581014 -0.7487373934247363 -0.00021796282690057347 0.00301284279902713 -0.0020248759245788217 0.0038795775481576377
 -0.0015857246183395878 0.0019501625070401964 -0.001314029952289186 0.0030704633954575 -0.8270634117679496 -0.03006686256689268 -0.012483882454435533 0.332713637976156
 0.002293920228133138 0.001987523500119913 0.0012572364707791107 0.002369401105095352 -0.01911394948671254 0.32456516439026784 -0.7937722623475807 -0.12157198216225219
36964720000.0 -0.4036990078553181 -0.7640276163857489 -0.20624154292376692 0.15675530528263534 0.0003904332254982564 0.0029243777355626517 0.0006261044924411686 0.0023841016102183464
 -0.2003234734269899 0.16344505442083176 -0.4154385145932224 -0.7763473151162764 -0.0004184139370546475 0.00023790281824058164 -0.0018473842307917421 0.0021043587627323675
 -0.003554709675871268 0.0029057993587791727 -0.003646004161655647 0.002651359840690373 -0.7802105130252825 -0.06955369740504852 -0.009413674986347629 0.34547006969189925
 -0.002503854112519771 0.005629829474660168 -0.0013434761807735239 0.011156545536006217 -0.0170273603277238 0.3313092353627512 -0.8248224119362442 -0.10306893478391795
37034710000.0 -0.4088165602119248 -0.7566490091407875 -0.19803723598318335 0.16265746412318466 2.3354030050837216e-05 0.0038444789472156043 -0.0008247456974767617 0.0027931718222185082
 -0.19724109398402037 0.16204564249022904 -0.4248095708361357 -0.7525544420380282 -0.001110427232243351 0.004539966410132763 -0.00184484244457627 0.0035730160810590866
 -0.004849797837841561 0.0014042981193444798 -0.0011689058351489158 -0.003210409122377235 -0.8051464212650901 -0.03835564369979793 -0.03506593967698802 0.3510841409660968
 0.0016135249235830463 -1.4201794977039522e-05 -0.001390795037821743 0.002540086510602262 -0.023477055627644933 0.3185859639269397 -0.7948013847418982 -0.10031797846450427
37104700000.0 -0.4081027099784818 -0.7498424167204126 -0.19964465390285788 0.16551875492113902 0.002275157854348209 0.004011949502870055 -0.0013525622594229051 0.004106496904379807
 -0.1966149479049766 0.15918098928766775 -0.42265525650700414 -0.7681432046877754 -0.0012533651983612385 0.0042563753497562385 -0.0008518902172776861 0.0020519634797198064
 -0.002771469695039623 0.004976731587651747 -0.00012720838785826029 0.0030559557574580056 -0.7881277991373328 -0.03295793230282157 -0.008366587964669549 0.3275039033376949
 -0.002275558319982302 0.008627945057070045 0.004328301948091265 -0.0011384151565918526 0.026967561949964178 0.3374569293355345 -0.7982315967043635 -0.10553992538184408
37174690000.0 -0.4409895465347749 -0.759921313957596 -0.19977563774553467 0.15803558465570147 0.0005247330615091102 0.003362411867941069 0.000979065960857446 0.0017452188368465172
 -0.1975219458776542 0.17207517658983817 -0.40499929530764567 -0.7613722879594697 0.0010547067330683585 0.006788920494903173 -0.00030427110931577285 0.0017347022832901453
 -0.0024338422687922336 0.0011936704863830935 0.0031061684411186094 0.0038795667022021394 -0.7631355533488616 -0.03978589196993509 -0.012800736936436326 0.3240531342545319
 0.002257772540887674 0.0004482763674365666 0.00307668390164084 -0.0006024080230964445 -0.012700291335530363 0.33703688392596176 -0.8118494581574525 -0.10469888571548255
37244680000.0 -0.4166774088492179 -0.7167576929014645 -0.19944430498576096 0.16679326441430864 0.0010694494501809271 0.000444337759901937 -0.003352207550613369 0.0013879609396339418
 -0.19529485887739026 0.16535212340407737 -0.43780695854548557 -0.7578242580783364 0.003173906150242977 0.0005725560115031731 -0.0005759180833763993 0.001654787834121092
 -0.004836877819849476 -0.004175169329005312 -0.003451623638872018 0.00121846841569639 -0.756275859793201 -0.013662972611126 -0.025779505045303765 0.3089690735225536
 0.0019327862704195964 0.002551294223479323 -0.0074212878259721496 0.003358889309460705 -0.017621267344146395 0.3209767881047588 -0.7810436914011325 -0.07693297126522666
37314670000.0 -0.41465596727256493 -0.7296625787381283 -0.19844607393761474 0.16007090456976641 -0.001489610476567803 0.0021356322026318433 0.0013028015699463418 0.003332063927638497
 -0.20188256528820003 0.1656954817263351 -0.41470227077724947 -0.7402011237956458 -0.0014222922776253152 0.005971545003420196 0.0003025518624673754 0.0033201003789239264
 -0.0009674036944350915 0.0041488371957548505 -0.0018931432318220261 0.005017339817851709 -0.7843779262561699 -0.022274101599214186 0.0018158721372140917 0.3256972564253979
 -0.001412539363318983 0.0005592496384592668 0.0005051910223612323 0.003320084557434213 0.007032864457321964 0.32193032827906015 -0.8045384814012339 -0.09699941206994699
37384660000.0 -0.43711548838965414 -0.7618339156425512 -0.2007689223306411 0.1623139134466174 -0.00017648146269206444 0.0010806064199820366 -0.0005262035128397166 0.003887459806201699
 -0.20681046966999483 0.16624898590887868 -0.4153906840452267 -0.7354579352489294 -8.783128632092733e-05 0.003566205154918693 -0.0033791813668860144 0.0023138604012361936
 9.388449104815503e-06 -0.002020716150949103 0.0016774436060870116 0.00011113556223197938 -0.7952590538873578 -0.02060514017072977 -0.018862437467509006 0.3253712638378817
 -0.0026171981853668597 -0.0026059215969963085 -0.009984601835753282 0.0024660203921173583 0.010535434649699419 0.3289036255344834 -0.7992831170525992 -0.1004386709018483
37454650000.0 -0.4165579336683385 -0.7302031143628132 -0.2040624402758848 0.17048354611340943 -0.0015636993385751518 0.003015947439125626 -0.002048445027765162 0.0041157201908347705
 -0.19764637456319556 0.16246818296368165 -0.43468709810524336 -0.7635329738243776 -0.00012591658570435202 0.006161264092570366 -0.0034708837046202906 0.0017567609707810742
 0.001242625841404467 0.0018877375384886846 -0.0037714197990383635 -0.0008636249627367321 -0.7868591511849973 -0.012910444307010825 -0.0006459431804581753 0.32140484773718303
 -0.004390322622486701 1.5087637078511413e-05 0.0011075828486298866 0.004247486693514287 -0.00958286909472791 0.3083758842792899 -0.7940901186793049 -0.07801793849831544
37524640000.0 -0.42994154350910874 -0.7251761984591766 -0.1946852089227389 0.16554367826582064 0.00022101062304673663 0.0024730800158578566 -0.0010127005684497008 0.0023529564220579734
 -0.19885687121210888 0.1679126766242705 -0.42354769364125683 -0.7291643831001481 0.0010047268913246784 0.002072454387481157 0.0025644467283758967 0.00034387419454894584
 0.004233202418002161 0.00214796990142342 -0.003484753734736397 -0.002510280037568668 -0.7837406693518499 -0.006091316849181195 0.02189060921457361 0.3465610010112232
 -0.005101837187626487 0.0018150572538496242 0.0012523396900634694 0.004209021485331322 -0.01720341947503348 0.3457556467782503 -0.8054129919418768 -0.0847631748669719
37594630000.0 -0.4206923023310892 -0.7157812383825282 -0.20319643466681925 0.16255186523773507 -0.0006817829354974004 -6.989623037275791e-05 -0.0005809644413370797 0.0023557477813707785
 -0.20060182708400995 0.16261292018777182 -0.42654980823979716 -0.7326153386169025 -0.0009766000294330276 0.0034655637799278437 -0.004239458002914034 0.0049398009810741675
 0.004462961033664642 0.004038247937650952 0.0008872605589726947 -0.003283703070626514 -0.7985554594933517 -0.04517328418458745 -0.01853107900809962 0.3209730755953698
 0.001958740751809083 0.004778533006387876 -0.0066466193937388795 0.006208187224981028 -0.020204101410948385 0.3130135761227661 -0.7833005881067552 -0.10606370715789813
37664620000.0 -0.43880094235023054 -0.7154104666711886 -0.20554507105689548 0.16447778454647727 9.75042595339086e-05 0.002992116714848969 -0.0008822129451722613 0.002154462629842236
 -0.20594808275072587 0.17163697819213433 -0.41862170161415846 -0.7374797771032835 -0.0018357343168066353 0.003658792210703636 -0.0006039248450787532 0.0032328790468067296
 -0.0052257636675922025 -0.0009356031181794638 -0.0012333352260945967 0.008590059297627538 -0.7856421427426634 -0.016157805582092215 -0.016819269588721635 0.33957654826006795
 -0.003612487784044435 0.0018206539814590807 -0.004076525507823827 -0.004813972117439421 -0.0009618796583753495 0.31985768249878777 -0.8063050966997942 -0.07159060532188816
37734610000.0 -0.43904502153958497 -0.7455290567896607 -0.20337868526047637 0.17921665146915744 -0.0007518700764470152 0.002407197920512685 8.820386291841914e-05 0.0025326973247144753
 -0.20576012459245505 0.17215447225702044 -0.45543393701230583 -0.7390365945742688 -0.0018251295400688212 0.0042873722224180235 -3.1643999751449536e-05 0.003930003364012737
 -0.003023781545917295 -0.002076237709586802 0.0027136969462006654 0.0027751707408635836 -0.7908232574496339 0.0002208395200422167 -0.02371211117336566 0.3206212678906545
 -0.0025068718938515843 0.007143151663484307 -0.0014985320454506822 -0.00021773079622736398 -0.021702872462170265 0.30572678177503443 -0.7904732628847962 -0.08007172676416428
37804600000.0 -0.4499442984789631 -0.7053036230782783 -0.19583007098737512 0.1730420563464382 0.00013604280893172842 0.0025628488295166745 -0.0006636061205924389 0.002858841554451621
 -0.19404869555131316 0.17502971324409472 -0.42434502065595925 -0.7280714400434237 0.0006076152368138468 0.0016126701185957624 0.0020644876700755366 0.004053794685694992
 0.0014088044559846474 0.0035092976491936725 -0.0012848103770914361 0.0025086986572477286 -0.7885726837814035 0.01570587571833951 -0.025229905052385575 0.312067666451391
 0.0006822585543710025 0.0015168039136395587 -0.004324654175212598 0.004453231330329246 0.004362521635034394 0.340332773654326 -0.8134169271763775 -0.06532451946322726
37874590000.0 -0.4233187778511426 -0.7082058478272082 -0.20701942874130305 0.1730871291481601 0.0013270375867403372 0.0009915666159477634 -0.00011929928718456452 0.002531998663488704
 -0.1981724815613518 0.17182167312146152 -0.447719749452966 -0.7434309671375025 -0.0010210260326968352 0.0013926771042355659 -0.0014777044592864579 0.001762589689785981
 -0.0017374556832072377 0.004820925745052737 0.0019546534175787504 0.009732938664858139 -0.7780430786446357 0.008382896276573607 0.027645348307571278 0.3385424591535467
 -0.0008715304880520155 0.0026308896315334245 -0.010023750822415717 0.003903986270299514 0.00019352282926482506 0.31944799769146653 -0.8212284839085568 -0.040749548262379164
37944580000.0 -0.44475997840971054 -0.7061793895228352 -0.20538968973932584 0.1734528705069128 0.00264794073467471 0.0023041112790245675 0.00317822442515662 0.0018399659488378298
 -0.2043645871392452 0.17771530906954364 -0.4495049706026662 -0.7283478595843945 -0.0010010139140369033 0.0037372697579350586 -0.0012669948758783703 0.003890027874478627
 0.0017812412069948768 0.0034837737458081664 -0.0011371915707434595 0.004575789176541981 -0.7791873321991567 -0.020839223489102304 0.02568928169476501 0.32070136821405826
 0.00047531321141855665 -0.0002955180198109344 -0.0003266642785802589 0.006006599888305256 0.004998209485185989 0.32145264793093714 -0.8069023499859297 -0.03779425880688577
38014570000.0 -0.4413655246933812 -0.7084189971167076 -0.20175553709579877 0.1800370116930387 0.00029352246074248534 0.003371329409280475 -0.0009079612639081872 0.005242666275160515
 -0.20158436120560821 0.17984887405765257 -0.448548212555545 -0.7353506620433398 -0.0004966965919648693 0.0016330480746835313 0.00022604814266684125 0.0044384464887101335
 0.00021543983827353354 0.0009862758813354165 -2.833966738851518e-05 0.002055865703279573 -0.8178611863902691 0.008148080259250056 -0.002855479298975428 0.30988215146985887
 -0.0012954534336889654 0.001758028751206296 -0.004338400844881465 0.006229697005794892 0.011049930004942338 0.3312170618761833 -0.7991584613478385 -0.02280131295074257
38084560000.0 -0.45192091469519674 -0.7216345738016058 -0.20535662279679837 0.17772055895264557 -4.75945424973697e-05 0.0010769258100085885 0.0009284050051638713 0.004469496437099412
 -0.20430545697735217 0.18044104285889387 -0.445157860617215 -0.7315030303156225 -0.005285385046059509 0.002788730825417613 0.0011475805449183611 0.002640020637656325
 8.521180675436523e-06 -0.0029361698249378513 0.0009929830078682178 0.0022546618147723722 -0.7876680000072045 0.0024772896503756545 0.0032870086482071274 0.3496197491818719
 -0.00035954735927544364 0.002242295783505392 -0.0005099368991481585 0.001686056744101841 -0.008579491975698888 0.32339907755681674 -0.8143170025525867 -0.058192402091897445
38154550000.0 -0.44149347655476795 -0.7021201638096718 -0.20157301634940472 0.18654302552298643 0.0025681570334735795 0.0024517095987535986 0.0006150802403769775 -0.00024928074076050307
 -0.20315637224080102 0.17920980864219713 -0.4643310045911126 -0.7161147288366014 -0.0013163307428034757 0.0030417297815257148 -0.0010845915064072382 0.0010485967301050187
 0.0007298002111806313 0.005325749648132962 0.001406281911909419 0.006417694302602758 -0.8247069550940272 -0.009513318539135437 0.014669684523075405 0.33136840233323744
 0.004062877462687947 0.006206431668660117 0.0036452217431553234 0.0010355244239658586 0.005678076559401519 0.33538027552118393 -0.7955082247078789 -0.04999059090548643
38224540000.0 -0.4614336261409823 -0.7238484065561063 -0.20845720036522733 0.18114457527440297 0.0003522159075478154 0.0039876078472292735 -1.3183358219706936e-05 0.0016243746274666035
 -0.2065177277152086 0.1933593371403323 -0.43820973246443895 -0.7207198933045689 -0.002131668516073975 0.004548413598324674 -0.0004126978136975965 0.0038948983258715684
 0.0014821241459261367 0.008262832432810984 -0.005874762905620707 0.009140773781886354 -0.773199856486471 0.04992741513583219 0.0035647912521506323 0.3185609295419837
 0.004223650058348217 -0.0013342894307868125 -0.003837488203811682 -0.0033005391837267785 0.005118073797368472 0.32182293153612324 -0.8207181057837049 -0.07735814389477279
38294530000.0 -0.46647831403822426 -0.7067453777996155 -0.20202818788624793 0.18209735149922276 0.0003489297960134211 0.0008964112847742933 0.003401639223438863 0.0012148253588784399
 -0.19813484609721096 0.18522523904321567 -0.4539971359693138 -0.7116127613599604 0.0005460186213779182 0.00013590545018513276 -0.002276428959197556 0.00501586968617328
 -0.002596852055535684 0.007211572830675045 -0.0012831563176863461 0.004314216384148367 -0.785832528301888 0.034884602682338416 0.030760199001043126 0.32554293842937293
 -0.001101392401561042 0.0041560006078772025 0.0009573833260492063 0.004046924532076417 0.01823004598000157 0.29386335046480644 -0.807648716544884 -0.020181398281162166
38364520000.0 -0.4561139876509392 -0.674463310296266 -0.1951187315510105 0.18764630002165003 -0.0012811013448608703 0.0012769893429425663 0.0020916814371966055 0.0011209011939615897
 -0.19782571728114356 0.18390436409116606 -0.4900770968734689 -0.6766021663968051 9.669324438210403e-05 0.004565697435383242 0.004731225704550156 0.00423972909813372
 0.004609134751016262 -0.0021496019492498746 0.0016700121150224907 -0.004270585328746646 -0.7872296499748984 -0.016820012015326104 0.025898345865899074 0.3260502037143563
 -0.0010849638922795471 0.005155345082075644 0.0016329829646166488 0.0024751168022015204 0.003449745461943288 0.3365268207119707 -0.7644523165583998 -0.03414939305969347
38434510000.0 -0.4443319270322509 -0.7119310396357267 -0.1999679042870186 0.18132618302834586 0.0005583026343924256 0.0045551664315567056 0.0008731761640134091 0.001070106008527545
 -0.20074744712226927 0.19097355110254452 -0.4346045663490084 -0.6991975808792829 0.0008640132759187963 0.0034075490109188923 0.0017650252986009416 0.0029456423205975286
 -0.0019565830307123207 0.001340979804071746 0.0057187305736542534 0.0013766758524063314 -0.7791835820938134 0.05306612396185555 -0.004160985713455048 0.3262364089004234
 -0.006278343233012759 -0.003394899945419512 0.0004552417152313057 0.0036372844248785913 0.01809297170677344 0.3251233127613596 -0.8386958918527682 -0.048893515325881556
38504500000.0 -0.4801834150405418 -0.7115180673002136 -0.2073681897748709 0.18887520002399372 -0.00014389044479240926 0.0012831902834785306 0.0019558910956310395 0.004229674734002892
 -0.1965207915767361 0.19463245304832974 -0.4830841191687965 -0.7176380974246924 -0.0008669813952203121 0.0005817925483342229 -1.5746846844645472e-05 0.0053034635170808204
 0.0020045907053235046 -0.0019235412904636837 -0.0029906343014032212 -0.002973531555884682 -0.8184069099073251 0.03004251623733306 0.010835862224354184 0.33793977372100337
 0.000517828689842196 0.0015046403699653242 0.004383752369022549 -0.0009170657059105206 0.007823321960394678 0.3549333252664258 -0.7861514325710546 0.0075618382264622695
38574490000.0 -0.4511353435693234 -0.6840605531646581 -0.20741521913214778 0.19759824289367625 -0.0007354133750376399 0.0028144532815952274 -8.965259659115215e-05 0.003119810792681042
 -0.20394631268572191 0.197496279106742 -0.49238618032897635 -0.7111675529462275 9.492074345775699e-05 0.003243030650443205 -0.0006747802583454476 -0.000937919135114968
 0.0030727278841393706 0.006482285715544327 -0.00533176855179827 0.0026153420658107935 -0.799296977292676 0.03232804858644625 0.022607612671799497 0.30346679725297304
 0.0007383743025164023 -0.002187519751265026 -0.0014683835347791413 0.0014115769533962316 0.023025435513520074 0.3496330800268934 -0.804290050165792 -0.02178171129003221
38644480000.0 -0.4662356712069406 -0.7074810954610362 -0.20340290370560046 0.19151171310818896 -0.0007331980595641784 0.0017303367488538906 -0.00018515023691289675 0.0035403844625252565
 -0.20679658299541184 0.18928576868515198 -0.47747891325927094 -0.6723849757311439 0.0018233889606422077 0.004634406814734917 -0.0012565854163885952 0.0020559456359460783
 -0.002118371204089176 0.0007714679202520765 -0.003068274912665138 0.004021291094139409 -0.8133043984577442 0.04134253739092551 0.01635480995002372 0.3383793668431638
 -0.00390904905573019 -0.0001803803663820873 0.0025181648939501277 0.0058671722129599625 0.03623357589667908 0.31569479940537293 -0.7701267620416756 -0.011394977090318595
38714470000.0 -0.4843387386313137 -0.7099155562107438 -0.2083075076454362 0.19385467307119342 -0.001511923158135747 0.002848165190836787 -0.0018470395207512537 0.0007500800806020533
 -0.21103973392282097 0.1922119049460094 -0.47860509914385846 -0.7026568159225154 0.0010133589679684344 0.0019492876648116904 0.003946855031715023 0.005069628123832265
 0.001359743235379413 0.005427687886684157 -0.00011094162120199027 0.013201663704594786 -0.7752277578546614 0.05056244915788242 0.06232625471557301 0.34834792922912505
 -0.0014571084465291907 0.002932100021402219 -0.012318064544911793 0.0069001422150972444 0.014431524135705526 0.33615839050840757 -0.7812551837382319 -0.026776915688742284
38784460000.0 -0.4673677748858677 -0.7025774567621393 -0.20447649744332433 0.1920524810454657 -0.004129628019537233 0.004438195796390694 0.0018439275319630099 0.003984740176292004
 -0.204082249157449 0.19447466827235882 -0.4858303777669851 -0.6821586927786703 -0.0011270792337820705 0.0033638989613895194 0.0021403849110009695 0.0018140926508673834
 -0.00427215944109804 -0.0007255501697188713 0.0012045456030435342 -0.0006896800356809879 -0.8037469962034268 0.0649616283516664 0.00811206244073208 0.3281261712094444
 0.001158287570846404 0.003265332741029944 0.00271257329149076 0.0033523586466927733 0.01206564666898556 0.34076244872733497 -0.8332573053444131 -0.03620740860740128
38854450000.0 -0.48930029923343227 -0.6995751678050366 -0.20885792914837636 0.18596142364540957 0.002480747508966457 0.001930039212063786 0.001536627381169424 0.0038450164825794882
 -0.20437897923419435 0.1987214191997482 -0.44121074497184276 -0.7094804117239035 -0.0009521578754892636 0.005573199381849561 0.002300541572564488 -0.0020520231140229235
 0.0023907779319980484 0.0004892327013115817 -0.006077624810954812 0.0073885514943277004 -0.7979396221242524 0.05141863947749565 0.02305746998750888 0.3496430165861688
 0.0024369622513959847 0.0006265230493843637 0.004530489101491152 0.003262201019298124 0.017808816597241203 0.29336463033116444 -0.8503972683463447 0.031460578513246955
38924440000.0 -0.49054499977428484 -0.6607265703414644 -0.2055600687870709 0.19800153251526378 0.000892910003612083 0.005274738661470865 0.0032525012109908555 0.0015476559860777433
 -0.20199030002520726 0.1953092758582288 -0.49347753505459535 -0.6952791637262179 0.0005135918756885929 0.0011878002028089946 -0.0018839745910215024 0.004272026848764209
 0.002502348917171858 0.003992318753227718 0.003929101690664867 0.001417579297895228 -0.7830882243499585 0.05713815368246061 0.010132742323677639 0.32371580128529104
 0.0035848008788504277 0.009422818957914834 0.000262002378001944 0.0036643945827684017 0.010634488916540698 0.33676614194560317 -0.7789735049619694 -0.042667683683445576
38994430000.0 -0.503425063850138 -0.6921224398957 -0.20733211064068516 0.20415339297335638 0.0033275251832999976 0.0009328929584666791 -0.0004257304972658889 0.005864054174605734
 -0.21071936305611866 0.20343460329679355 -0.4767457062517203 -0.6907314142268522 -0.0008437406152522232 0.0055696188150481055 -0.0015765168640528872 -0.0024963682800164867
 -0.0008024737809787397 0.004195534748014826 -0.0011739642514702498 0.0030319801329429757 -0.7924431256125762 0.10827786698553571 0.015364469030861016 0.33703433268272
 -0.0008904406039158085 0.0028197574359009898 0.003610307916857551 0.004599760261272808 0.03117385034842762 0.34078540272713914 -0.7830019147534216 0.01826103420451392
39064420000.0 -0.4997867283536466 -0.6781172117537347 -0.20513126961470146 0.21272629667862172 0.00047984742646553697 -0.0004012364966300202 -0.0020480178534328128 -0.002316239384121568
 -0.20006119238278985 0.20608624394486358 -0.5200950299950905 -0.6999307618653201 -0.0002568650225404017 0.002700139525248547 -0.0010396471081870818 0.003352114917695832
 -0.001542359327634767 -0.0006731318726292638 -0.0010342414981148347 0.0020950399763587967 -0.7994559830720128 0.04006504752698362 0.013490386847739773 0.3641899874112348
 0.0035481554940931777 9.275816133742204e-05 -0.004582593340637491 0.002322539562028048 0.04438963056228005 0.3203954097807272 -0.7885526717880982 0.004522518956203475
39134410000.0 -0.47946295377005305 -0.6473825935584893 -0.2038307696795268 0.18998749234240925 -0.0011444103155753413 -0.00014358653422472144 -0.00220081608542782 0.0008921690879009064
 -0.2022798288662666 0.19763937850473334 -0.4775136577808843 -0.6686024551607346 -0.0022234510123028996 0.004023043519095503 -0.001889004409356425 0.0024339036169409834
 0.0017464613956268595 0.00392961002146689 0.002368566649758565 0.0029117357867997373 -0.7889335272527626 0.05094061154851644 0.01776712408332216 0.3374269667887353
 -0.0014172154080355419 0.00510650645036392 -0.000883873225515297 -0.0016169188498168232 0.03255025337560046 0.32098954792742596 -0.7872434576485742 -0.0050934854944349565
39204400000.0 -0.5041184061200759 -0.6783927256495431 -0.21042896162289154 0.20245646143035542 -0.0025136506340062794 -0.0003176860952211893 0.0023114002533410685 0.003858019391160062
 -0.20691341619635695 0.21915545350537088 -0.49342783206570484 -0.704376561953185 -0.00011568012971882226 0.0009843362137903278 -0.0007623840785734654 0.004616443967921997
 -0.0014515942040526299 0.007022876835338257 0.00015694884839868818 0.00044029055034563997 -0.7572366021378591 0.07411159838516437 0.023187379414222758 0.3200062705628401
 -0.004108323792358087 0.004958440712031623 0.001699389057627874 -0.0002463010239591162 0.0160293956043276 0.3173643960844662 -0.8452753957711328 0.0333158681135814
39274390000.0 -0.4928810063778852 -0.6974389019299031 -0.21225845517243547 0.2201412038064282 -0.0007623819562373309 -0.003286012173615503 -0.0006559274218391064 0.002683739150149006
 -0.21133996733386917 0.2123330490370644 -0.5261280319475801 -0.7071213232127129 -0.0009237827895770747 0.0020200075683543305 -0.0016319546756415548 0.0038657303756376646
 0.001771297420001038 0.0027894950338880798 0.001765102765266473 -0.00451598355889806 -0.8121925120867836 0.09855506663300374 0.04578207629863559 0.292710502755953
 -8.660077171816998e-05 -0.0006246707144085659 -0.003247908481633924 0.005680819950573728 0.0148756421992475 0.3233637598157718 -0.7638538958394425 0.029564607942524794
39344380000.0 -0.49957593126414124 -0.6457093266759054 -0.20177335574448055 0.20026681495906248 -0.0004726143715241468 0.0010532858842121043 0.0025549317558069677 -0.0001776396393548165
 -0.20061409069768574 0.19991294128170292 -0.49677263108873476 -0.6587920790333976 -0.0024181583623689978 0.0032449883654755447 0.0017423423910518645 0.0024669713237703192
 -0.000518404820912902 0.0037251724024739636 -0.0006781737462215198 0.0022441953797130106 -0.7674120388585357 0.07471806064669707 0.042055832811869226 0.3154399001536359
 0.0022585633095444286 0.0019737188532305736 0.004261412794535674 0.0006070490254970427 0.05587180555646328 0.3207636346481876 -0.796382049714059 -0.01641066883616853
39414370000.0 -0.5036289026570552 -0.6354898863867239 -0.202261183108563 0.20523769050472232 -9.140784864310478e-05 -0.00011030326009923454 0.002591556069197784 0.0033174940021985892
 -0.1946319650729315 0.2054947170518303 -0.5027088436699431 -0.678512220042336 -0.0005360223976970792 -0.0002701200452349968 -0.0051617913716312845 -0.0036515744589521145
 0.0027665666446797564 0.0010834381176848301 0.005876166690606741 0.006947800760159236 -0.7793568242802329 0.06260972936911348 0.03779119591245243 0.33536728521104864
 0.0002264332995558948 0.004085648894321938 -0.0055016079347821375 0.004947449053147633 0.02400779806781412 0.34059886208983037 -0.7784633543574192 0.025723637011950393
39484360000.0 -0.49155651422671376 -0.6741045943043166 -0.21262748662810158 0.19474231912472023 0.0018123732691455229 0.0011167296127559448 0.002347623058105013 0.0008462003579826886
 -0.21151041918687238 0.2083614555329549 -0.4742738754664307 -0.681849651585062 0.0017837700380332199 0.004013778734833654 -0.004235400993561047 0.005240880658424899
 0.0006344942659081668 0.0026245087249853905 0.0007796243552950624 0.0018370373379884273 -0.7838173725974988 0.08567860462930424 0.0596086554083701 0.3320410709700353
 0.0017341940933752048 -0.003762928887165195 -0.002698737447194461 0.005200748053535633 0.03546152845250103 0.3301231757957923 -0.8268232258083262 0.02624831355237911
39554350000.0 -0.5060188705655201 -0.6481921407975038 -0.2023751944938378 0.2050152877934456 -0.0023554178112838694 0.0013166089343602959 -0.0008723794210859253 0.004587352063361172
 -0.19662081109441515 0.20718351545060143 -0.5141501140653786 -0.6699759937770368 0.0011912602353030652 0.00592637013816425 0.0031407453926833103 0.0027863009783628836
 0.0030641460858920225 0.005473667200471325 -0.0014707975776469945 0.0006636857749491505 -0.750418697479088 0.08317710845494979 0.023532910131145595 0.3174442091929258
 0.005466149217762167 0.0038980624615815277 -0.000246570258658414 0.003625625986233939 0.026865886840925075 0.33359255859806936 -0.8245443238606586 0.026417982516216663
39624340000.0 -0.5271535467510785 -0.6584119180101045 -0.2022933642332234 0.22058044494520634 -0.0004921893111705385 0.0012868133615410674 -4.395229558117779e-05 0.003339038129444395
 -0.20480769923889758 0.21362970273684856 -0.5180102042473036 -0.6708897185430682 0.002219413812660181 0.0008762511379352331 0.0018691593740594646 0.001637124760944447
 -0.0005236106459881804 0.003076203807336643 0.0032799769981152974 0.010504313190812634 -0.7972154698794699 0.09782643197342795 0.08397649675089243 0.34796425162036293
 -0.007058755519497035 0.0008789267261243047 0.005278700868444099 0.0009751611363308498 0.03480984387435109 0.3374544337963464 -0.7383119162086704 0.038521435864564066
39694330000.0 -0.519336264337354 -0.6596909122643867 -0.20779281425962975 0.21905291361914558 0.0002531786288433433 0.0033300012356769627 0.002530747632878894 0.0032028235600636374
 -0.20647095845819588 0.22351863048366444 -0.532234920943905 -0.6722409376768386 0.0011754945782688946 -0.0003742452707585169 -0.0004993793167752157 0.007528312166344455
 -0.002154564262481796 -0.00036975729359607027 -0.0024089047807709088 0.0007484412004542204 -0.7513816791279443 0.08692187894713574 0.07960743302300578 0.32015694275778334
 0.002439414363522027 0.003142555096506463 0.0013914962913000016 0.004678945247078075 0.027149680184129558 0.3167282375788524 -0.8071761438980524 0.044732469682857726
39764320000.0 -0.5006332094766388 -0.6758882601278241 -0.21424336897276275 0.21630309636361272 0.000901317150513522 -0.000998594818818261 0.00010200088144470096 0.005784382293676169
 -0.20775266559541186 0.21215818508248369 -0.5087301170227665 -0.6756080177394148 -0.0024786774289447203 0.0025134248845209975 0.003992377307870427 0.003146436104345542
 0.001462534307280502 0.009549923409450309 0.004316626890669289 0.0023344354571408245 -0.7863194492705947 0.1355580876845977 0.026307509714405656 0.3302826734271148
 0.0017915339354432761 0.0009707940578960219 0.0028923151270394618 0.0016235655197736076 0.04963299022876442 0.3241937242587678 -0.8040303372854755 0.05557182111539089
39834310000.0 -0.5604150042524592 -0.6237468400614664 -0.20872630456052146 0.21261881317341266 0.0003963378099452659 0.0015672065915901547 0.0013140177938729461 -0.003043116244435655
 -0.19843667150149347 0.22381834472021872 -0.4921607718037173 -0.6754184688079076 0.0014761479482147115 0.0013207778759401006 -0.00016360165707033302 0.005576281210719483
 -0.002965512212637769 -0.00046389898190133636 0.0017210677787993602 0.005654675880532974 -0.7730753971380012 0.08022914249988199 0.014441823737968667 0.3036353380662122
 0.005994399770624526 -0.0002903322477052093 0.006351858575379424 0.0011338759041574608 0.06995056288714173 0.36233223944003273 -0.8363214753484265 0.06341033170811745
39904300000.0 -0.5137728947389607 -0.6442238119976068 -0.21144397204488088 0.21631033899733407 -0.0011844631777401492 0.00014427139050591104 0.0003880351289169999 0.0037680073132547176
 -0.20917762764198175 0.2152764121076223 -0.5186705554613744 -0.6731160890808024 0.0017116865571367582 0.0024008365851312195 -0.0010875083921571937 0.005090499902602662
 -0.0016418565214256632 -0.0008496547619254231 -0.0020047507185721927 0.0055538670430810445 -0.794963930157633 0.12128876896564675 0.023587372656926925 0.33490763192585976
 -0.0009064739461989613 -0.0013833448565435593 0.003290878900062752 -0.0006681510996819447 0.05582631469701133 0.3292210293832952 -0.7966782507274662 0.0637717455454483
39974290000.0 -0.5355215244731334 -0.677008572787156 -0.2061753266182016 0.2166098656937384 -0.00042386632383410586 0.0020790044949872875 0.0032778744016813783 0.002117313883831425
 -0.20771595505211274 0.2212251999007794 -0.4945767126381569 -0.6418292403779402 0.0015141539882942577 -0.00217176487648745 -0.0010939292471644356 0.005032698135437657
 0.0005846717114364589 0.0010623325965720013 0.005699321808121867 -0.0031526077862432584 -0.7949863569358172 0.15370476924834178 0.06290323965502555 0.3359132900560056
 0.0019436674313275794 0.003214589566154142 -0.002773250397883499 0.005224521282876963 0.06631999971794307 0.3383403000187903 -0.8209480337853596 0.03675929485761825
40044280000.0 -0.5110773579626465 -0.7022976794099904 -0.21498186901545063 0.2230818331509167 -0.0006595503139951583 0.005944622790205398 -0.0011067931046615299 -0.0010654368740642738
 -0.21937729660459893 0.22484979994874568 -0.5126999262862025 -0.6635739803016649 -0.0010038035769579156 0.004159580616236169 -0.0036347881181054906 0.007195813466698466
 -0.004124290002003074 0.004783299394239421 0.008741981481620196 0.009372849633481522 -0.7557816304489426 0.11606396716674766 0.03890145208847512 0.3561272766081006
 -0.00087883752975218 -0.003944951124567 -0.0020704875433758905 0.004641014236467425 0.031988349294617614 0.32537814206152443 -0.7765519333556948 0.11122087031299213
40114270000.0 -0.5124122405395688 -0.6489288842655043 -0.2093893786278583 0.22914753083557787 -0.00406693072797723 0.0036591441481859653 0.002712236139615611 -0.0016053374231883833
 -0.205704137484426 0.2277579484668814 -0.5269488696192526 -0.6389037767811011 0.0011554492960519824 0.005706058767715386 7.51449045608359e-05 0.004816451038634522
 -0.003493320143305885 0.0038945857976468426 -0.0027653551995220475 0.012798601349927165 -0.8308578068953083 0.1228519208923319 0.03408260702671171 0.33430084923971337
 0.006711259268824885 0.002925349106482606 -0.0025346567940991035 0.01023341761659898 0.05072596630947055 0.36936403294181414 -0.8033696155258552 0.09948977098883399
40184260000.0 -0.5154053988763562 -0.681065508072596 -0.22217064965244737 0.22890471315809824 -0.0011859453310417876 0.0006602079968657582 0.0008971505492840305 0.0008778203838676369
 -0.21457389851691455 0.2304633537143885 -0.5339749896937824 -0.6696584677274062 0.006010483606129548 0.0008551362624825063 0.005165904324166177 0.0003330394295319881
 -0.00277909855736646 -0.010525755253228446 -0.011316510573069797 0.0010552396217601648 -0.7814780392701881 0.0993930012984159 0.05336990506421931 0.3486900446886609
 -0.0038482683312514383 0.0032555173475532603 -0.00026316160013373387 -0.0029339314601293607 0.051003120960574556 0.33475291875811647 -0.7410564119030918 0.08324983438812346
40254250000.0 -0.5791908500964164 -0.6411651680418541 -0.22133907752321183 0.23598677209616248 0.0021794004107277974 0.00399269579814137 -0.0011865164338986788 0.004671065343920968
 -0.19499245604105198 0.23749670079653631 -0.5488531275005876 -0.7176857560458989 0.0020037290547477876 0.00811104309406253 0.0011197713764011536 -0.004325085333920482
 -0.0012183929877271258 -0.0032260180823208365 -0.009445246102269116 0.012101679659474392 -0.7581530761127953 0.15791143291909002 0.05239298472599716 0.30991197687608396
 0.00025458379661687567 0.003455220940568933 0.007179670593633895 0.0030851227506783776 0.022529782039227404 0.34976421910572014 -0.7740084681338635 0.12331801734998372
40324240000.0 -0.5008966822534952 -0.6092659082320505 -0.20215526776606899 0.21954516308950753 0.0033743914371202545 0.005062771678911642 0.0017617002286799065 0.0007206196832702576
 -0.18682798447750606 0.23037772187971292 -0.5470579805686068 -0.6320936443411864 0.002758963216013911 0.0017241763577956985 0.004566999463028971 0.0069034804631488865
 0.005954363121327514 -0.002694516852872076 0.0036866420429251725 0.005847529862456324 -0.7001906739777157 0.14991870657901515 0.051801918892137665 0.2904593021530587
 0.005228685775173799 -0.004109402028342758 -0.005577565140705214 0.006436510755302132 0.05904240775181678 0.32941379247655916 -0.8064976874516936 0.07955247648420252
40394230000.0 -0.5624144457302146 -0.6177366032048902 -0.19534595926511647 0.2294942045830722 0.0014237249308526783 0.0009142934499767557 0.002667983946009834 0.0028999790931860635
 -0.19623912148259234 0.24244758958083043 -0.5301722258651497 -0.6506533437809355 -5.603723745525644e-05 0.0030074999311983206 0.0024603454266035668 0.005721811925426473
 0.004696213013224173 0.004746457799916961 -0.007647550209262918 0.004483185484209805 -0.6771986139006456 0.051075719685600963 0.06389580826571811 0.3307528127131708
 0.005754088256401097 0.0005666172938444452 -0.006362673338653741 0.006118661032448194 0.05469274772475725 0.3475720423642148 -0.8045834637995498 0.10964489501596203
40464220000.0 -0.5199456595712786 -0.610402904499396 -0.21677171556474295 0.23018705287915017 -0.0028980528961907934 0.0027709592090593674 -0.0020840807855173065 0.0016571648435680457
 -0.21754005114170596 0.23479033214676218 -0.5359669294169502 -0.6448856489421604 -0.0004206075266130508 0.0008881566014261977 0.006726369388033688 0.005406526066334149
 -0.0048585333080651515 0.010599686460143415 -0.006578449552967171 0.010960074331754511 -0.7542625962725684 0.15553865494108546 0.04031660937884406 0.3534627169118497
 0.009134021122675046 0.007463890302247049 0.0028963793626824155 -0.003094841811508537 0.06539512441362398 0.30669245420431274 -0.830509860511548 0.10878575622330776
40534210000.0 -0.526437260711545 -0.6424253776187271 -0.20000747966969182 0.2261349220882971 -0.0001634127010815051 0.007016261067717382 0.0011814300189744724 -0.0007286748538632554
 -0.20209947264080355 0.22183048646028178 -0.5127826383666808 -0.6180885446845656 0.0031198075979785374 -0.0005784350578259182 0.0012959320508209105 0.00391953240973728
 0.0025313208073974845 -0.0009470515673220953 0.00038258457716857806 -0.008931716848543155 -0.7146847348482009 0.1280307013567442 0.04862399216580025 0.301731620808948
 -0.0012681370642756487 0.001665813510596367 -0.014390795271743324 0.010579638458894485 0.050095429602682755 0.3063517288114425 -0.8009071594961921 0.10967645626825517
40604200000.0 -0.5388301679603529 -0.6280447507861324 -0.21652075637976725 0.21654116394199402 0.003987161400778945 -0.0006079485150241965 -0.002617228589348176 0.005739771444588431
 -0.2209316212844027 0.22544180285269927 -0.5046675214813021 -0.661047995592892 -0.00210030671952471 0.008888941789429745 0.002392851169173014 0.00606676164271597
 -0.007978755654657875 0.003288703517464106 0.005459965019603902 0.005400489107305587 -0.7831332251010464 0.1915271801932664 0.08471765186431607 0.3192373048929412
 0.004395640835059502 -0.0007502376477342274 0.014425573933927861 0.00465032936549223 0.03670585448099437 0.31800844766449987 -0.8477005203550605 0.0946189577875977
40674190000.0 -0.5196384179627931 -0.6229218910362875 -0.20009058338536 0.23519544777329762 -0.002841168625341284 0.004154055255002169 0.004258261925502441 -0.00022900616359090704
 -0.19898178134289188 0.23204617365728716 -0.5446588643521317 -0.6121651743049864 -0.0018872932438675361 0.004583911609547765 -0.005036384639735139 -0.0007200753081986758
 0.003036126891431647 -0.0012074943145956604 -0.013846061790559411 -0.004969498226820763 -0.8247584465398129 0.14369717284205266 0.020925924207929793 0.2897630099160873
 -0.0022933422542537447 0.0018359208140884369 -0.005603407352671181 0.0008146822678168134 0.07840049866378822 0.32652366895651025 -0.7770836093494876 0.07794681251062244
40744180000.0 -0.5225655500325059 -0.6396019582546059 -0.1959743161150554 0.23628118729957748 0.0035488644688359515 0.001819518119352301 -0.0028403069470705313 0.002177011476781106
 -0.20503022438482493 0.23031827981707856 -0.5513469714007737 -0.5879715834245873 -0.00014895932325955966 0.0014171604979455027 -0.0013315332579680722 0.011441881591474095
 -0.005007935532634213 0.004843003599657541 0.026782730313249268 0.011410246920575505 -0.807475209305849 0.1555756042050781 0.016835782119664383 0.3249208157143646
 -0.004408125332284893 0.00439124708709663 0.017863655585439765 -0.007172760771221781 0.04579578662682157 0.33884166187843845 -0.8038645146668267 0.14448307860390655
40814170000.0 -0.571094158343564 -0.6010929006993525 -0.20749549532208397 0.24974056547716644 -0.0007902382741306434 -0.0017303208751633396 0.0007067469343797207 0.002178730755760335
 -0.19633237537239254 0.2415645359005275 -0.5522891429216893 -0.6560759020925464 0.0009231102154905162 0.002742170132592505 -0.0009897352758993956 0.003171376091411474
 0.010553091844324632 0.0026180990211276565 0.011134875189740852 0.010956863582951261 -0.7489864340548845 0.1638231496443984 0.09882485235343823 0.3262621129115855
 -0.0012003154020494068 0.003904425973349506 -0.00831094148251463 0.010957955764870186 0.07292514735519769 0.3142418749764204 -0.7842526375289115 0.20046480595021018
40884160000.0 -0.5103934800948338 -0.593770666456288 -0.2077991030494698 0.23607865393201224 0.0039717589981040965 0.003831890418096478 -0.00012901181006319884 0.005660916478002867
 -0.1995623016407134 0.241545090683023 -0.5233877944509473 -0.6113830491165582 0.005637756904383487 -0.0011885745393161247 0.0012023008310827479 -0.00047849420409726946
 -0.00412351483006116 0.007268413482362454 -0.0032449539677450604 0.005799765839363437 -0.7614445940687095 0.11936566974067848 0.006650637059394682 0.3732056440123904
 0.0003522446649266413 -0.000983587543505048 -0.0019199981424310687 0.00031243356596852973 0.0765471836190259 0.31072198994259786 -0.788544422500966 0.11140237639634089
40954150000.0 -0.5601411243559171 -0.6440984238856798 -0.19887043747783603 0.23348284003662412 -0.0008565485603355076 0.00013191195248902785 -0.00337786477345912 0.0035285265901074036
 -0.19777651937379268 0.24702091531442133 -0.5191632695154215 -0.6148145848875834 -0.001156534084657579 0.001131257683425945 0.0011105103789832557 0.003018761693729574
 0.0030103603489670546 0.007470988076631325 -0.0013968716179377952 0.0031983017744507763 -0.750124947589402 0.20501256272337043 0.07409474007017486 0.3231652219066983
 -0.005833180111528433 -0.004583669629987606 -0.008724783684456084 5.5642478503548e-05 0.08700304533093339 0.3550228003569099 -0.8505371725709254 0.10615407641255406
41024140000.0 -0.5702669573319015 -0.5775954864237691 -0.19157958164217473 0.2378983434097636 0.00016779012650360072 0.00021780221709475427 0.001892037931918831 0.003509762196694012
 -0.1962247049665452 0.23524724732452262 -0.5749102317635763 -0.5903473591967993 -0.00020220998156906357 0.0057494800086505555 -0.001352196123360564 0.0040159058289452095
 -0.00010532980008359448 0.0018013384452738406 0.002737810279304942 8.060698453203272e-05 -0.7395160114631989 0.1704710806205125 0.07591372334906268 0.35294380396732977
 -0.009178938096062008 0.005405016846740892 0.0059834253075097335 0.007822344746202737 0.07202467258144879 0.3139599951044834 -0.7516972048086998 0.11662547836161602
41094130000.0 -0.56908607098552 -0.6169978184603071 -0.21666738197358268 0.24096061012537867 0.0016704662764470658 0.003884152360424518 0.0017419417776763065 0.0007651093847259531
 -0.2005576628414189 0.2481680654446981 -0.5486201179469453 -0.6565124385577107 -0.001080083488231895 0.0015834856590872532 0.0029905455698466324 0.0030355413474865427
 0.007227372025137501 0.0014137324560576515 -0.014359144822844103 -0.0004082103321068234 -0.7776898605731795 0.1943771320013394 0.07319037669187843 0.35218490554110715
 -0.005603539494741651 0.0033527327360060046 0.001006485513856037 -0.0021428150429533867 0.0344660682931027 0.34462503105693565 -0.840345751949603 0.12414841410439638
41164120000.0 -0.5424210583089134 -0.6160379422978784 -0.20886739827979986 0.2382313598223747 -0.0020285582634741615 0.003719928415778128 -0.0017630931838071157 -0.0014418575991527684
 -0.19999656983569067 0.2266401788849949 -0.5790349388400353 -0.6259557822521276 -0.0009405863862231229 0.0018137149974260802 0.002081014256816155 0.006759522418636634
 0.003618676702506359 0.004848726045590514 0.003344367643037973 -0.010015275343329053 -0.7183329053087637 0.15793967524259636 0.06869781591348746 0.3028873965428405
 0.009665076251559272 0.005554090190347435 -0.00705504480714578 0.0070564979351629125 0.05511536019972581 0.33588715828513754 -0.76746957785506 0.1846186900154308
41234110000.0 -0.5543336623343982 -0.6080823337862752 -0.19992695934046498 0.2510376164196949 0.004161918372100871 0.0007792472488867067 0.0005254590454456295 0.004119624650779904
 -0.20908130849410306 0.2542455814580325 -0.5976255337023122 -0.614970444297173 0.0022095821222611225 0.0006964275772778942 -0.0003255640901533556 0.0023662871294929254
 -0.007930528247628743 0.002508903738600271 0.007277155451887207 -0.00498688886462514 -0.7438812328104406 0.15032111330962253 0.11569069071076357 0.33398618904085176
 0.0021677907693463923 -0.004326329875339234 0.005994205060814997 -0.000304572881139984 0.037336520355110474 0.3602783726257215 -0.7292116889956921 0.1504564279536707
41304100000.0 -0.5493204291325418 -0.5942681384939874 -0.1923250252222584 0.24875335421097725 -0.00215695221820175 0.0007809676070705179 -0.0013686541255792536 0.0012440875337951993
 -0.19551042954618886 0.2412828291729335 -0.5701516530665635 -0.5974453545216531 9.410556658452033e-05 -2.0655861430899172e-05 -0.002639372760801653 0.005033559579033747
 0.000914303578693618 0.006499475864100136 -0.0056950541814357125 0.004688767030060039 -0.77453126052732 0.14529100704243383 0.10664219686918693 0.3248479654498976
 0.001765023735723477 -0.00030265970456622973 -0.000352980063597906 0.0028622856084579477 0.057376501801081836 0.3326715993392684 -0.7922535768407225 0.10187935341477058
41374090000.0 -0.556592391076381 -0.5852031598385994 -0.20201826681290733 0.2565102426502432 -0.0006585538921313458 0.002312545411046792 0.005063092620072487 0.0032681045209021317
 -0.19938247333279158 0.25009407307154286 -0.5979087404842768 -0.5979087404842769 0.0018055856614808822 0.006974465131926526 0.0007551907683829862 0.0023797060394894214
 0.004177877084367184 0.0031888254021736014 -0.009195518047506937 0.0017001387414293625 -0.7882349077352329 0.2096034623202673 0.05956259905702232 0.31913393692265457
 0.0015379011418504309 -0.0024697738448521953 0.0009777572107684456 0.011018866136860735 0.05086499587961519 0.3328553141044911 -0.7914998278091666 0.13651802034522295
41444080000.0 -0.5661585217960474 -0.5602331710868587 -0.22650922837252122 0.24266099871930988 -0.0004554660191397929 -0.0016810425429638007 0.0049507912981148205 0.001906900450705822
 -0.20215515355946467 0.25458225538392504 -0.5404077856105621 -0.6409893023870571 -0.0025858663297932682 0.0013363688120094138 0.00565248919868509 0.002538337482208359
 -0.011057867005846022 -0.002059557227254665 0.002177765768241355 0.0008598831193935267 -0.7309809502263321 0.12433048858746716 0.11955788328868265 0.345369004203055
 -0.006770439813386305 0.010119253894459345 0.013328889881123832 0.0006573552101667673 0.08949111861287326 0.31837394086936877 -0.8249316697259145 0.16037886253426753
41514070000.0 -0.5590934378656001 -0.596885786280313 -0.2318916692307568 0.24586415905975723 -0.0005595807578056125 0.0020053551176625623 0.002142450852189689 0.0074280374606232255
 -0.21320527383925503 0.25144573011620097 -0.5531699139144652 -0.6230875046529675 0.001972113953503477 0.0008557508830261215 0.000640038790241616 0.0021559956970509902
 0.008599184597813366 0.008394438355002521 -0.0055124058882352125 -0.0007818323642719038 -0.7393443964855363 0.18028878746330498 0.06484906402012874 0.32695879546219575
 -0.008884724996224197 0.007404575723676447 0.004282068728603185 -0.00116341633696813 0.07468714904599472 0.31028762805843085 -0.8258737385424766 0.15199193571616929
41584060000.0 -0.5800882661137351 -0.5642845655889581 -0.19293956882390048 0.25956045349378515 -0.003912153636037083 8.525419612113742e-05 0.001448118484391283 0.0012178229648002975
 -0.18651188765909393 0.24870419844499644 -0.598439655509069 -0.5786456861925453 0.004397110370618598 0.004966147044692058 0.006434257195552439 -0.0020813452194135703
 0.0014875996059675962 0.0014699447048764967 0.011979706092362352 0.008362014948534622 -0.7639715859553954 0.22222901614851856 0.06835609405345407 0.33724886241264446
 -0.0023316921478276085 -0.0008240791446485824 -0.007019283873502327 0.006906939818292856 0.09596726240981832 0.34733480156542695 -0.7873733257873357 0.1781557264219196
41654050000.0 -0.5890154099431709 -0.5822692201660294 -0.1862729776112637 0.24092823753347384 -0.0015399996569921968 0.0032028722830829016 0.0006854550493327276 -0.0005253575228801521
 -0.1875967092146764 0.2614177868219642 -0.5895033176243665 -0.5886006547241259 0.00046718350505306044 0.0019270724460384906 -0.0029077080388165604 0.004892235684293398
 0.004382413055427786 0.005009877259211673 -0.005280419772448325 0.007395883423871428 -0.7148183067024411 0.22402692017427303 0.10033163484639854 0.3046103991835725
 -0.006904817255877423 0.006673962458089839 -0.005477057781966251 0.011134039509985653 0.08937229952206713 0.3181901917871166 -0.7576466516631781 0.1612321227437801
41724040000.0 -0.5842293208844558 -0.5988639231535067 -0.23233366013872817 0.2713979358150444 -0.00118989535432942 0.006809904987221532 -0.001595399818017302 0.0012677022494762397
 -0.21169749073409766 0.2663453077322502 -0.5903065176935038 -0.6369733436588146 -0.0009881391279310636 0.002657750119917252 0.004823902419700417 0.004336389651075289
 0.0010398732683554865 0.004448172590986124 0.008599581502263785 0.012196969318796347 -0.7815540663509635 0.23046564220239774 0.08555562010338137 0.32514370239891316
 -0.0028218757164407823 0.002188729187667079 -0.0072785457620881434 0.008012604379432008 0.06840123350817508 0.31874783654897465 -0.7715671568597805 0.14736156092215005
41794030000.0 -0.6229095349524804 -0.5736761405217281 -0.1940345163123607 0.26867555484491934 0.005666494876933478 -0.0017495159281032504 -0.0020544580795630583 -0.0007723591655294541
 -0.19773359225317805 0.2748169481342347 -0.5946745152962826 -0.585117901518385 -0.0021251749411341286 0.004418471028529957 0.004630483292035829 0.001219441552166937
 0.0024504371982066136 0.0036977628563000095 0.001116585582265947 -0.009659004701112986 -0.7629845870897359 0.21711010134378825 0.05897414686613354 0.348102260052844
 -0.002097850641068677 -0.0006533313973970885 -0.00433602825434683 0.0072624821371371495 0.08033784750974542 0.3337624206632244 -0.7618682667037782 0.12369186814194381
41864020000.0 -0.5695115484333921 -0.5702654880140896 -0.1983700230701082 0.25274256570448644 0.004167313837968799 0.005186567857667483 0.000472425813405664 0.0018428489700336088
 -0.1890490948225915 0.25040073736529683 -0.5960005623552904 -0.5618232294157944 -0.0018599709283925858 -0.0005340970100530349 -0.003869375892127788 0.000505449311579284
 0.0054962535611160525 -0.002508948439273928 -0.004999422545124749 0.0024400125083206725 -0.7291192588942951 0.2125133610266003 0.08073752564022728 0.3109854793827678
 0.00429854505592702 0.004870571484194872 0.002622597148052631 0.0048448204321791385 0.0607996009296651 0.3315662531478057 -0.7350533858493772 0.1600404520951646
41934010000.0 -0.5959085891909743 -0.5779840389954201 -0.2003421864455901 0.2626489603302744 0.0001351343950150706 -0.00031798535981906323 -0.0028638469851170445 0.004747565806612338
 -0.20023403493110795 0.26935892646893206 -0.6105299270166047 -0.6121218396165724 0.0030670183372978 0.0033224077278475234 0.0012514819636369038 0.0018796349584988832
 0.0030655324818324543 0.004605548584376292 0.007250798045679599 -0.013655523213770393 -0.7385188901699039 0.23358837805381885 0.09055904379085879 0.3467525705776387
 0.0021681603002656376 0.003775915576619255 -0.001083928220215012 0.008433004302531948 0.07641704698433063 0.32891028306234293 -0.7493574914127725 0.202778777231161
42004000000.0 -0.5995472111490912 -0.5844222853969002 -0.20349662994966156 0.24720994638291346 0.003606844502068443 0.0025486966126410156 0.004962031651348872 0.0022291698340619354
 -0.19502395427258995 0.26508932720533995 -0.5769273184170299 -0.5642652015813515 -0.0015797847473538727 -0.0009445793836642321 -0.0024792123892963575 0.0005318410619886808
 0.004468635619889292 0.006351683922175701 0.0016377595522119653 0.005421884422922383 -0.7193600662466029 0.21507683085526172 0.06738917154270334 0.3233156600044988
 -0.003768917250485067 0.00030955014897237736 0.007652655587212035 0.009483857135798305 0.0725182372282114 0.3561041551201214 -0.8394904708116514 0.1957231860286745
42073990000.0 -0.5606710620385874 -0.5864320558056587 -0.21049999733752398 0.2684065670591896 0.001575982273400728 0.00021575600264805083 -0.0052138625462467975 0.0021920379541657807
 -0.20093998579185254 0.26013418744522443 -0.6009966449567232 -0.5992662943390762 -0.0020272635027709326 0.00023397078426626777 0.00026693616499319934 0.006521349530074643
 -0.004495890646373132 0.007887252329216889 0.007091455057375016 0.002389042154046259 -0.7916050838352239 0.21708739926709217 0.08735129927950458 0.3211950979602757
 0.0008762074389393077 -0.0010400990049182325 -0.00016126631816465754 -0.002012890505102196 0.07699046479818047 0.35384444603023674 -0.7469295726023994 0.1897514555054164
42143980000.0 -0.6080089543921036 -0.5933145130412321 -0.19501564577617636 0.26834705902347294 -0.0002555136928644264 0.0030982187272150783 0.000772848819715211 0.003761452796278685
 -0.21143435358821627 0.2757468554398909 -0.6025871951073295 -0.5890924006133483 0.00012017666539568161 0.0034603876392842064 0.005133204323079884 -0.0007579902866058549
 0.0024489875481826027 0.004893287905982911 -0.0041988637805455194 0.007773903701754355 -0.7410289808459942 0.3041644374426752 0.1038298040627079 0.3238906564744897
 0.005372682407964421 0.008399663026497705 -0.00043814547437572644 -0.004088241968776877 0.09800229618038607 0.324843289699239 -0.7700913404075217 0.2164527616521309
42213970000.0 -0.5811012306038112 -0.5788318023838399 -0.20286114623821408 0.2716531421503324 0.0006541091019984833 0.0010334215627925008 -0.00013901768037557683 0.0016465563454245635
 -0.20228243707898358 0.27034437467283196 -0.6136043088332752 -0.5812373656539528 -0.001146643468202085 0.0019713018223627694 0.0027522192042641926 -7.18588097526056e-05
 -0.0011807128675286735 0.006398786528869506 0.007366951942086015 0.008383476883573913 -0.7565393171709828 0.2646561709321317 0.08091293638086142 0.3481906804146695
 -0.008854750198230742 -0.0003627797346819274 -0.0055417890264789086 0.0007682966921042547 0.08474776803777552 0.32763161154005355 -0.7549307083612837 0.17372750711388601
42283960000.0 -0.5713320777023427 -0.5587264311145732 -0.21605996970958577 0.2765302224928113 0.0027901462767040176 -0.0024013298414993947 -0.00038348422214204143 -0.0032359144403381053
 -0.19687316046287234 0.2754696926652263 -0.6102567603290368 -0.603842478822512 -0.00059347026156077 0.0005337762640506957 -0.005470969852669475 0.0012276296383600166
 -0.008320147962782291 0.000352965307418527 0.0021080754316502976 0.0031946456413876325 -0.7536098966553639 0.20212089889943693 0.07531667863717426 0.28071446053067917
 -0.0017704521915767103 0.0027551070912705386 0.007692369577930823 0.012478378360247297 0.06376048046666245 0.3056238789003477 -0.7386339653649721 0.20133595326325973
42353950000.0 -0.5923159730015031 -0.5506355548814811 -0.2007067065128695 0.2678951927134609 -0.0033015904668327926 0.002222275677269493 -0.0005906547290238738 0.0036080387912688933
 -0.1995040174263267 0.2711481870121241 -0.6143292163666701 -0.5876465590822154 -0.0011519497020959165 0.00038032868150417865 0.0009616903703778545 0.0043934877954933645
 0.003796729321619519 0.0007305032838480755 -0.00029421534369998857 0.002746427807641797 -0.7569681984020357 0.2505279829398926 0.06918848776359064 0.33506323055886544
 -0.0038297527372609854 0.0019147718311199912 0.015236799244807116 0.001321269732445153 0.10446817988339112 0.32174066987034367 -0.7830997443451415 0.2039121500163592
42423940000.0 -0.5736846838380304 -0.5684956178973339 -0.19564053590499278 0.27467015449795223 -0.0018674396232339152 0.002353851362462186 -0.00036908983330491597 -0.0002006413810199726
 -0.20345768166377567 0.26695264458057416 -0.6012717211506392 -0.5594229728180349 0.0011734808384573794 -0.003056054348297459 0.004140247815043043 0.0010092805618391756
 0.003961957019984779 -0.001196223074949197 0.01088549763640897 -0.002874027931120144 -0.7937437990282213 0.2829735516996269 0.1070910155780771 0.3505730269033533
 -0.001872786868577077 0.003938348465578113 -0.0014909911731083992 0.006082187853115425 0.09288842788895615 0.3236279023147718 -0.7623485129571278 0.19337958999114443
42493930000.0 -0.5866199804176109 -0.5616940137236657 -0.20463541643834354 0.27129034270615854 -0.0017658138243425922 0.0057988032189765495 -0.0004266726251324874 0.0017973002356341016
 -0.20467478558436838 0.2690557317709691 -0.6048042661364108 -0.5847916112697593 0.0013525089073002574 0.00848227034785943 0.0030841547105458357 0.00112826681700469
 0.007756506827014895 0.010619343095237497 -0.005303506800006513 0.007111676652746889 -0.7184276477817491 0.25661348114235893 0.06448167666650799 0.3323906905706147
 -0.001923521317440974 0.0028621024362331534 0.0019511121459778076 0.005800519157721433 0.1119398146473416 0.32939117925847355 -0.7415047107912881 0.20801289717543203
42563920000.0 -0.5849472908590515 -0.5657122049820521 -0.19406387846837764 0.28685217444388855 -0.0004993101671740313 0.0008543060589438334 0.0028490690565835873 0.0034898315839132963
 -0.19765347825080673 0.27963488751411114 -0.6055405013333339 -0.5664268507574437 -0.00010692645785261654 0.003777592361730441 0.00030142916755222717 0.0021272557398887386
 0.0036772812746013136 0.004629724453531748 0.004487839061393408 0.0015230989972210476 -0.7786529397312246 0.25509128007863513 0.11796898760170481 0.31264416119515526
 0.00020355511115740046 -4.984957187177233e-05 -0.006090357328219048 0.0030660212917080995 0.10357559419045914 0.3484857419822956 -0.750302134322382 0.20020236332799426
42633910000.0 -0.5778515714265183 -0.5524482003038955 -0.19948764803054178 0.2746205780337454 0.0004562781255178783 0.00292323028178719 -0.002101450244549915 0.0025237522331240094
 -0.20214331542383948 0.27201061129686394 -0.6126112670293149 -0.5444775225658224 -0.00025871298320398944 0.000984188475883578 -0.0013371010622066474 0.0022935008651164593
 0.0035191757408988174 0.006728821842451418 0.01133600000631948 0.007774647837315925 -0.7516022368580468 0.2507257783663532 0.12413194230626867 0.35681687386683386
 -0.00328781044106537 0.007611710280507616 0.0026468445110622747 0.024050900562347027 0.07775073127310105 0.33362373777143534 -0.7442715176671525 0.2152944330226366
42703900000.0 -0.6173548321875788 -0.5614562715662526 -0.20374537560308384 0.2957917336758634 0.0007910034198599088 0.0022299959949802274 0.0007714350657524624 0.004766879524475875
 -0.19719549163976846 0.28496069624750353 -0.6354656379558858 -0.5728951965939069 -0.0009107623370853883 0.0064875090159750345 0.006105806282379999 -0.004981067845344277
 0.001953454794256524 -0.004220880400386146 0.0036136282637759865 0.002214626846433617 -0.768051242373155 0.2548164218684022 0.12391586295964317 0.28264011037622755
 0.0011498482347524202 -0.0030321736753316487 -0.004915578616286211 0.003827458988812254 0.07834513710832341 0.30192167598218217 -0.7169358112819251 0.2493674625885173
42773890000.0 -0.5981926380908533 -0.5363771321542591 -0.19407220424808538 0.2834193884776744 0.0007299310011830197 -0.0013584363797107092 0.0030804222341299977 0.005488219857890255
 -0.1936247276604368 0.2811734423203351 -0.6055151060688515 -0.547384091542658 0.0024484491180754254 0.0012721626895420143 -0.0010279747691222907 0.002392411279051508
 0.0012884074120727157 0.004675547813659654 -0.0013886033718628016 0.0015243172908368094 -0.7638137497828515 0.2740686148969773 0.10069050550015386 0.29853928187955603
 0.004168598522145587 0.0009909361893864898 -0.003375653408170162 0.0025516624733859508 0.1037398740394977 0.33181268124783303 -0.7650000662362023 0.23984353314684095
42843880000.0 -0.6263529454798011 -0.5501889726558044 -0.19257497214507838 0.27650613178033856 5.962117573930537e-05 0.0032542178520197887 0.007025492284371043 0.004451194331005178
 -0.20400899569565684 0.2886713969318701 -0.579541516406648 -0.5396091746286897 0.0040456041776423856 0.006560196022074803 -0.0010687517224367874 0.0052662543716521055
 0.0006677408522750475 0.01061042270392748 -0.001592854005609056 -0.0028854976655139503 -0.6839118639052392 0.33182428189642116 0.1207579645135541 0.316535350126321
 -0.003970932377628234 -0.0011147655090127336 0.007050431189640092 0.0023042508955912343 0.12938097535529716 0.35889595108956845 -0.8193371560175702 0.2324376177076165
42913870000.0 -0.586758315105744 -0.5407457414357135 -0.1831963826745595 0.28187038407956977 -0.0006676754146494575 0.0034160125988588292 0.0022530775952728033 -0.0036638826814943504
 -0.18293841071950562 0.27753656825065054 -0.6361460645539128 -0.5090660294482839 0.006004995077434837 0.003593459917070032 -0.0007804748847663331 -0.004115504723112142
 -0.006301114129738869 0.009344001933273864 -0.004317974783243936 -0.006238878522292304 -0.723503913309321 0.2547263364654817 0.1020397592252008 0.3216539107067016
 0.00177972337993524 0.004520295742941085 0.004696783091529236 0.011593463564780327 0.11272824229286242 0.34049785830186213 -0.7692061418662615 0.21772140008887578
42983860000.0 -0.6011215122385263 -0.549170705871811 -0.18974119468374334 0.28202962579243424 0.004118043428011869 0.0034037623112280094 -0.00015982689105239467 0.007165409084297405
 -0.19625270097224157 0.2887911745800105 -0.603845380039952 -0.5594038725271678 -0.0009424062449790813 -0.0014859001739275385 0.006744219949592629 0.0011678710639371854
 -0.0026372487995529547 -0.004331685536342676 -0.016484794521363918 0.006122879409483691 -0.738443415483429 0.2830360748068996 0.1141547426488442 0.28723666699703654
 0.0004435717742343142 0.00869138808951012 -0.001700401285198377 -0.011368231071670494 0.11534941828436807 0.35875564734861376 -0.7552509601887972 0.225361096376841
43053850000.0 -0.5844847646402311 -0.5513686679056808 -0.20822428426582787 0.30740958967289256 -0.002830418971028456 -0.002854380372432686 -0.001201644640178272 0.0007990693021810276
 -0.19680322626953836 0.2855020733517728 -0.6497776596114464 -0.5715915291728876 -0.00401245567899159 0.0014636907063326138 0.00812166372829482 0.002091174976547791
 0.005410367899582634 0.011825534152577545 -0.0066377591280640715 -0.013984064123762465 -0.7223731048672472 0.3146921049792227 0.11208947642383099 0.31254215531039403
 0.00201312438880499 0.0021103454259618283 -0.006735761510750029 0.00380330975016064 0.11065117090607161 0.3066425061420678 -0.7612270790098821 0.2530760416627662
43123840000.0 -0.594848117964488 -0.5391578185702636 -0.19793513452260167 0.2846111054310772 0.0012014406402276294 0.002671281432371249 0.00145055861133124 0.00546394048073271
 -0.18293404548177564 0.2842272553854402 -0.6442767040649112 -0.5243797446185181 -0.003772269854939943 0.003561812141206057 0.003331106852757146 -0.0007868442426511256
 0.005464009099131837 -0.00037512514965246433 -0.0036622219139689697 0.019579304185909484 -0.7327034510692474 0.24945257918804892 0.0985969742561213 0.3121592110743937
 -0.00437647425078535 0.004852198558509572 0.0009575248862320772 0.012821646569111757 0.11655914896928107 0.3491360265933401 -0.724408114263148 0.27806116614582166
43193830000.0 -0.6614691444911883 -0.5193743176248254 -0.18843964941970864 0.28037598362361205 -0.0026894137667271673 0.002241212252646146 0.004328411992307458 0.0008381856719642812
 -0.17237179531613253 0.30642314635098444 -0.6165558186393293 -0.5488063711505489 -0.0009698036513971141 0.002454925738731902 0.00040945714945689484 0.0033693261433683707
 -0.0021336949252142804 0.010969855500327405 0.009470315141869738 -0.01120140078267498 -0.7209135906354369 0.3110294740543242 0.09662184477691459 0.3261196513982628
 -0.010506925578790018 -0.0037692667447323377 -0.01502338077954679 0.0004883497420197217 0.08427839065508712 0.3313996266177534 -0.7899971157868799 0.2667985310442994
43263820000.0 -0.5857686140088454 -0.5021247226633739 -0.1951502840353504 0.2728898216084736 0.001237309492413325 0.002188785391409002 -0.0018391412155202875 0.005119791357855312
 -0.18856873412388128 0.2786112107690461 -0.6159146488203501 -0.523126948058999 0.00595117585688906 0.000888609614399864 0.00357313501980746 -0.00024313091257008128
 0.005692134740700839 -0.0020086575020187626 -0.010412617600360488 -0.004275834240322188 -0.7182584455427543 0.3161490198993045 0.07700333133401281 0.3233072495235631
 -0.003441782611754267 0.00425724678546597 -0.00015448034407001884 0.005916413356729822 0.10615036018328884 0.31993083869022737 -0.7409053952191742 0.28833376326723964
43333810000.0 -0.6024344120697226 -0.5241092743297745 -0.1850346157850454 0.2936594583326256 -0.0021466700304103308 0.0016438847005944399 0.0028050364159965366 0.004177456978668035
 -0.1877416512136933 0.29789456356271904 -0.663265522185961 -0.5218110471530856 -0.0019608431187737225 -0.00045699520919920963 0.0023765248850796117 0.0011874842490070736
 -0.010580674405268015 -0.002483077570506895 -0.0012438764549454965 0.005650373811508531 -0.718522088336727 0.33730394967262256 0.11688015628553572 0.3042506713393167
 0.004618083737691201 0.0043326424819255345 -0.010028720991543876 -0.007240580963286123 0.09565406817317706 0.29886921460870175 -0.7061249475908183 0.27054987390430124
43403800000.0 -0.6215268379360739 -0.5124911339359927 -0.2155042328172535 0.27389932594592115 0.00015636024495511611 0.0005440674469229593 -0.0007714953035616568 0.006508161255816258
 -0.19096838552023682 0.29574646207234884 -0.5956270532087186 -0.5820035647255944 -0.0007498564315979901 0.0017870325768039746 -0.0003325574158293731 0.004181148695957485
 0.007990164248101889 0.01365563553323402 -0.016639128735113536 -0.014065335989882001 -0.6912816703732669 0.32399362218613825 0.04505608699387106 0.27118557417044986
 -0.0009996690650524581 -0.008596139978084729 -0.00078644609950718 -0.0037259591030816036 0.13038081672967367 0.2993094790431964 -0.7506482461501471 0.25829307659976525
43473790000.0 -0.6093001973744303 -0.5100704967876184 -0.19954038707004862 0.2975775198280562 0.0027332786943786653 0.00449772400424269 0.0019377849903750338 0.008204897207625784
 -0.19117221072918858 0.29578336667662286 -0.6217431935928766 -0.5270415519072508 -0.0019516677179349288 -0.004376711001151892 0.0036969952972718103 0.0011043223375660073
 -7.009816714002986e-05 0.004759862526329931 0.00962181145745208 -0.005607109769922342 -0.6952821769841322 0.31701809891804744 0.11439217415381221 0.31804420630469393
 -0.00442872720507368 0.0059348891925561946 0.005398572489168332 -0.0006947242168853105 0.08361212983584079 0.3115548408467376 -0.728559374218083 0.209282643791072
43543780000.0 -0.588098613022606 -0.5410572440547191 -0.2072610477170592 0.2912881000514351 -0.0012370123886178471 0.0029374104636347505 -0.0020548520627510234 0.004621958380248809
 -0.19496526184471386 0.2930089720591055 -0.6464670174555136 -0.5467655174185239 -0.0011303872026893272 -0.003248969167868004 -0.0024178658819748937 0.002794728260518607
 -0.007621812947944966 -0.002512869274938041 -0.000866584378165063 0.00734721004909294 -0.7278243571012202 0.3081383741633774 0.10934396860393561 0.28737580760654496
 0.00026035127315427565 0.005698265358136778 0.0017328971545423357 0.0017646382082091025 0.13609404818581047 0.32576387269655044 -0.7780844199270739 0.32581649576707095
43613770000.0 -0.5818769724920599 -0.5418917922178642 -0.2017946169896558 0.2956480081525805 -0.00036550483517696963 0.0022987266539483677 0.0005068714960752462 -0.0004676643335560106
 -0.2223317000600647 0.29360863201912135 -0.5843655731858148 -0.5384406776601879 -0.0029642233432832705 0.0005599832926929571 0.000385369406657231 0.002497968135352444
 0.0008140958659906195 0.0032608514391399123 -0.012412941644511984 0.0071578942124998 -0.7567368527320913 0.31909644178425195 0.12254236640582442 0.3419163908907203
 -0.0014502503672536521 0.0011331331402701114 0.013073334056125176 0.0006060397920346769 0.10368016581842662 0.310015513578259 -0.7671268044349913 0.2298586805069237
43683760000.0 -0.5922193020591633 -0.4997770619577077 -0.19747138165520958 0.27634955840701275 0.0018002018194594517 0.0014536959457538048 0.00025749225083859605 0.005196386745442037
 -0.1878205977333918 0.29361349147781707 -0.5913313827209908 -0.5275090749640862 -0.0036606396805298124 0.0031544204715030708 0.0062144163006800784 0.0023546289324003784
 -0.0005554672606315111 0.000731048366646782 -0.018546011209202726 0.021670054325809943 -0.7584242805394426 0.3162110830114241 0.11334028104373355 0.2917384520726121
 -0.0017707248368183028 -0.0006779629478721069 0.008674363804918497 -0.0007405373566156022 0.1415648155143557 0.29514712769423845 -0.7517936004043146 0.28739031154812655
43753750000.0 -0.6151930879543459 -0.5503417794958102 -0.20284767324007213 0.3092540216082925 3.0901440017487196e-05 0.0014881951853063435 0.0038879108759290386 -0.0006572297731182414
 -0.20851709255595513 0.313265454429349 -0.6191093791526027 -0.5277927621121161 0.0021348948849925055 0.0015046309009447477 0.00018175482855283011 0.0034976505586163417
 -0.014131383608526112 0.009636668515695156 0.025979392992844512 0.002838011032191405 -0.6922631559986872 0.4003890730076269 0.11080886887253398 0.30619010529133595
 0.007894864377818181 0.006828622787627145 -0.0020912527409884824 0.009124522000897917 0.10470611800681692 0.2773804112638966 -0.7462802802174124 0.3007110621505549
43823740000.0 -0.5682571038854065 -0.4973961624282476 -0.1921230784103132 0.31031974798434764 0.007253700555153671 0.0024198276522144394 0.0013117852305403101 0.0016416130725505611
 -0.19590054698513362 0.2789286482444525 -0.6293118570643315 -0.5416051535299601 0.0003727703750748793 0.006588932743555443 -0.00020249776884493146 -0.0013527605495056976
 0.0011824120679948108 0.005066773866627742 0.015713366328904372 0.0033237815793116716 -0.7769369038711446 0.34359531226941015 0.10725711057938878 0.3007617325820168
 -0.005994502049377571 0.004907194392756009 -0.009570246353870306 0.014426109398524905 0.11224436826551616 0.3413970011272083 -0.73071075463354 0.2842914856018959
43893730000.0 -0.6218527492990878 -0.494107305973486 -0.18683240845360835 0.2941136241563966 -0.004300261397269424 0.0015997655031519775 -0.003870527287573883 0.0022596697413946945
 -0.17936398826856453 0.28844524665579196 -0.6666311421655411 -0.5017627529283617 0.0023095505918094166 -0.001591292736847372 0.003853410693481418 0.004326496461344107
 0.005387957596361064 0.0051219261263384915 -0.010100452882876657 0.007023135378985218 -0.6806679135611746 0.3409764387954509 0.1354267414554448 0.2732790764134846
 -0.0021488974549079107 0.005355027384807968 0.011660916667202176 0.002405150931826224 0.13725880524796172 0.30562052930196104 -0.7299672203977408 0.29230601782418675
43963720000.0 -0.6450133775789738 -0.5229686523475008 -0.21660894848269638 0.2996065715545199 0.005810308521501027 -0.005565679003764815 0.0033317011987197493 0.002836995292742168
 -0.1836419216219314 0.30271232974377954 -0.6390380590006436 -0.5629697203035908 0.0014726715933789122 0.0035709558140703352 -0.0005406827929057467 0.003753870059124424
 0.005437384566609256 -0.0013729600392604572 0.0022799136408134914 -0.0006276670637937585 -0.7263772426537332 0.3640312667428086 0.11341706937001025 0.3007466178668081
 0.0031433721521409224 0.0005661058393098576 0.007557058803210597 0.009582120075649292 0.13568773207290116 0.2756382623426973 -0.8156795858120063 0.2998562954436172
44033710000.0 -0.6084624036413355 -0.4629420485017004 -0.20672265949762172 0.2954708598366294 -0.0012140620813849941 0.0011584935917304006 0.00127603323639046 0.0004875557945465967
 -0.1959410408916021 0.29778518627197004 -0.6518017435017276 -0.5386867314721319 0.007897499477103711 0.0008924491291210594 -0.005590614493680415 0.0025260449464768455
 0.0028677440517005234 0.006103897701330693 0.02020074372247314 0.009035734307369878 -0.8011129564036157 0.3137608096725167 0.10882644203412016 0.25290331329984345
 -0.002713492852323662 0.002361215672830935 0.00899742485803743 -0.006859356814579406 0.12588797621620681 0.28341931817563304 -0.7500030154972983 0.31192585431089936
44103700000.0 -0.656782674877415 -0.5135614270225279 -0.17490122079601822 0.3151383028672872 0.0017097632856707108 -0.0009140847299990471 0.0002445712049108546 0.0019173808999206029
 -0.18822876690865037 0.3211979677443291 -0.6588655707723831 -0.5030887541038692 0.0012432720219172461 0.0027680878776023855 0.007627168689277396 0.0013567502441508674
 0.003314121246933987 0.001160564728706364 -0.0001601037229892116 0.0026733514648446537 -0.698604337122071 0.3978436593831291 0.14141558529085385 0.2639095845236232
 -0.00451061342938591 0.0057918228840065904 0.0025175324747583375 0.01417229827970117 0.13696367896637227 0.3110142953420172 -0.7505346955608859 0.27240707305296125
44173690000.0 -0.6532765789317286 -0.5375513830209642 -0.18798848607526839 0.3182754688320979 -0.0014174916429856876 0.004559673286180239 0.0016084793446275363 0.0038397824145159102
 -0.18931948225101916 0.3106938082093089 -0.6560540438220485 -0.5000181508388841 -0.0010763667344014089 0.0012288009658669645 0.003097826248261535 9.939777910452364e-05
 0.002004673870993588 0.010208995039571095 -0.005275257665177539 -0.00014602444674369626 -0.7131359114492295 0.33909020953680646 0.13183248294214783 0.37608220174870255
 -0.001974030658329021 0.009711606641452328 -0.0059394302566135706 0.0016145423755660267 0.08830088296014935 0.308585224825392 -0.7738500974607119 0.3681116638888223
44243680000.0 -0.6320230032938605 -0.5251536553355116 -0.20851865698888392 0.3079529824669351 0.002317488071874187 -0.0030507126079143913 -0.0009269138689468528 0.0016338804465094322
 -0.19217115521738856 0.31028365137094854 -0.6338022657321106 -0.5131037698387401 0.004608503764905569 0.0004994951143843003 0.0003222424021936305 -0.0023673718462332775
 0.004387527621539748 -0.006442265071836878 0.004971006262726027 0.005343994322910286 -0.6977839282425187 0.35596063379474613 0.11099677946413589 0.2658691154910507
 0.004327737403015989 -0.0029830196196429246 0.006337532100741431 0.01163802246442974 0.15036279838602734 0.3025460931815205 -0.7322710968294481 0.3140469669859617
44313670000.0 -0.6490896989346812 -0.46567827871056416 -0.1870378701190305 0.32149099835421724 -0.0013442653414918859 -0.0002960552416700278 0.006546300682510454 0.004242747929672987
 -0.1784078685901047 0.3189082346951546 -0.6514398147618458 -0.5104875189252621 0.001181534716662074 0.0027142923706601593 0.00326709029961077 -0.0012802054252375268
 -0.001308168977789104 -0.01356260561375714 -0.0022725154590826696 0.01490645657349494 -0.6917565791213679 0.33798875493423736 0.10443894407439992 0.2522547131267934
 0.004678656062039844 0.0061021955252385796 0.000945615438075402 0.001198412622943557 0.16390114588079419 0.30566499391449825 -0.7384784306096667 0.27133406070854243
44383660000.0 -0.6816780336936142 -0.5343290440135007 -0.19383177648546573 0.3240001807648874 0.0030190668978640764 0.004875699199222945 -0.005966628654513939 0.006861668156671532
 -0.18343730471072547 0.34896286886427585 -0.6075585095525439 -0.5231457133135854 0.007231122382780951 0.0006153434275128912 0.005780631925326598 -0.0007056776527333246
 0.01000235665915766 0.0034092123061882735 0.012581285159378352 0.0023630723991897333 -0.6853806422403002 0.4157355316582514 0.084255980743289 0.25282793593973346
 -0.0003848283123630749 0.007158331911131236 0.003913296005889019 0.0018913036866593104 0.15101346608533694 0.2813411404757158 -0.8007432859566841 0.29822336435813324
44453650000.0 -0.644328667449169 -0.5031005468390081 -0.1947417540679085 0.3251411615392101 -0.0020035862291527167 0.004664775175264922 -0.0040173271750326405 0.005427382353793219
 -0.1912684353496747 0.31560537972604924 -0.6799232745725132 -0.48801862646483335 -0.0011645855781378972 -0.0017720560021776946 -0.0050322963516612595 0.0009776142105250864
 -0.007038982023976398 -0.0017464184658585271 -0.0013866619391246498 -0.007146275447089372 -0.7282261395676325 0.37869968758686745 0.10060257872085966 0.2995427957936439
 0.001285407591922467 0.006436116189712873 0.01601426453688024 -0.00471227035429566 0.13737519376602841 0.2812681876192031 -0.695357130913599 0.33844252127237795
44523640000.0 -0.6417480257041431 -0.49403410279053744 -0.1697854921924102 0.32977625469178223 0.0029375358494639283 -0.00043451121754811445 -0.005586268409591934 0.0014804730859137912
 -0.18193454852053295 0.32532285361643437 -0.7095894497449441 -0.48285410873118567 0.00030374773654754625 0.003151300902488109 -0.008012373292535886 0.0022355573095389257
 0.008162272370970497 0.0017690915246496247 -0.003240373156478506 -0.003998801235656731 -0.7086692287886892 0.3456885424202069 0.12854386768499135 0.2809690968484768
 -0.0038536567642481856 0.0007992815392345776 0.020917664533352448 0.0009332466679410548 0.1500674397954654 0.3502689691004581 -0.7104942560144275 0.32473633929663487
44593630000.0 -0.671520855505198 -0.4809549696142057 -0.18183742077150142 0.3158447113473102 0.005569444002852985 -0.0025369375036071065 0.004078848724363397 -0.0006340570003606471
 -0.17359769506119438 0.32347901405729734 -0.6329162185452324 -0.49029643854411964 0.00019924899426383157 0.001472728762018716 0.0047739349770592006 -0.0010740396470652661
 0.005851734787087512 -0.0027501339830585275 -0.0024683951300351076 -0.001134933028288145 -0.7215001498459921 0.4243721078024294 0.11233871636204414 0.3001654949512453
 0.0004018552760138026 0.0008315379238386548 0.005876724390494201 0.0057225450094466205 0.11043117544962525 0.27680999924010924 -0.7199334511250409 0.3515052721308133
44663620000.0 -0.660918448975891 -0.4610665260171526 -0.19073756900165792 0.31929208459708047 0.0018377417876938537 0.002172363198548099 5.197727123666367e-05 0.0014008455475021677
 -0.17536852411639975 0.31217995373928176 -0.6620761539648184 -0.4661647739616755 0.0018799393808620628 -0.002509606579091399 -2.554619225256704e-05 0.0017971615894475153
 -0.00026894104389890407 0.0011253063670537181 0.0016094106541728035 0.012228992263934703 -0.7442507445360368 0.33381776615483794 0.16461244322027088 0.26939905604218933
 -0.004682618886071982 0.0018988158294657616 0.0089193447022208 -0.011121995087187706 0.13273984946682413 0.32338886159311536 -0.7008181998841501 0.3236112387728386
44733610000.0 -0.6485422401172796 -0.46851644764740985 -0.1886793968488416 0.30573066787749476 0.0007466968644577161 0.003847678406160289 -0.0005142891348280605 0.0023980051474746635
 -0.19320260843273904 0.3092092199572024 -0.6308126577581662 -0.4692878879908196 0.00667529920913366 -0.0015897388788624757 -0.000704145660755195 0.007521870265044401
 -0.01276304919062118 0.013946739074343437 0.004784391760184911 0.021455917833996665 -0.6611447890906483 0.40107568348387734 0.15235646219423107 0.29893074591406704
 -0.00021443796518085415 -0.0012484828848525358 -0.0047510684503614 -0.01001077681125249 0.14888018597844738 0.3102899810364525 -0.7283866680474665 0.30264638068538685
44803600000.0 -0.6515821282192347 -0.4768720567869854 -0.17402428490413288 0.3422104898232156 -0.00034876701603532106 0.0007581971897922587 0.002135149453780194 -0.0013433401795881611
 -0.1776265413960939 0.32600399315318435 -0.7215048898806597 -0.4681086654796476 -0.0035780758549176597 0.005590924714503784 -0.004096761392870149 -0.002818869805971836
 -0.0010587740871987445 0.002703714731878986 -0.0006166245030247451 0.002547147318872868 -0.6991038355285435 0.3932161357801516 0.15179923993367042 0.3186301836264436
 0.0035207816061929614 0.007802669858792354 0.006018930020272781 -0.011822255572692036 0.13644725380915346 0.2657066947123989 -0.7006589096292913 0.35854682164971996
44873590000.0 -0.6540702877000755 -0.43519211406921293 -0.1855088185074908 0.3175608036338044 8.116761539076446e-05 0.004235969125246744 0.003057459036532025 0.0016610695770681498
 -0.17708135426647661 0.3031222139692214 -0.6458125247424055 -0.4563137671889071 -0.0042505076110371035 0.0038964560451746036 0.0059100318779537735 0.002396124665070505
 -0.0014756259733009283 0.002370756826591339 -0.011699168633212916 0.0017707531731349718 -0.6569720421713384 0.4276883524396756 0.15683558532745628 0.285626283804698
 0.006114253503812141 0.010256287624634342 0.007474804352893876 -0.0026594003731564755 0.11222687372692011 0.2647969226417949 -0.6905470239371972 0.3463219295654541
44943580000.0 -0.6507667695169362 -0.44047137932845565 -0.1818729661950658 0.31899824759582 -0.0007382167445081771 0.0029566484243143923 -0.001497211614596286 -0.001689465534206352
 -0.17986328122500442 0.3340409667861062 -0.6539373396107846 -0.46705366903232354 0.0021535139344831433 -0.0025483053254924497 0.002550220682079702 0.0001554891583255474
 0.007393812934499547 -0.00037690859682420146 -0.01848333631765223 -0.0002931989935551303 -0.6720270175722064 0.4080367635138532 0.1264368603415186 0.3071545108896913
 0.003392355617949012 -0.005533817845107353 0.01931393141591316 -0.0022769846891228887 0.14291987432621606 0.26998723674973674 -0.7069804765821733 0.29317055740887255
45013570000.0 -0.6381259662601894 -0.4721177137898953 -0.18930994121888933 0.31387469419438924 -0.0007301894850613597 0.001347280018269942 -0.0024028505069256076 0.005264561144986042
 -0.17997684290579716 0.3337577008267211 -0.6739018479786361 -0.43079759557575115 -0.0014236284059721278 0.0025555822681219685 0.0024908113603242274 0.005041357564801203
 -0.0041286992370450325 0.0028851832962592016 -0.0007331588199281339 0.0004450545323118672 -0.7028764442731565 0.3631731699045827 0.14257645885309356 0.32418895915514906
 0.002852559879017013 0.003854798141618153 -0.0024360283558552687 0.012980712861165603 0.11396185005977676 0.3257758902677649 -0.7242389332037162 0.32990968504970714
45083560000.0 -0.6766919125162443 -0.4421875584849017 -0.17582797517829635 0.33965331002901356 -0.001768885645875165 0.0005243372195075858 -0.003348851881449554 0.00035927831061270194
 -0.172338770949914 0.32023518228893444 -0.6620499640737594 -0.4574906430373688 0.0002013374215414891 0.001446509689795583 0.004929693725764662 0.0036359128678498773
 -0.0015309236925053695 0.001342333537357153 0.004378093799899058 0.002727856208834369 -0.6881666029065798 0.3723790572754001 0.12708394925078834 0.3077524831991805
 0.005940850532490029 0.00499157210522058 -0.0088829378229367 -0.018851832437517056 0.1029271841219752 0.2704687238278245 -0.7102037010226897 0.3489679110234101
45153550000.0 -0.646677345125593 -0.44366012211025424 -0.18209990306688717 0.34220485554030244 8.310615754270418e-06 0.0003901395597577906 0.0031653302727418383 0.003892751183701105
 -0.17758869067820404 0.3355029509988236 -0.6956349331346807 -0.4673309704108843 -0.005549800658104778 0.0006672167638037576 0.006712964448391831 0.0036470225804668384
 -0.0033665559868428833 0.002538531280875515 0.006683854088732483 0.01655096166150948 -0.6367269364927625 0.39124994895525717 0.12370454454588684 0.22256380364462597
 0.0054461649089658755 -0.002993188082663679 0.0008075518844786728 -0.010249392836407162 0.1724754542391407 0.3066550133402887 -0.7317051614943165 0.3311696410835284
45223540000.0 -0.6466417354077968 -0.4578224543259923 -0.1785645423788414 0.3332099593844959 0.003320688284011804 -7.521941443099451e-05 -0.0016760605006457367 0.00012046200848687762
 -0.1683033828641609 0.3135558882436613 -0.6780956721403726 -0.4574863524357769 -0.0027515492014450415 -0.0021537392697858356 0.001891391161330881 0.0011627280993976902
 -0.0012412967569922113 0.0021183388354331185 0.007030334197495948 0.003619633649206677 -0.6718180256964096 0.390205711286249 0.19528663137288235 0.27669842362626035
 0.0026773253925780885 0.00931100615597106 0.0029033205824928942 0.0177529327672476 0.16154994629250038 0.2875511415048286 -0.7666320306870669 0.33111606083847456
45293530000.0 -0.6640732667987412 -0.48052519893033696 -0.18439194142825352 0.3293835963954066 -8.350315286242124e-05 0.0009128724962529629 0.001533907935660373 0.002157181219228675
 -0.18189419613568103 0.34335139925702535 -0.6705010410062885 -0.45994783872597483 0.00023651203468388367 0.005498986797486385 -0.0025264177335254322 0.0015809627236268843
 0.007015527579757678 0.006488830134358111 0.012760101048000764 -0.012212813542532553 -0.7343730811388207 0.4612377511396785 0.15035823144813895 0.2549154619003288
 0.006215393362077227 0.002398678394405711 0.007298910387771557 -0.0017968614511364802 0.1457866647719843 0.3088306804637299 -0.6946843088131971 0.29373480107918326
45363520000.0 -0.7292242508349425 -0.43654234956104987 -0.16790484381700757 0.3124769542000738 -0.00205541201911265 -0.0025821194402974113 0.0026286913810931543 -0.004734724252419162
 -0.19475856716205694 0.3485437013145531 -0.6831981782515641 -0.45233449037784146 -0.0016084447413124362 -0.00020128607206579415 -0.0037259278901191025 -9.730655877690595e-05
 0.004125524200734535 -0.01204879179201151 0.013991902266508014 -0.0023292256373579003 -0.682537474862176 0.4209104235124442 0.1580845712235122 0.3136061246514982
 0.0015150666948567971 0.0030749702963234174 0.014696257960854062 0.016974005742660978 0.11405539267005264 0.2592249569820466 -0.7260301635141392 0.3353930756479267
45433510000.0 -0.652459333166334 -0.47674854846583226 -0.177370582079639 0.3261965549449989 0.0007348967695573419 -0.0020526033454032018 0.003218431470418634 0.00354804882859739
 -0.20641274959851738 0.33398120761329486 -0.6611042993017299 -0.4170305763268881 -0.0013466884860343204 8.798100869781995e-05 0.0010766025422860477 -0.0004713589086759759
 0.007067991225850401 -0.0016680503177554477 0.0007493381750991501 0.008152099696191968 -0.698267421894756 0.4513906925514227 0.10922348087432585 0.23889440045115756
 0.002810295925380462 0.008288630499549584 0.018389352655225552 0.012869610697316161 0.13446443990991555 0.2872610747706779 -0.7043405560535972 0.37095141779060203
45503500000.0 -0.6796896013812267 -0.43503574129449896 -0.19405615188975225 0.32058387676178945 0.001991127342768433 -0.002205538799975297 -0.0009143915022952501 0.0040391621704056165
 -0.18047020384052853 0.33511349204498286 -0.6465975925650104 -0.5111982873538963 0.0024583865848464594 0.0024294070861902964 0.005986205667845687 0.006193839631978073
 -0.0007125967415674425 -0.01126674805529682 0.0069501131946492324 0.00562615078251477 -0.6290529364785334 0.4052912971989912 0.19104682107732343 0.29755013664000335
 -0.00017403989335098674 0.00243926433945593 -0.001684798867805561 0.011278827284538731 0.19249754151350337 0.3047390515918766 -0.7351580864721902 0.37126649839143155
45573490000.0 -0.6802212072385986 -0.44174419282696664 -0.1857705068086954 0.34667261924132187 0.0038863145889236807 0.004246529228400748 -0.001671797546095736 0.003734517018157419
 -0.16933663065547616 0.34496387995758476 -0.7007416604955603 -0.4763039998446658 0.002587515984678852 0.0005801595944824749 0.0019320755659054639 5.6160192980542277e-05
 0.01121488918331489 0.006209129434438999 0.012720481956698448 0.00525371880678702 -0.6410856150894368 0.42711946669432094 0.21087475266549024 0.3142865832416263
 0.005007921497933474 -0.0018150728350808908 -0.012086040075953734 0.005749708750461942 0.14563011892258232 0.2939347269528723 -0.7643860816248375 0.4267790952334069
45643480000.0 -0.675706813181851 -0.4605126717632466 -0.1718932854328834 0.34104780036767224 -0.0003700194720088004 0.00211178245255295 -0.0001836838794038719 0.00018322536891535
 -0.18265238624181643 0.36045620248083704 -0.6492384956682564 -0.40806755253369537 0.0030562224351421397 -0.000481934292530787 0.0008438832428057623 0.003953955890185808
 0.009992606467764025 0.002519801851710357 -0.007526097720750151 0.01427234077183645 -0.6913024364606678 0.42681542317197985 0.10191723590841645 0.2592201011028066
 -0.003093182682438198 0.0074771987609357025 0.008855067864737467 0.015512675464242702 0.16994669038855428 0.2670200080605826 -0.7041730623147713 0.4168267578212424
45713470000.0 -0.6697324858496809 -0.4116436129840867 -0.16915913318153483 0.34047487533207377 -0.0015145784783343295 0.0015142242990409617 -0.001960460881928444 0.0030687785070889627
 -0.16586259619356558 0.3320808568921559 -0.6673524981843053 -0.4599700702726706 0.004062620272094074 -0.0018379041378372228 0.005038309553064846 0.001350935596624994
 -0.0076660297796871625 -0.0037614739786367493 -0.011053979937290426 -0.004061444177159263 -0.6827944063305746 0.4219230523003615 0.1645151825103201 0.309077301967817
 -0.0010418467911866298 0.006116876242672934 -0.0004898481652398967 -0.006286771306166838 0.1623506753334269 0.2592501001743556 -0.749476269220013 0.36690352660079234
45783460000.0 -0.6081834995328927 -0.42065840347433 -0.17454553405012194 0.34760722239011443 0.003935351134420022 0.0013439334532340803 -0.001591307937044972 0.001581948053608044
 -0.1600901108123153 0.3328121254655027 -0.6923733886164068 -0.42324544993161506 0.0038475934973377524 0.0021221189820281065 0.001010237170814917 0.0020276037269030553
 -0.004999567660185939 0.005090564108219848 -0.008625144781735266 -0.006135282564329774 -0.7129149040294317 0.3691044039684946 0.15696873157890376 0.2850745666742221
 -0.0012831718509218055 1.1556119136675902e-06 0.0032003024279456224 0.02030448136045049 0.18051911913857255 0.2824812120013095 -0.6864524058017746 0.41105299596853534
45853450000.0 -0.651917186750019 -0.43571070721192107 -0.18760915806332362 0.32393720609099136 0.0039388488905668685 0.0011838749596374152 0.002816125004940786 0.004090052244461768
 -0.17432538853506907 0.34047409507984716 -0.6142155848952747 -0.42768317242424325 0.007128219172972514 0.0004868194127943391 -0.0019696399259486637 -0.0008417768048930593
 -0.0007479895449891697 0.0031125611574904697 0.01633574280117403 -0.0010017937446213944 -0.6684591360508446 0.4600207076103987 0.17104692857779213 0.23563746544416853
 0.0009730458497388789 -0.00021021819669029843 -0.007935725395647434 -0.009522218624678752 0.19226950988329802 0.33558036619484866 -0.6829452713779731 0.35376177079772286
45923440000.0 -0.682393084662639 -0.42374496531074773 -0.17868550154328508 0.3445205719435603 -0.0007520875319456086 -0.0014133281662006543 -0.0027811171441192183 0.005661351771929239
 -0.1704695930147046 0.3330121283947302 -0.6894259715568416 -0.4161460370641119 0.005763747311121265 -0.005119577610282369 0.000182860847371714 0.0046771126298960535
 -0.008280152266497651 -0.012414156373235891 -0.007133889958126296 -0.013268371334368284 -0.6273896268295195 0.4469165227733728 0.17695129725783715 0.3303518895604741
 -0.006089700480126864 0.006315592010880481 0.004840614902544194 -0.005527392412990653 0.19508671065878283 0.2655045537503507 -0.6654254427947233 0.4102422835035467
45993430000.0 -0.6591304420958148 -0.4556720872815316 -0.18242492506982969 0.35664611045107525 0.0008809087864490753 0.0018756620364941635 0.0061475940931111995 0.004032521739615324
 -0.19966454011284332 0.3319130075997397 -0.7059650110244089 -0.438517286281054 0.004278115446738471 0.001331793284597354 0.0031969206180162708 0.001301910764030213
 0.004357750422679049 0.005867961975122027 0.00737511826659731 0.007065479904345544 -0.6732725068672017 0.3870065852455683 0.15973294319447798 0.2668111240541892
 0.0005110505993340422 0.012598475125483472 -0.010361863697310288 0.00117333124037347 0.1812681733253392 0.3064160700937718 -0.6680781264886482 0.3568134075680229
46063420000.0 -0.7066618976897536 -0.44998523605151475 -0.17255295079155847 0.34392634014818596 0.0019781920464246724 -0.0003288250528843203 -0.002075867980871848 0.002545075154490429
 -0.1569090765933903 0.3636834027598282 -0.6735408664832137 -0.4072347213702727 0.0018203418797589049 0.0027946372498994176 0.00036587864438067293 0.00044270848344179397
 0.0012066447108615664 0.0045789085593566665 -0.003883255121682744 0.010225698095271202 -0.6922748098616678 0.4602058270166955 0.1659841435019389 0.2518400538804783
 -0.005940697198526494 -0.0038412682252599558 -0.005856229143470437 0.012817523988995926 0.1775692420562014 0.2983061336109163 -0.7269296805850459 0.4039942141117522
46133410000.0 -0.7263938149370835 -0.42880986908052304 -0.16115329907529272 0.3514802910713058 -6.604137350783684e-05 0.0010925909121932032 -0.0005484879451137861 -0.004060162633766045
 -0.1632768957486434 0.34848284655889444 -0.7134349158498656 -0.4310289644198879 0.0007676012350010362 0.003920550853870529 0.0040926703784416145 0.00021532244144617123
 0.007780739250783662 -0.002488017519923167 0.001538522814217068 0.023924415990301966 -0.6390003374915564 0.4877896604053225 0.173986177558647 0.27773210275819166
 0.0018695456086340561 0.001911692455395252 -0.0022459837642252317 -0.0018332945264375236 0.15837110727805484 0.303645431823593 -0.6739110454445267 0.4390137834255045
46203400000.0 -0.6859897702515086 -0.45137755610620095 -0.1696354913427968 0.3443533288883325 0.00222951928094562 2.3325865959945482e-05 0.0037636302408452257 0.009880098543782563
 -0.17383370457960087 0.36524857194061255 -0.6911518942007117 -0.4208451152071632 -0.006073676233394429 0.003004264672803293 -0.003913819793927839 0.0030012915932459733
 0.0034278332324309867 -0.006665738024804015 -0.004892923132566097 0.01774791575760118 -0.6492492698093332 0.48168120106434276 0.11366579750772317 0.21726696863514097
 0.0024521663614557694 0.002959343431176606 0.010088611695954972 0.001807617627056319 0.17471318299996919 0.3036742329678694 -0.6328093863016071 0.38872254328888506
46273390000.0 -0.6610385639696287 -0.42171865058965347 -0.1492027105408803 0.34444894350548116 -0.00496074160109255 0.0022183508223475356 -0.0028191281952624236 0.00651318616938059
 -0.17572325724608434 0.3506987050913722 -0.7117943683446821 -0.3908529407893729 -0.0011881229967805945 -0.0008695905038617952 0.001263964376858431 0.006351487007815037
 -0.003862785223188249 0.0034104069673566145 0.018189797872894757 0.0020839441582535885 -0.6366724922645942 0.4733469730909701 0.1568124717295585 0.2739063327795407
 -0.00239736766722721 -0.003744554363313338 0.008107899578134445 0.012825319862077982 0.13618229933286966 0.28654687937637274 -0.6417878360273412 0.38772889127910515
46343380000.0 -0.6775092893590925 -0.41463190997114413 -0.17435488325639265 0.34107153853746724 -0.006351522034552013 0.0005244892826855439 -0.003248186777560107 0.002739580539144964
 -0.175143243859543 0.3384636968746805 -0.6836903374749581 -0.42170702834531626 0.008953236284943928 0.004644454226728564 -0.004989777859641866 0.003469122648708655
 -0.0028169048844410645 -0.0018265526891215241 0.0033460083232781227 0.008758027130007132 -0.6541238000355925 0.49319155574774537 0.1713136847334099 0.27766332815166384
 9.113167480200207e-05 -0.0031851824684900596 0.003193806136043452 -0.008278520863150922 0.1649248142799242 0.2603320406153933 -0.6848328404866734 0.4700568836150942
46413370000.0 -0.6622471478240437 -0.439135117948126 -0.1645224491068052 0.34903643540260876 -0.0002002855146002959 0.004665451493948127 0.0002729391953744252 -0.0011259878923143309
 -0.17453319488647717 0.3495154192044073 -0.7230949011290162 -0.40105070382303487 -0.00033419703686420624 0.003207098200715847 0.0007602085765091347 0.001706710013321592
 0.0035635224233824 0.00037567252556520227 0.008836357255146067 0.002015878251174542 -0.6404457240208115 0.4400229830564519 0.13870073692074156 0.25576477751942006
 -0.000558709263254849 -0.014889374735147823 -0.010677939793659772 0.014590516336895388 0.17598328216744047 0.24641449080624028 -0.6068035262229474 0.388646279682679
46483360000.0 -0.6589015263420958 -0.4018227817081651 -0.17338154777753453 0.33473567962180395 0.0021792401521400205 0.0007594815756392299 -0.0006679382832977652 0.005838508858582191
 -0.14943269753059457 0.3505824910010923 -0.6792869031230336 -0.40645465666008224 0.00036438861038288084 0.0014814071655674943 0.0038021552556844634 0.002338238990075349
 0.01257228408715734 0.0053349192559664855 -0.00991408015744549 0.015402821808899937 -0.6169587338457534 0.4413327131856998 0.1418007523676396 0.2693853869245672
 -0.0003737283081808835 -0.003383066568665098 0.0022663066153250184 -0.00037457499394461414 0.15054450738442443 0.2752953833916333 -0.6938653331698856 0.37631801091195033
46553350000.0 -0.7031656356411169 -0.3930906854396103 -0.16883279312273164 0.3378609120282509 -0.0014563691341266877 0.0027112518639844873 0.0003801218644042378 -0.001762575469651926
 -0.16096600904756925 0.3482442319542457 -0.6868024257080547 -0.38634287742574314 0.003568305591349727 0.0007431280472030891 -0.002565637483601714 0.004481415199451724
 -0.003942958958716617 -0.006207384301470153 0.0123721607349457 0.007273247398352499 -0.6154483486615615 0.45679235073772395 0.1429698137816395 0.27367470423093254
 -0.0023259134458972174 -0.002223677740970245 0.021846324301107778 0.0007182976827187931 0.17485774018568642 0.27838336173551426 -0.6121565780751003 0.44856434390183164
46623340000.0 -0.7146887392005687 -0.39183043790720495 -0.1831871487566948 0.35211677927413787 0.0010337097885102465 0.000932368607169207 0.0015543063152311095 -0.001976955317088246
 -0.15716356126767111 0.35772658884563185 -0.7169293172297072 -0.4360489755938809 0.0025650996498678925 0.002195164075977188 -0.003931269283863738 -0.0025459392896110666
 -0.0061849183540323175 0.007885424242640911 0.01538389194279799 -0.000141148919909668 -0.6459024743538797 0.4755916227959076 0.1674913668834907 0.2900612328690918
 0.0008203351058493303 0.005611912731509772 0.009881650383827845 0.011359103204531684 0.18697719184643763 0.2558025596384064 -0.6856878837022187 0.4303847277236283
46693330000.0 -0.6698225598001281 -0.4223618249210725 -0.17517503790690608 0.35992225005299594 -0.001430002455202135 0.0006750707084204726 -0.0020995387841856476 0.005797224567384682
 -0.1676175913085971 0.35370737332795155 -0.6816665239250757 -0.4008258692910228 0.0031896145411790472 0.00043100877096668446 0.007120793553708579 0.0017845931556050383
 -0.003515668856780972 0.004095099359163752 0.006699303602535919 0.004029537397279598 -0.669677870653429 0.4750802075246165 0.17516347220818512 0.3059008203904053
 0.002370073999873817 0.005475583225617762 -0.0018698345625384717 0.007663626299621712 0.18521075260566539 0.2839034162599353 -0.6957417179577806 0.4175151124613101
46763320000.0 -0.678504552573581 -0.39004554978093264 -0.178021760189449 0.3519270155095413 -0.001032951542819403 0.000944567428508078 0.0011010734115338323 0.0007480544453885986
 -0.161806689030501 0.33119812941635357 -0.6923575047643307 -0.40800391787028445 0.0005053695563191145 -0.002829952967489587 0.0031183679324315525 0.0016211197875339765
 0.012539734581973936 -0.0010445942702251114 0.009863739604760174 0.0135159712083136 -0.5626034230372362 0.4444433791443324 0.16360585053857638 0.2598221970187621
 0.0005303904540299101 -0.0075536003789172254 0.0034378560974735258 -0.008868564659038087 0.125808217574733 0.33316757044382944 -0.6649580553441652 0.47959522477484695
46833310000.0 -0.6666484719463578 -0.4011410457074151 -0.15710596485048808 0.36185425270186594 0.003931196976210994 -0.002506423652948365 0.0037564970601550625 0.002056630588632314
 -0.16568581758525244 0.35337215746442824 -0.7058633577997895 -0.38769077500882526 0.0014956181376291173 -0.0006598301742212284 0.00010939679565746284 0.0012122741296110944
 0.01514140342579933 0.004279904654687077 0.011638504868851223 -0.003671270322142468 -0.6234612849456905 0.4806917174539439 0.1221901105051664 0.27296638942112406
 -0.0012763704498232307 -0.01039721337593533 0.01507939068774923 0.013279450873462724 0.1763991876897025 0.27269959695421936 -0.6525890333866434 0.4994059765357569
46903300000.0 -0.6861999861150293 -0.40851693773790626 -0.17072983583252435 0.3494611525705818 0.002005768975237881 0.0029346358048786218 0.003651608689123794 -0.0014003386518315446
 -0.17561913296714862 0.3677107776515823 -0.6878545721533035 -0.39231349927704356 -0.0006585871010241286 0.0006264608174266054 0.0008850867056208989 0.008654020418698961
 0.0011157366831429493 -0.0002054580533971841 -0.0039198733517271924 0.00426469724544358 -0.6602826943036219 0.4700471968931899 0.1845591064591501 0.25634187886903503
 0.007787279747518324 0.0022168691037260284 -0.0018482624154072657 0.0017071049201934558 0.1976611263958731 0.2609397153678973 -0.6958286490106071 0.4053787461726179
46973290000.0 -0.700790559005052 -0.3775751077566337 -0.16705884905598023 0.35649962696711257 -0.0018009263616685382 -0.0033455644381162517 0.0008729212354444182 0.000887578429307533
 -0.15912728129549553 0.35817262309603776 -0.6522139979583104 -0.39972266155362635 0.0022670975404752054 -0.000365462615478013 0.0018574456559642984 0.002456614303073058
 0.0006957455708390374 -0.0013306264087815775 0.004692524369348397 0.0014901394496175757 -0.6216408199051087 0.46713486085009803 0.19899673491831574 0.2450098177300829
 0.00036776872368492685 0.008025331197734305 -0.006009751236105562 -0.006749085339263003 0.17801441100524543 0.2555508531995185 -0.6747446207414189 0.46311518746141284
47043280000.0 -0.6899226831160122 -0.38123964663063514 -0.15884072071256755 0.37782284011896133 0.0011590644391058476 0.0029567680955892945 0.006786048588075095 0.0014609373105191577
 -0.15990764804789942 0.3726774598993578 -0.7344995676417551 -0.3885627351231238 0.0013923770971170158 -0.0019159559972082283 -0.0030163278129519897 0.004307522533254193
 0.0059520767710426045 0.005308823125934512 0.0016651748504750144 0.0009699970497788275 -0.62424679056165 0.504140939741502 0.1768138708418683 0.2583945769095972
 0.00413582583896322 0.00907274880741519 0.0056225062943006275 -0.0044921422096139444 0.1694095260183062 0.2665757085682127 -0.6587801277750099 0.46138734391746494
47113270000.0 -0.6708619074855011 -0.37779223529901196 -0.15537514124351928 0.3581740055628002 0.0029647401333584527 0.003159100376320431 0.0022413400124530096 0.002309760473713883
 -0.15668284261492682 0.36424914624530563 -0.7165883593153343 -0.37222355342611135 -4.674183997345718e-05 -0.001300440982769674 0.0043803981743520655 0.0007041153432347649
 0.0024664432386136284 -0.005553591640924475 -0.00574693516663527 0.007567768808114572 -0.6279210050599157 0.4328696689808404 0.16681563295930454 0.20955739113183056
 0.0025637874488790946 0.0013738820108131734 0.0019825944050439574 0.005745152482761702 0.18802528941745 0.28524078191709007 -0.6486199701641245 0.4904691341513624
47183260000.0 -0.7060352026185919 -0.3832277759929656 -0.15433363065989736 0.36590926981768435 -0.0009050926233539153 0.000437447277389533 0.0020758220611392926 0.00049515927302105
 -0.1594326531708229 0.3567736039031654 -0.6905838374514657 -0.377654479400603 -0.0007929808376533303 0.0035577996888879557 -2.6047838016014854e-05 0.0008327768844313184
 0.0019944231488799964 0.006418274150777939 0.006867729727532141 0.009403607214256673 -0.6344898512865447 0.48109977888903716 0.13422962131956315 0.24203957302031823
 -0.005938437390848926 0.009842240443487756 0.0011023958442698163 0.0027386377936487395 0.18938892371781177 0.26701223865993 -0.6282742582420078 0.4767202209621408
47253250000.0 -0.6664517760740655 -0.43162729371713693 -0.1694280841333386 0.3941667477650387 0.0025004346926581554 0.0012585200701028397 0.0034780071395121605 -0.0032430853141964086
 -0.19382563370640626 0.3882736929364411 -0.7162869592353915 -0.4053431349876824 -0.005852875632223228 -0.0018058029510231075 -0.0030625727982514293 -0.0029268013092809634
 0.003750444433344252 -0.004526690315934603 -0.004696332902798725 -0.013012988741678522 -0.6773016845202906 0.4801546576963023 0.19166484572417988 0.2387378241526037
 0.00011012289849617458 -0.0036263928360284344 0.004720812367747709 0.00793908366348002 0.1384693727395418 0.2612868801173752 -0.6485461736626472 0.4222063410554005
47323240000.0 -0.7003673547816701 -0.35063987569234106 -0.1560951627511675 0.35090530205234294 -0.00046440373985075564 0.0035641817697749335 0.006451591256644026 0.0007251527343679204
 -0.15804494820511847 0.36054754219843027 -0.7165586979036274 -0.3743100995717745 0.004055734008265375 -0.0014591466625032466 0.0026486510725132377 0.0022500202603803247
 0.00039947326565195704 0.00659872674626711 -0.00717058079244833 -0.00030834729538250285 -0.5797881083066653 0.5019254143250591 0.15476641182596504 0.2596519204605805
 -0.00310212051156573 0.0041250202462986526 0.007138128594154439 0.024446762902208152 0.18945217116170324 0.24575790239028064 -0.6716718088281065 0.474119643924187
47393230000.0 -0.7032918704601338 -0.3859908542674142 -0.17549675595889708 0.3726929197978816 -0.0001898075449189549 0.0008443448489476924 0.0012894941727726826 0.0027314926152259816
 -0.18731080591541016 0.3743071827624982 -0.7113649306133419 -0.38846423797278107 0.003966765872990585 0.0031330136093855126 -0.00013376746054389316 0.00028556943743093946
 -0.005869766669863322 -0.0038099050492546808 -0.016310162494862973 0.008429120549540963 -0.5723135535146631 0.48328642028782776 0.14703904863781322 0.22619394169768522
 -0.002319403622645336 -0.006498420572782209 -0.0039744139218281255 0.004151219266371751 0.15899895784977316 0.25766158745124884 -0.6858287753073962 0.4394191608203471
47463220000.0 -0.7205950493929315 -0.3795715316184177 -0.1604418733999325 0.37237010895841377 0.004545725994159748 0.003871451574938092 -0.0027649980634831986 0.006436884338903851
 -0.15516333053415354 0.3700786899717709 -0.7257446076563048 -0.37104189368687623 0.003628574954073243 -0.0016132749608305855 0.0018741585317075514 -0.002002816423163519
 0.007597134800505785 -0.008345726628651717 0.009650481006912667 0.02417502248344379 -0.5660955826132319 0.4776752918783781 0.1484131484158205 0.2338995073759022
 0.0037584912257351854 0.0015536288326981095 -0.01605586908803429 0.01227475079331496 0.18793831698907318 0.2782629911431229 -0.5925759802255982 0.4762679548887571
47533210000.0 -0.7113324530223847 -0.4025066241201941 -0.15398988272333658 0.34927717738748953 0.0029727717629039092 0.00016344675731681552 0.002679600515126462 -0.0006021341433018083
 -0.1601881877037543 0.3856486155421032 -0.6954228565825288 -0.370937605612297 -0.0056001456984281234 0.002046758183970779 0.0006928011853623874 -0.00016648415674440812
 -0.0015113758406626724 -0.004624388174955608 -0.001030011766151107 0.011473474935906468 -0.5755198550250364 0.5729541352362018 0.19855458868697023 0.2394630826158439
 -0.0008102371540247532 -0.008117472103566762 -0.005447848215494622 0.016762671208914323 0.14016261061724747 0.2622144621285592 -0.6700287117435216 0.45398983778445745
47603200000.0 -0.7104869521305938 -0.33630392536359044 -0.1379523974592101 0.3780169551943921 0.003906842471162129 0.006779987993955538 0.0006862959328070596 0.004335629074799205
 -0.13338545237211408 0.3685435840196725 -0.7404428521133731 -0.357144048752788 0.002774598971831302 0.0003066466473967424 0.0048115791303625 -0.00582349317262757
 -0.0006226951687369147 0.0011175274082784376 0.002848921447431129 -0.003483217769093825 -0.5884350193843486 0.5055160413640356 0.19460096218465914 0.24117997096320315
 -0.0028093717628709003 0.0005546707696794574 0.01274569376691351 -0.0025091474769253566 0.18465994027942917 0.2991120502726852 -0.6274170983959665 0.49774483207545483
47673190000.0 -0.685088694169131 -0.3626240426274818 -0.15777850016572695 0.38485487314466027 0.004159872709532807 0.00363062360791856 -0.0008502830999940142 0.002268185604979069
 -0.16209692693744124 0.373819307431671 -0.7374239029673788 -0.35495205427683785 -0.004106895136804927 -0.0043049099682903776 0.0005848235837110045 0.000557411434929908
 0.005806848160016379 0.0001012667273090375 -0.019551819139522742 0.0009167052136255434 -0.6290756786876585 0.48401112081436914 0.16829744939365962 0.24570997354496418
 0.004612648875483478 -0.0005610975145531011 0.0002243965617080601 -0.001672669527068686 0.18196398319749715 0.2970178183615825 -0.6152737821751771 0.48035187421877584
47743180000.0 -0.7180077046490106 -0.33650138303873695 -0.1633360441592316 0.3890437898466944 0.0042851045939443924 0.008614099311141056 0.003391075739593146 -7.260119928484731e-05
 -0.15114646498495005 0.38736895718246 -0.720321642916556 -0.36564080838659857 0.0005409878371202408 0.0026923534863827854 0.006000299086770755 -0.0025648593461127735
 0.010690476823213118 -0.0029134440209494547 0.006377795261783074 0.0154526356904249 -0.6280148259247944 0.4960135992991119 0.1673082020218726 0.2254125755706998
 0.006106922736604018 -0.0018089807524312473 0.012666226146122632 -0.0008827920530519162 0.1779836619752556 0.2557601786137425 -0.61896508776415 0.46383742726901184
47813170000.0 -0.7130829318820069 -0.37695426468009124 -0.15934227291671088 0.38674084473643594 0.0006497683823478927 -0.0033775930609265805 -0.002496940962249332 0.0010286550012487828
 -0.16428500612066138 0.3959172564793232 -0.7194712656005853 -0.3578610593343691 -0.0036272835822051025 -0.001117630861110402 0.003886771825099196 0.0005629681709928155
 -0.0036980701511315113 0.0022750056567500815 -0.009950952977768457 -0.0005014991390687793 -0.6178540914435571 0.5313295499974026 0.17210465963531874 0.2776364457383517
 0.003483877212812367 0.00015368633641139496 -0.01018149514160715 0.0037084781635954105 0.17078052279064243 0.22495719832866143 -0.6159716331730812 0.48883305768315827
47883160000.0 -0.7202916030926642 -0.3605772446514931 -0.15577260616778457 0.3659167347239064 -0.002581532513438976 -0.002811696609227107 0.003063379807723194 -0.002766152731208738
 -0.15014802998741042 0.37377637698270827 -0.6911507441058092 -0.3457253991039826 0.0029377363217761724 0.00010742858431856984 -0.004974624330887849 5.8678092188596664e-05
 0.003987010850751678 0.010036977709491818 0.011154901127114517 0.0020182103864380607 -0.6039711725738894 0.5569324854287039 0.1999641528404724 0.24018491487480273
 -0.000832058867584967 0.0011992067836790546 -0.004828117056129183 -0.010438570138409134 0.18223121109509308 0.2391870227517252 -0.6457949079980039 0.5006880132592962
47953150000.0 -0.7375944502304754 -0.3372425118503768 -0.12183673572173188 0.38448313761436675 0.004496993312445941 0.00028275009438721713 -0.002108726445899413 0.003561943283456578
 -0.13332080931658044 0.38490975378308456 -0.726685943637064 -0.3746996330879509 0.0021365591567636946 0.0036046241562768845 0.0012767545891643733 -0.0008305719248085833
 -0.010003615283100691 0.0018495099170056245 0.011887949055747863 -0.0037757638202383825 -0.5848116144288094 0.537146183201423 0.1527599275250529 0.24944276018139724
 0.0078963353662686 0.0030661388908110863 0.009432136489124209 -0.0037927463356904447 0.19032157294931704 0.23342816527599033 -0.6463921474537656 0.4516341924898261
48023140000.0 -0.6972278337777594 -0.34910307479562985 -0.1548349553734777 0.39487920933138426 0.002137384366240687 0.0035695245692234498 0.0025282691658141585 0.0026164621195062213
 -0.131481181536596 0.3766922623053827 -0.7219286733998653 -0.37016920152872057 -0.0015246173387218908 0.0017545456413714702 0.001001071014553025 -0.00029344956588245265
 0.0066170733777612244 0.008857884917941752 0.008715997483562983 0.0015701919486612321 -0.6099723697524684 0.5178856496123971 0.16288470224891544 0.24768601425842535
 -0.0016070034423061594 -0.003088446119520608 0.002781700415765199 -0.0036412757462392416 0.15152198436337835 0.2564537740263768 -0.6428608342714139 0.5187214486693315
48093130000.0 -0.6978515228259135 -0.3388028037017912 -0.145209132270197 0.38285540405586144 1.6165343539491045e-06 0.0028117967733701627 0.0030643385306323716 0.0013386549371263562
 -0.16662291974303123 0.36813424358818037 -0.7381187163341026 -0.29669638220003525 -0.0030960250806233536 0.0017304021215431517 0.0007669256680771755 0.0024716589535999003
 -0.0013624871274916185 0.006553736942456108 -0.008777584489810282 -0.0063696844345934815 -0.531583624097827 0.5352274481368292 0.1935910084602529 0.259449989884484
 0.005515490289868379 0.004082738034569542 -0.004715158384931578 -0.0055086984082533125 0.17796402659531743 0.1917802899168291 -0.5540781997282582 0.49816103958947083
48163120000.0 -0.6840158666974124 -0.28575417633660644 -0.16238841981798327 0.37072549770778984 0.0013548166189593204 0.0023166859604824004 -0.0001275893078435837 0.0006688465747032301
 -0.14240131018977967 0.3685034149363586 -0.6871944790856251 -0.35540018179937927 0.0001420614286246366 0.0012385594971131924 0.005104318746694674 -0.003816547030085093
 6.905793403307532e-05 -0.005496006264302569 0.005131864638012562 0.004921724865114968 -0.5002476166883415 0.5495279140121209 0.13923164602883994 0.261400037119214
 0.002332627142324098 0.010191879839498453 0.0061819427297687135 0.0005083697609117541 0.20272664143217578 0.250630848248177 -0.640183913449038 0.49747295450638773
48233110000.0 -0.677638702829606 -0.34122141029305597 -0.13401809974277165 0.3744504152006571 -0.001303698490485705 -0.0010462463589602452 -0.001491390175215409 0.0007116921440587113
 -0.1387334882372091 0.3655740196142662 -0.7475793919984964 -0.31330503552304445 0.0026207821442185493 0.001237520398338836 0.002814489790225022 0.0010210317719777004
 0.014157323366527285 0.006227227340461453 0.012010526785450063 0.00011935685997722756 -0.6139163871151492 0.48774885136053264 0.17443274513723495 0.21734957543727143
 0.00010692554135946761 0.012027526953152482 0.0010462574360053736 -0.002695736572154856 0.19791068684574695 0.2405903106426474 -0.6258783533643897 0.49391657421790197
48303100000.0 -0.7020629582876258 -0.337098689310547 -0.1524182888399757 0.3886420788720951 -0.00016936409935065476 0.002054303263062398 -0.00608682828529545 0.006876279551131926
 -0.15624406061007928 0.3888673725410534 -0.7009243824445986 -0.3724496200519226 0.003348861816777856 0.0023805649970571 0.0016288553534945954 0.0024825269849995685
 0.003518409361565724 0.00393329159489721 0.011455201090424737 0.0027269159369988144 -0.556381224820706 0.5200006527987092 0.16532423355969134 0.2100597502468466
 0.0010446791980598946 -0.0015970557793728742 0.006495353889515816 0.011309118245996825 0.14298307493381276 0.2348788243942327 -0.5773115314106003 0.5006599345660527
48373090000.0 -0.7198278071574644 -0.332300753225467 -0.1595660988503398 0.39088387527345425 0.0019684906167984346 0.0017673645503151426 0.0020722514943955265 -0.0008096775394669161
 -0.1569388154932272 0.4067354694545714 -0.7168100122711091 -0.36986233788106504 -0.00481828961198464 0.004102817940034547 0.00048426568476817614 0.001137859596102235
 0.004856439331762273 -0.002586541236228164 -0.011110847828411537 -0.0029249725408064097 -0.5662686689657487 0.5576764557409901 0.1653043607935089 0.22093763543946723
 0.0012041571598296998 -0.002428493373265332 -0.006892994146198796 0.004153034958133828 0.1875969965288332 0.2696772001405972 -0.5674375002154246 0.5110647069152984
48443080000.0 -0.7031764684500218 -0.35941244722737214 -0.1507790966708136 0.38614281264732253 0.0032772315191815565 -0.0033874306152580046 -0.0037632405732934554 0.006325112098250663
 -0.14616224982577888 0.3928085887305732 -0.7599728916749465 -0.3145549001075042 0.0012941127879476243 0.002329676370988674 -0.0018517855004057061 -0.002559984579124378
 0.0021474546558986033 0.0009436936821731852 -0.018813226310637594 0.0015898435105986546 -0.6001170658018056 0.517103071550461 0.1787142997224806 0.18799502986747083
 0.004563983355048421 -0.004727977457114939 -0.008035085792940025 0.016524185799498468 0.20698006352033063 0.2098101244439717 -0.586591099127816 0.5118314279475195
48513070000.0 -0.7098800119602732 -0.27106404020107977 -0.15605060955229397 0.38868589821489946 0.0030173358693904645 -0.00040275469900371365 -0.0024665894603966734 0.0026292798321662417
 -0.13051872167633155 0.3760959468308545 -0.7054206996474668 -0.3679937135670232 -0.001635573398398142 -0.004196370507476154 0.00125484715857106 0.0001401823719182113
 0.0030784313125156227 0.00039880246923022436 -0.009146807273109401 -0.0012395905576971158 -0.5475593134471898 0.5487398835900315 0.21138334856730745 0.2741155561186879
 0.001555699584345757 0.0025486250475586464 0.022843409294332463 -0.00048677099809703403 0.20510173804534967 0.28039644967745825 -0.6121398881201243 0.5444622052202288
48583060000.0 -0.688368317730678 -0.3140093634022502 -0.15346981187773284 0.372452683347583 0.0007952211335386922 0.0017526023529472658 0.0013594965262459409 0.002677319759303891
 -0.14987058814749216 0.39464499821125926 -0.7211436463795068 -0.3643359019871199 0.004129752731347248 -0.0022480502761323454 -0.002198816633786957 0.0031365756550364573
 -0.0005043718479782452 -0.003110037660464409 0.014883459949956391 0.013657956561783431 -0.5761340838399901 0.5247896951667286 0.14097142064690854 0.2796603140287578
 0.002985322653604492 0.009422031357293095 -0.016473019177918793 0.00627057752026309 0.23449918888841334 0.19201021323594197 -0.6063372981568134 0.44468416833886476
48653050000.0 -0.6957752909548699 -0.3147892826817627 -0.14012265285281542 0.36291001693853303 -0.0006175341056500156 -0.0025334380862957044 -0.0044612841681529675 -0.0029697076086183313
 -0.1410471262139309 0.36943362611837677 -0.6817462411893771 -0.3257607009366825 0.0040554253208252644 0.0023796692714423344 0.0013685439514125898 0.0004451071357560423
 0.00035159888876818763 -0.004069731541650073 -0.007309521878087755 -0.004764253883662741 -0.5155420267770594 0.5437295964913161 0.2136845428208148 0.22241682814035613
 0.01068858181987024 0.00035090369757476055 -0.00942159046733052 -0.00571596907434047 0.19310717667593472 0.2609117487364574 -0.5789095173912089 0.49082591823141963
48723040000.0 -0.6870190587051478 -0.32301572220506886 -0.14781488877869514 0.40128653041011686 0.0014953998375632255 0.0008050154688310733 0.0009777429676187522 -9.539502223786536e-05
 -0.15554448056276457 0.39446275996133623 -0.7162109932378787 -0.35880498369704905 0.0007936476113653348 -0.002335216926495275 0.004559864939936247 0.0003727223884062204
 -0.0016703179025954102 -0.007062088016694732 -0.015591729622303253 -0.008316327730037557 -0.583768714106938 0.5419513575402188 0.1732496714075627 0.22966078982922492
 -0.005844638321382523 0.0026186821801799476 -0.012002896655943864 -0.014340140355322608 0.1636562753538146 0.2382488116517804 -0.6103468249239108 0.5552560547747326
48793030000.0 -0.7207506245194424 -0.33380628007769725 -0.14141379241713717 0.38996851695407475 0.000362574187387684 0.0023760306747991128 0.0013645848307879134 0.0017760139489491247
 -0.1415685437030965 0.395211724824938 -0.7454355302442847 -0.3531874471252978 -0.003942740412213385 0.00220824863917487 0.0032501680721079315 0.0025883730407666185
 -0.0010486809822767014 0.0019126644539798918 -0.0028676858701746698 0.007013294907448581 -0.5448068474187243 0.6306817448591189 0.21567184292416955 0.22385135906749187
 -0.0033562200624505044 0.0019637949182918016 -0.005018306543157261 0.012924048696547666 0.19081947979307293 0.21961982115288 -0.5912149011998495 0.6061556991825265
48863020000.0 -0.7067997028282603 -0.2867357879976936 -0.11966281035770987 0.38685966867806376 0.00022625589843327802 0.003058276422887854 -0.001843138233338675 0.0007462445449533541
 -0.11588816171224861 0.38965055666654724 -0.7209219304049065 -0.2914499459502297 -0.006200784131755952 -0.0007152179668404419 0.0009645829482910806 -0.00470762819686882
 -0.008278383979365788 -0.00399278689047498 -0.006024177825225644 -0.0017349745389931648 -0.5840581920245385 0.6061169308015507 0.17165347226720012 0.262597594374496
 0.01028927225508011 -0.007574366774502927 0.0017375728435718274 0.005947561069941849 0.19069567113428054 0.1950212492021775 -0.6117235962872671 0.5740208988116733
48933010000.0 -0.7109290627607993 -0.2848379383203194 -0.149410979139094 0.39170145302066184 -0.002310596811281057 0.0020178219842844217 -0.0004847557758134661 0.00651104470387771
 -0.130775335534858 0.40389259683991846 -0.7236503010802338 -0.33655073025784094 0.0035445108755991195 0.000537021271039015 -0.0027075206753419314 -0.00246367153238359
 0.0003817558746697104 -0.005618206544846734 -0.003673248242329148 -0.000883143722781188 -0.5202857641908833 0.5644881795489993 0.18106533008985648 0.2529035950878116
 -0.010522898767784738 -0.0002391287359669564 0.004483163922060538 0.0032555490033125173 0.16062645321936048 0.26276067570246525 -0.6466512093335465 0.5542843169445947
49003000000.0 -0.7149726522987307 -0.30902894145141646 -0.1419476800395112 0.38822615848274833 0.0006171908465143177 0.00097198735283983 0.0016359942644564047 -0.0027605006087078254
 -0.14329490213334853 0.39717496939246766 -0.7297292286221027 -0.30085016589767344 0.0028028796423069024 -0.0009020775937588085 0.0031697788964538164 0.003106057488246643
 0.005345054465370935 -0.0006242505624836083 0.00023214565657751654 0.00994001618418788 -0.618229862734919 0.5564925710500248 0.13953617223958784 0.17794920953836832
 0.0016636835175592541 0.00530006996107085 -0.013647715868597053 0.00579940972322808 0.2011823408568504 0.22292893995387442 -0.5719302565064411 0.5722777379419793
49072990000.0 -0.7091841876954327 -0.3030604787735247 -0.12655618885481895 0.3835483647910587 -0.0021044758130596354 0.00923981674992169 0.002401815536418443 -0.0014460042830248814
 -0.1549794643553352 0.36111540440009804 -0.7211011966877403 -0.25931389025827445 0.003270505326573531 -0.003121792523492388 0.0005948809384696636 -0.005011727263142959
 -0.0018238099357751644 -0.00012975970932971691 0.01003131799701993 -0.004916026710984157 -0.6093940093510619 0.5339069834037647 0.11514735159005132 0.1718804355793999
 0.0005742666877842985 -0.003915503040046943 -0.0053711276385042086 -0.00798179153052782 0.2521635095902337 0.22855313427154325 -0.5705246132293855 0.5550589860252636
49142980000.0 -0.6941157349329747 -0.30720430531778864 -0.12506179738319673 0.3696363588020509 -0.0013874843180339486 0.001620132935307489 0.002363053348017275 -0.0029638318354920853
 -0.12333695408461587 0.3859238356363886 -0.7106113894907156 -0.27908234362359163 0.0005004323024932148 0.0030753711991640077 0.007289108659854534 -0.0034286719081012464
 0.0029699160667993694 0.001612538225181615 0.0011202219122406181 -0.026408858725045968 -0.5535397578304678 0.575218944469033 0.15215344971767367 0.22197764965421837
 0.0032276826815680407 -0.00517576855121088 0.0030001302721607676 -0.015514566745894558 0.20830761927296018 0.20389775172251767 -0.6395408560855373 0.5259101448640683
49212970000.0 -0.743864821960932 -0.3105126995143445 -0.11861696214557992 0.42121710877690155 0.0013426902929483072 -0.002668317425324875 -3.067670674351508e-05 0.00041631171607981935
 -0.11361997783324247 0.40643159061220485 -0.7788219888870259 -0.3199296121356504 -5.254935794397312e-06 0.0023784276223574614 -1.6210259800818058e-05 -0.0016259321448699796
 0.007300464582584816 -0.0052336627725278655 -0.0014632072156224038 0.009679520106692924 -0.5347126721274182 0.586178603712314 0.13924718903664046 0.17716173548889275
 0.0012558979782952232 0.006354972002506338 -0.006002644726146785 -0.013793746647163724 0.20464902814322472 0.2237355829169676 -0.6161301068865291 0.5951395746302567
49282960000.0 -0.6989978789690894 -0.26472895412041214 -0.13043770797171728 0.4165354785497024 -0.00035309791463842736 0.002979918294366508 0.001135711050059154 -0.0011290616743872038
 -0.12237451819882181 0.4044360192198417 -0.7415389206883862 -0.32455932223121253 0.008372744631245658 -0.00776033681313472 0.0014457459346156947 -0.005581250156165194
 -0.0041716254231724155 0.006747402114695029 0.005622568601073695 0.003678144027381095 -0.5342300416823077 0.602700159521353 0.2318521279347542 0.2353570095858051
 -0.0012329841945954321 -0.008873363490073774 -0.012439707911099088 0.013977240483967087 0.17337094187482407 0.2016227391394931 -0.6328831832395564 0.561903934354737
49352950000.0 -0.7071747799095931 -0.277113137452671 -0.12679066842005474 0.4193213709869851 0.0015239139301520704 0.0006476690095133361 -0.00020522798865827172 0.0029528787870590667
 -0.1390187845737406 0.3869976168733186 -0.7549018656971833 -0.30985103561167987 0.0034908992282202244 -0.006734284983847749 0.0018788017056339968 -0.0034222799947084956
 -0.007202588147790168 0.004851735028429631 -0.0015865039800721016 -0.014524985333541381 -0.5441083896887439 0.5708531600034993 0.20149123974324779 0.2288711879654627
 0.0031951632102880535 -0.004130046214712102 -0.008918798782853796 -0.0026329647134283067 0.22022422898332245 0.19832990385087287 -0.5706279304661132 0.49641884605538417
49422940000.0 -0.7353015531398333 -0.3056203651407815 -0.10532598028345035 0.4032243953152838 0.0009200902242495623 0.004645629181767547 0.001639652802272392 0.0017128413653971289
 -0.11900644738368256 0.3973140301423119 -0.7821135878515781 -0.28813068675765224 -0.004280352766509429 0.007154526791384033 0.002223849392300753 -0.006659627887579949
 0.0026744936793999248 -0.008536021689646896 -0.012652396011525964 0.01814920242837423 -0.5063735102554795 0.5705908883550633 0.14611535666343098 0.23147093965232132
 -0.005851547623088968 0.00221966298196268 0.016641328406888034 -0.0004949568929296507 0.17134644741346217 0.2329166362131637 -0.5335892773311486 0.6433371387179367
49492930000.0 -0.7321042087512936 -0.2636516787626389 -0.1473830335182971 0.40814464135434475 0.0030585958319488365 0.004385462617623703 -0.0011622261204476745 0.0008738173073114021
 -0.1148879419838391 0.4100920623239643 -0.7389965691296806 -0.3323259888339029 -0.0003790482289594477 -0.0037536119499144145 0.005672056647688034 0.0005024697798123122
 -0.0035980401302650694 0.0023565189711656697 -0.0019007823253853757 -0.012261334579690038 -0.4931649736002076 0.6372897627663244 0.16933156749053835 0.17331559778738378
 0.002560749345955071 0.005083000357703639 0.00691449269807899 0.003128641932227252 0.20676608494131152 0.1761978589362219 -0.6059426043929077 0.5573899528854915
49562920000.0 -0.7241045660808724 -0.28059270697525995 -0.1296634255340965 0.41705494620210976 0.0025496354714656055 0.0037987948085042513 0.00392175261141291 0.0006189921967328518
 -0.1316664133574292 0.40403230791024936 -0.7719227395217166 -0.3099495000653268 0.0022230743050061083 0.0009360621570988665 0.0018599238387441088 -0.0020189599743976757
 0.007822388159993298 0.008704669393260173 -0.001963145437798489 0.006748748833013171 -0.5482762181686163 0.5839059250322438 0.17612542840696024 0.21392494185417607
 -0.00016918284502227604 0.0017228623642324896 0.010934475301238278 0.009747977224869055 0.15559511229414666 0.20577616396216336 -0.579977026299155 0.5429835805408216
49632910000.0 -0.7229921844179318 -0.2541746424727855 -0.1245934742292307 0.4001268948653187 -0.005552504791589973 0.0011844862141715188 0.001124484002763856 0.0010549544250874504
 -0.12523479248515382 0.3982747718584818 -0.7800419932434052 -0.2813184687171241 -0.006393809988398659 -0.009364651651576709 -0.003961437136286262 -0.002366581793503279
 0.004501421549311936 -0.002179485933141995 -0.011457089357331812 0.006076948036876638 -0.5520465715075054 0.5726742097342407 0.1957577518052725 0.22934476788295577
 0.0011763868619538073 0.0061994850579729635 -0.0060875402542283205 0.0006192085527007481 0.21969092196847045 0.2182824957098531 -0.5531428678562292 0.5941661390688623
49702900000.0 -0.7222778330146585 -0.26507257739864637 -0.14386532116130082 0.3860191736749922 -0.0027692212568992264 -0.0014654784985014791 0.004323356209256947 0.001324834456627999
 -0.12417386662898575 0.39867393558479514 -0.7380456185012484 -0.2818691159599865 -0.00021757376776115135 0.000497665705627996 0.0007271927586428198 0.002190556519852969
 -0.004572226515972321 -0.002332752512790706 0.005400312236946235 -0.008419131106992543 -0.4534737625877355 0.6429567670689655 0.215693936943633 0.24839450702855548
 0.007128502950907001 -0.0038451364270319912 -0.012558753654708077 0.013636652539834449 0.27612345222415274 0.20938424486998536 -0.6200738484911097 0.5582954453978966
49772890000.0 -0.7339908042023947 -0.25982030277992557 -0.12107998327471652 0.42500672280485774 -7.843032961490814e-05 0.007565944773237625 0.0003552627451958368 0.004757783117427377
 -0.1124646381221214 0.41374740731571574 -0.7600882262237229 -0.31317712692795047 -0.00484964836627516 -0.005368323380475522 0.005132937006289992 0.0034485416680976643
 0.001751061284850567 -0.0013025243287303045 0.00249745706399116 0.0026641638479472565 -0.5350130023188792 0.6028581505152092 0.185489109806167 0.20064033305223622
 -0.0037677418971825056 0.0016178928635017596 0.000853360002431527 -0.0068995509025834255 0.19379054078872937 0.20900209377887974 -0.5542976904677497 0.5854570627415032
49842880000.0 -0.7085875492299991 -0.2251461425515333 -0.14335598156936394 0.38116211881650564 0.004236100858367294 -6.662486735023279e-05 -0.0029079686398556766 -0.0006418169745617563
 -0.12554721734204086 0.38010032805361205 -0.7044325270871988 -0.25075263618133387 -0.0026802933839369662 0.009177660724324292 0.008841005972626685 0.0052861017488355835
 0.00032717562559640093 0.0029495860013042737 -0.019645820827047918 -0.008652063435987168 -0.46696457024037114 0.5131441796533364 0.20506493710036963 0.1475601076419774
 -0.0006787101917498629 0.0006318408639136351 0.01976004680678041 0.011075012056059066 0.2294373641023247 0.16416303799442925 -0.5732283142209745 0.5647966211941429
49912870000.0 -0.7321077350078422 -0.27474088845927197 -0.13082117353143857 0.4222340163798014 0.0013758144694748934 0.0015536787453195476 0.004278979209165165 0.006606047583262041
 -0.12345966894684282 0.41500748856590963 -0.7390253088835459 -0.30950932547717697 -0.002689065617306352 0.0017619618631307867 0.002907598394653831 0.00137434903286895
 0.0012311517994116458 -0.0033955077680406943 -0.0027663295287763596 -0.0011314084014371246 -0.5167567020254995 0.6551451924554282 0.16146920436770337 0.1911330119593586
 -0.00219338349020329 0.008871948802631624 -0.007332836016000362 0.003292415648091159 0.23082280220217188 0.200839202988456 -0.6211351340878597 0.6323034493710548
49982860000.0 -0.7334028618275423 -0.30561660022288095 -0.11484841504720739 0.42439818963078585 0.0003412600901523783 -0.0011220651343305482 -0.001966420611358937 -0.001255282685828737
 -0.09828639792899323 0.41659581453560135 -0.7768149065266514 -0.2759118547955165 0.0010319047578510694 -5.15568486091443e-05 0.0092357629813059 0.0036521147606275364
 0.0021658809459146394 -0.008828210148305964 0.0050628554543303604 0.007078069762766901 -0.506471409838076 0.5935868836958038 0.16967122539256554 0.20798803659375995
 0.003546533079653627 -0.0006384690170560249 0.022782804115711493 0.008184508844673402 0.21002708893835967 0.231420950056513 -0.5959143074008736 0.6025997749312957
50052850000.0 -0.7540261497560697 -0.2392636087457554 -0.11629199582647154 0.39865082391692347 -0.0006585955640552232 0.0012572587637959113 -0.0016979895592959496 -0.0008733750074272374
 -0.0964161393854969 0.40708502040813477 -0.7855087182095623 -0.27021933713810065 0.0016754898918106258 -0.0018700944450948875 0.003829735169213427 0.002018930617165861
 -0.00539267269649426 0.0009838751740837615 -0.00397881154290351 -0.008032434610585356 -0.48968677550405515 0.6239463568248821 0.15345087277092517 0.1881669259744476
 -0.0007497142836646993 0.002999512028092471 0.0004878950465015243 -0.000748373814028438 0.19283254849998585 0.244914935201308 -0.5541510291137395 0.5299654658375613
50122840000.0 -0.7300170694136218 -0.26435904650576975 -0.11064541850205586 0.42707448824654076 -0.00031313228069146707 0.00017951476266778795 -0.0072242724002480295 0.005688924116359541
 -0.08789829827089668 0.38835696748933435 -0.7642632838304694 -0.2732155492494735 -0.007389620224416712 0.0014484733044369577 0.007932931931653323 -0.00042291301504643943
 0.000533900900140343 0.006360958734691171 0.00592925290377594 -0.008974341352834156 -0.44992296444811053 0.5432106591288102 0.1721367664020344 0.23476810631244696
 0.0030772062376968113 0.007952322817853531 0.007010027302060011 -0.010061697572993255 0.2063709649213999 0.19547432957878502 -0.5227253203156805 0.603491052435122
50192830000.0 -0.7609450461044035 -0.26309932775650235 -0.09754449425786196 0.4223905390939427 0.00278247370878362 0.0018430504141302576 -0.003207514863385048 0.00676591792536701
 -0.09219195305091407 0.43503560183448614 -0.7829257421665928 -0.24335063328485057 -0.0029103354708507638 0.003731337755154939 -0.0014051070220290325 0.004835528046855768
 0.0008806488527271891 0.001958055347419957 0.0018264432699023146 0.024652806970928125 -0.5034126639779791 0.6297367870352664 0.12440252022424073 0.18500525387860217
 0.002702926120894442 -0.011025025425072405 0.003027644550469957 0.01666034936269281 0.14906541289639288 0.21549944020664677 -0.5254972158389102 0.6237364026707122
50262820000.0 -0.7385701135526059 -0.2247552642049179 -0.11488851800811883 0.40697784645315066 -0.00028355851756105364 -0.003086837890609202 0.0016529389912467852 0.0010587545420373526
 -0.10962081871105102 0.4193971010246152 -0.7112642933792404 -0.24708171091598294 -0.006232744224372336 0.0035995644570372765 0.004072759779319504 0.006410278049014047
 -0.0029033674003627772 0.006540661154711086 0.031003765189046073 -0.022727975888051033 -0.5201552143284516 0.6216002440353463 0.21091937404322003 0.1951928960568276
 0.0011311514825200345 0.006991710514065683 0.01021791282520239 -0.003003782307808965 0.19015676210343643 0.1881646981652662 -0.5614944484022576 0.5468347156068585
50332810000.0 -0.7138725238754202 -0.26136457919792605 -0.12154293475713446 0.4249312389651486 0.003344357580516537 -0.0028822463571593613 0.0028451814478196017 -0.004303056847096313
 -0.12331338954475575 0.41604303243501284 -0.7731087203426419 -0.28557210167283803 0.000712675182345151 0.001514873510618587 -0.0006378985189341786 -0.0049807425931984745
 0.00786279200717091 0.002830256904748917 0.017192497825886596 -0.000739634625295671 -0.4959976071181861 0.5571123545104313 0.23583831027158786 0.16245216095781684
 0.006610237506256987 -0.00036454910443948824 -0.005492849980463865 -0.01399474293884914 0.21717952107778113 0.2144881826156603 -0.552177222518231 0.648764746214984
50402800000.0 -0.7630902026621745 -0.26631120015481946 -0.10138767866831176 0.42793248034364567 0.0018446536736474524 0.00011908896019267776 0.0026594451968563744 -0.002075843527087949
 -0.0935247436142956 0.4399955486975853 -0.8001415800054178 -0.25328814688873985 0.0026885384333357716 0.0017246754281765905 -0.0005864773772812324 -0.00542478734974894
 -0.001994703852275513 0.0051623392213011755 0.004065532476980708 0.0095637617256457 -0.5138795946269246 0.6943036703083934 0.1974061760241986 0.20195771423369685
 0.008979183537677916 0.006350689812465437 -0.012424338512941367 0.006299219132093787 0.20228758850721398 0.21203055455392966 -0.5223823480444585 0.6297849188135232
50472790000.0 -0.6913646869588731 -0.20020984451926652 -0.1333541714691618 0.4015676206808624 -0.005911866007912226 -0.00031340776895169917 0.0005627019069546214 0.003916933200166069
 -0.10635871508631695 0.3969167314556813 -0.7897144620030885 -0.25750838903515316 0.0002128602651106709 0.0025237231527478537 -0.002747556323787473 -0.0006207810607498212
 0.00907104331262928 -0.005274552989213009 -0.012068517589207241 -0.00600709780117836 -0.40594500058513483 0.5952894963168854 0.1781740912016025 0.21034487227851908
 -0.009921666140780437 -0.0004841221658795856 -0.00030364391398128923 0.004586382651352283 0.2233706683600406 0.1605597215180066 -0.5360543849645539 0.6728827920050161
50542780000.0 -0.7161902946613676 -0.23839197128291056 -0.10262461442604845 0.41683886188450664 0.002579408119594441 -0.0012313641395435824 0.002666010323220243 0.0017618555174197914
 -0.11146890550381733 0.4024948699599347 -0.7760343556793932 -0.22959195357373113 0.0032300310356372292 -0.004077290232967451 0.004572952773426891 -0.0040173297022283476
 -0.002588431761500443 0.010068216722349229 -0.022618519003557474 -0.005521287419096881 -0.45172714181782225 0.6041372433771378 0.20472348006379193 0.12042122436994537
 0.0003379898304230246 0.0009285614373042607 -0.013403144319438945 0.012541957973555087 0.15620430939704386 0.1949970278941127 -0.47182149818732694 0.5603715445927642
50612770000.0 -0.7524950733785415 -0.24589079612576256 -0.10290547165705904 0.40554132095392104 -0.002753004062223377 3.2439371139184204e-05 -0.00030917396279003264 0.0010923210987850548
 -0.10866380873155429 0.42889060140009405 -0.7514957263463653 -0.2374504892114519 0.00035015624409016796 0.0006903566135736959 0.002105784943771555 0.0006103569433986104
 -0.0005828835436709616 0.011229326598437941 0.010739049021435253 0.006520295516721577 -0.503793748193729 0.6640822858618571 0.19184269071412943 0.20735042092528155
 0.008997123617295516 -0.002593532026113868 -0.013106199252911118 0.004734109234446778 0.17505910886716264 0.1717276112933249 -0.4987331383705665 0.616348096013448
50682760000.0 -0.7538085832949915 -0.23612093135210438 -0.10749476400973898 0.41704138224504506 -0.003339457831524342 0.003694943622111039 -0.000784848549786365 0.00041496681011749203
 -0.11089537699568838 0.4220087812071921 -0.7481822355567624 -0.2221018542116902 0.0017421632901740039 -0.0032025181292882786 -4.149601371313792e-06 0.004659113901082868
 -0.01054741521315628 -0.0025993033098951125 -0.016142020038261096 -0.004887184737135688 -0.46921935105560864 0.667262682690544 0.1956613289181068 0.18833265106883335
 -0.001140259752820869 -0.00807549654318885 0.0048848756473173095 0.0034955010396329114 0.21045963260967201 0.23392533197716633 -0.5426672654991951 0.6301966172732888
50752750000.0 -0.7436896037140146 -0.23747607200860973 -0.10550798637855381 0.4106378524293153 -0.0006852846006367798 0.0015890292121259685 -0.0008067360642701248 0.0028578163152473885
 -0.09885837700652907 0.4204548511708381 -0.7705167020904595 -0.23339596009945707 0.002633205633147088 0.002153924146936647 0.0031970108715559374 -0.007518398332508135
 0.0006347655831808583 -0.0012512892832049996 0.006334635060597377 0.007588039668034038 -0.443981967401441 0.6466310237883102 0.1671411356073186 0.16031848510927463
 -0.002926489640298503 -0.0010044728411534379 0.011459846118495638 0.004332630573778601 0.2147712812552214 0.19384555559289388 -0.4592575939100641 0.5950143459536188
50822740000.0 -0.752804829903635 -0.21258244126489764 -0.0980919876108393 0.4080961452690795 0.002480895291037555 -0.00026838673168001683 0.002891470631057747 -0.0016186557237392145
 -0.10324359517330854 0.41635899999380216 -0.7446782692975397 -0.19104018511781298 -0.0017882734920459807 -0.003454768480550163 -0.001378220936961871 0.0012028749696491679
 0.00020143583021614933 0.002089666775510556 -0.0014817854411264416 -0.0028266033256934553 -0.5023956145400961 0.5971595249067014 0.17033170117939644 0.2198710732447467
 0.007820285075432046 0.00738444259321712 0.0049935410388411 0.005042083789801952 0.21993310111486947 0.21447936142385815 -0.5123338293995086 0.5881131330535492
50892730000.0 -0.7200379179515433 -0.21631079137457496 -0.09679459138178072 0.4176866345523744 -0.005611470968209691 0.0035531023619363726 0.00013847887901068264 -0.0023735677343034696
 -0.08634215590760873 0.418449239823788 -0.7480051392331903 -0.21970876991211408 -0.001743500001588876 0.003093204103771116 0.0021910187941075045 -0.00013197243307397867
 0.0016616962255094833 0.006978587779229198 0.008759843030086542 -0.009238760409821214 -0.4540184823980889 0.607882757837074 0.20110098194670478 0.20697729341111118
 0.002115132164121399 0.009462448745867146 -0.006037519977012803 -0.016290684820627285 0.1840553446640567 0.17910223017100074 -0.49834491512902124 0.6101936362373046
50962720000.0 -0.7331840888998576 -0.21975377142575403 -0.10503641217114275 0.4286067898449964 0.002738583040746775 -0.0007573704212946447 -0.003247587933052506 0.0009580471139584155
 -0.08433330226806322 0.4061020667743007 -0.7625676353151688 -0.24374918514084995 0.0019066982978722155 -0.0035646222060824588 -0.003343986859725462 -0.002558835712171192
 -0.0007841687337587643 0.006922085692434919 -0.0008982406250369326 -0.0004987783741539342 -0.4617353347889739 0.6220559818519789 0.14329806760576516 0.17988541139939015
 -0.003387954968114405 -0.0034556939900488026 -0.011468112236157926 -0.00018592147372599146 0.19117649183956095 0.19343434296651593 -0.4720430269201025 0.5953629929927765
51032710000.0 -0.7423264485575805 -0.24027579618985298 -0.11870274641867239 0.4010653254356355 0.00496892721134999 -0.00030005070609798184 -0.0006160458045379061 0.0011388967397613903
 -0.10936644080951445 0.4307101614727663 -0.7314746225716021 -0.23225804319005455 0.001063253784749119 -0.007844217205143963 -0.000985470196289377 -0.0011614798966785485
 -0.009467214569559939 0.004933970638831843 0.01102909992278171 -0.002743587360532408 -0.4478634494626958 0.6740325311386202 0.1840845750578543 0.2023337595926817
 0.005430141558759707 0.0017691695246703492 -0.006520732179272622 0.006818289218295658 0.21588944789194808 0.15002125947402448 -0.5573821645276764 0.5835382489207569
51102700000.0 -0.7525781767935428 -0.22076095062958392 -0.11276850866778232 0.396830966489503 -0.00354610897112894 -0.0011821636269847596 0.004521865216130949 -0.000728214475837666
 -0.07140962693703086 0.41670195542169247 -0.7201017148772919 -0.21716607215125305 -0.0018750469804612983 0.0030915875241240183 0.0031645402389943603 -0.0020927895233841995
 0.0009836930764439275 -0.00547436688270879 -0.017391614302635267 -0.005387861857333705 -0.4999370543633568 0.6495847925698347 0.23728545326256734 0.18334205639106033
 -0.0006077696866538449 -0.00801972418978725 0.004451115126299138 -0.011804170360016865 0.21220646686057196 0.20613338638102155 -0.46586472128975565 0.6139676886764267
51172690000.0 -0.7675651398408049 -0.23291002494464133 -0.10119036766188469 0.4138687852557296 -0.0008962430930831769 -0.0017647744001498598 -0.001267752734614632 0.004048523693661536
 -0.09246516789110039 0.4376315313834565 -0.7236309667202663 -0.18161316510436556 -0.0015457835704708956 -0.0009465709854941565 -0.00398461091825313 0.001044793074918819
 0.007914087416988824 0.006224121119651485 -0.001645900396279498 0.013508955262840655 -0.41474702895985893 0.6605204463457672 0.18174556174260076 0.15948323798779257
 0.0057863882347068555 -0.005670889257791682 -0.002016206329677021 0.007998428862082699 0.213963790490735 0.1367981975164336 -0.5127642820126386 0.5870808172072509
51242680000.0 -0.7195047370309189 -0.17328775511355132 -0.09018034973969143 0.40718756233515857 -0.002424820405345105 0.0038119730742992783 -0.002092307276418456 0.009495258988357853
 -0.08502298427534032 0.42810712060695894 -0.7371501464312884 -0.18183103138241832 0.004903307978107096 -0.0013511180953526762 0.008650067592594051 -0.004778626295539266
 0.002706387348872748 0.006790778594228292 0.009929455567979816 0.0021377812384246173 -0.41641773085234707 0.7161498972861711 0.20204710815059534 0.21499395595010612
 -0.010082471681924882 0.002101618650146547 -0.002522021841492193 5.210222212598843e-05 0.14420053411760478 0.1606287683041645 -0.48231031789252643 0.5793348975526205
51312670000.0 -0.725941806038378 -0.1967130330724737 -0.09946313556120022 0.45487447700265593 -0.00393971303729939 0.005907618528638781 -0.000735469669868363 0.0008428679035793851
 -0.11376408504384064 0.42801679680749793 -0.7867374626482835 -0.2475909752250121 -0.003969344824349943 0.004383939016150557 0.004897149718069322 -0.0007359517213086822
 0.00325819560472526 0.0037051538161088668 -0.0028000445028975285 -0.0089625185004852 -0.446178307011348 0.6065701295348637 0.21671850720961688 0.20051055939359766
 0.0046250921728897615 0.0025330254528424362 0.012059432158075473 0.006440219074674253 0.15165936870254326 0.24350003351162242 -0.4787883306440958 0.6505078431557735
51382660000.0 -0.7552301220324258 -0.19069732258252153 -0.09933207204617854 0.40686851554862835 0.005248985382180581 0.0027089028982427033 0.0016531681789072044 0.0047031404670636575
 -0.0799395215623778 0.4398045968519799 -0.7941239115654659 -0.21553248322629748 -0.0026684297070385587 -0.0016245875597054402 -0.0053725159995814354 -0.003511218082177864
 -0.0050818925142019555 -0.001497465480731141 0.005522171979566628 -0.009329654538127981 -0.4463429487600063 0.7152754871847834 0.19326419984743284 0.16267889583027892
 0.011600098146315652 0.00043584985198940885 -0.011326336290238761 0.0024745317575355255 0.26313898743637765 0.1630656723292252 -0.5318045004129845 0.6207322104745657
51452650000.0 -0.7422019975610833 -0.24091117462253733 -0.09649534037541138 0.4399879788633525 0.0015807113384057447 0.0009005687099588962 0.003212002456951778 -0.002748230449095964
 -0.10781175658153838 0.44070355551064744 -0.7671716695470878 -0.22183892635758362 0.0024654448520598626 0.0020461140671144923 -0.002964262201587693 -0.001322161958592806
 -0.007266392426001673 0.004567341369940114 0.002069588688678706 0.004969014573243574 -0.45426177664198036 0.661256579853745 0.13644523858794133 0.1647558389419476
 0.0004280649261450181 0.00658388148490205 0.005452637512183322 0.0037723196774933636 0.2203342412073981 0.1293349895095705 -0.47097686100750535 0.6692603982137685
51522640000.0 -0.7395483364608948 -0.23065095854438564 -0.08998542890316598 0.4285049844281003 -0.00135644181510887 -0.0003342863253418169 0.005805621713389037 0.0025549761542616955
 -0.09997128204745029 0.4302676913899914 -0.7785360778101433 -0.1987994852703726 0.002443738817489619 0.002920406631505395 0.0004545732685850427 0.0023522908086587285
 -0.00752025204567518 0.0011999725536873478 0.01044195261608089 0.0017265845351584117 -0.49356474812592277 0.6735267952940832 0.26030960057415464 0.1870346832828999
 -0.0019810468845630146 -0.002749185434593164 0.008407805394422868 0.009567685894537973 0.18931989256151344 0.18935498700709663 -0.47946329867852505 0.6424954807439694
51592630000.0 -0.749859089323968 -0.19535301133295388 -0.09159273554733452 0.43916866596033344 0.00415521847607015 -0.002797348945738752 -0.000664275455469928 0.0006003790037603347
 -0.08124744785587766 0.44158856873214725 -0.7781363813305306 -0.1872622267552972 -0.001960660722709053 -0.006340765824310412 0.00526463988491785 0.004289203898333525
 -0.0005964537242073492 0.001734538158975147 -0.014560492718318552 0.010898110856605898 -0.43337733887372715 0.666606226112268 0.17127455480375023 0.14819113806807713
 -0.0008828910802343295 0.005381922912143975 0.014746576957996816 0.0050359715381126935 0.19227610712824403 0.1334187463091008 -0.513318088366753 0.6182792560834556
51662620000.0 -0.711453629633038 -0.19013044459594 -0.09116218079210783 0.4375092057425917 -0.001059614098316956 0.0009403891623737083 0.00557799969705555 0.005266548548372935
 -0.07612287104107883 0.41346426048097795 -0.7741823975159833 -0.1764271244561943 0.0019105003075232357 0.004704467247159122 0.00852236820448176 -0.0007354697382630458
 0.004586910699394259 -0.005944536550540628 -0.008099646390326358 -0.0003475480929127404 -0.40983285420039794 0.6138961806003518 0.16122008569941068 0.20475253169845217
 -0.002390723673720789 0.00252306024213732 -0.007395622160250299 -0.011724933656361436 0.18332571658012917 0.14790396936724212 -0.4623024535878985 0.6892329963378311
51732610000.0 -0.7744924523827788 -0.18729647131037894 -0.0825887411950011 0.42823721112658775 0.004527601815945549 0.0010890363759591232 0.0010362132248630748 -0.004495433984400957
 -0.08347726538991117 0.43928993752009043 -0.7431998672916994 -0.17758711884505246 0.0005774005471108147 -0.002043574808510672 0.0017748501646646312 0.0005403510759829862
 -0.0010316294733722377 -0.003545302027506983 0.014446248679168317 0.004413237461967466 -0.4593750150367406 0.6932772783260673 0.14903455616477845 0.1785066705161362
 0.0006911054425805948 -0.0007912831797143248 -0.0025312020688964885 0.012864441555165201 0.2275961526099825 0.14261767873883627 -0.4786102520491579 0.6684417794921079
51802600000.0 -0.793138011774095 -0.16167715884784417 -0.09659708195311681 0.4289911361699826 -0.0034565614522327013 0.0009179371710761478 0.002546076498004038 -0.0004829135394009171
 -0.07358695228321448 0.43810816428463173 -0.7868044897984338 -0.21399125459943663 -0.002890821636849804 0.0024835684208583692 8.614084495673298e-07 -0.0011904259523092544
 0.010298530731326597 0.0054547315078710065 -0.015072735099594791 -0.012968991988521352 -0.4195269549026842 0.7058761765264893 0.19153120382503755 0.16249390346291628
 0.004028715298060955 0.014234418551283313 -0.010932468181985651 -0.009818411445476757 0.20147312480795412 0.11032296726738161 -0.5121482532589701 0.6549023721208591
51872590000.0 -0.7291954281382773 -0.18823791662120687 -0.08709530588348838 0.43187844971506517 0.004011541918770082 3.499597379249248e-06 -0.003659256150762537 0.001216066755194651
 -0.0987729082795354 0.41641018882752323 -0.7409089448137492 -0.21463287718216859 -0.0019931697801832825 -0.0037088172692237853 -0.004809851307667669 -0.0038646495980608642
 0.012965221394961101 0.002853210242327105 0.0026720458690886076 -0.006584955472444972 -0.4565091194776831 0.6357163338865831 0.17362252490976776 0.17422094533408933
 0.004086945947885643 0.00865660763978496 -0.003448535459133765 0.0027678412794748318 0.18087215757999048 0.1597740951847111 -0.4842530216883341 0.6451755135100606
51942580000.0 -0.7650400057000619 -0.20157957412856367 -0.08622252241446905 0.447877713252915 -0.004997715701551779 0.001082818066960503 -0.005633693993110195 0.005018979682246247
 -0.08688618326430034 0.4430672360222879 -0.7606423535980633 -0.18795397476568387 -0.0027069308158758974 0.004114332676868502 0.0038542142216799907 0.002984364479970188
 0.0024939726906441665 -0.0046225902381089486 0.016734734114786556 0.01844955603997512 -0.4467101621603686 0.7015376020864544 0.20118675654786616 0.13548710004950862
 0.004530288430850811 -0.004283023508279305 0.004898874592413657 0.003261571203656879 0.21791594557889157 0.1908427511803552 -0.46640561050285523 0.6057931172792329
52012570000.0 -0.7889194799327082 -0.17117730856312524 -0.06446820503749565 0.42164169389325806 0.0002150307622231527 -0.0016409443929652693 0.008635114126321706 0.0002991278180195915
 -0.08037571235366914 0.4271578881354867 -0.805586524229209 -0.18545715941683516 -0.00025532714548064377 0.0010644306914643661 -0.002227946639048545 0.003650019822566877
 0.002951160318054145 0.002586096877072182 -0.0040065687392156196 0.01742538361206306 -0.41575731256826054 0.7044291239094367 0.17721530814222552 0.14238874769631782
 0.004148572274494161 0.006722114312169064 0.0023427264251110282 -0.007479702202593197 0.21714895006410112 0.155769241387777 -0.41292170780157933 0.6738296253590549
52082560000.0 -0.7415089717188905 -0.17019874711683683 -0.07553193824701161 0.4746756911699437 0.005041061610784824 0.0019666279608516655 -0.0024056396464048183 -0.002004516795654627
 -0.08237632711167428 0.4279149758129339 -0.8037902814319187 -0.2029931969839727 -0.0014761962004460438 0.001444775659453314 -0.0027225731780618862 0.0090595832244433
 -0.0054742863271408084 -0.0027243937581044163 -0.0017291958419701663 0.012854047593992555 -0.40836293109422156 0.6298196112354871 0.158114938344925 0.16184054519116023
 0.004561675978247766 0.0037606470034403307 0.003285786245931433 0.010448582404502468 0.20678289171615674 0.1892997694695538 -0.4544750723620724 0.6954428228689385
52152550000.0 -0.783382865716029 -0.16853774860610743 -0.07906363766783393 0.45175996620810965 0.00046725957705147543 0.0008195800817439795 -0.0010311605758624631 -0.005308076221709356
 -0.07089758041393557 0.4235518868446244 -0.7779096306599169 -0.182408355733288 0.002564791416774968 0.0023744974448574167 0.005123542282534169 0.0017103010593221923
 0.006159859659511712 0.008645248538249944 0.007396572770328829 -0.02327502779158579 -0.4044421292971077 0.6500340102648787 0.18113135639808145 0.1739189658582938
 0.003232274184138361 0.0037790476578517863 -0.0058987759581831025 0.003663071250920411 0.18468782208550039 0.11403355392702215 -0.4673880008155062 0.7041872087208861
52222540000.0 -0.7502738018753966 -0.17048005881074765 -0.07836739664434257 0.4524125761195256 0.00235879285957286 0.0013926511619769392 -0.0015820112578682083 -0.003619995671290048
 -0.07686718590730955 0.43769351230563924 -0.7962763502260815 -0.16092486088743346 0.0009019244422546576 0.0031251815387839245 -0.002210144795738723 0.003970830166869866
 0.0017690088768892668 -0.005829501659351621 0.013598216580073264 0.0013615154155230352 -0.43047768204629394 0.710985157863794 0.21733201332022054 0.17401011491555776
 -0.008632213559202882 0.002157534193075631 -0.002087358965078696 -0.010741834029380748 0.1680052057978828 0.14754657137555327 -0.4324674075853909 0.7113734280034306
52292530000.0 -0.7449350018733987 -0.18509527142982785 -0.0671899509518176 0.43479363438597185 0.0018952112294121557 0.0027936495346516524 0.000539357481441535 0.0003466750497058195
 -0.0740258388915505 0.42825684668920894 -0.7662645669776447 -0.14836667697777212 0.001850608290051748 -2.0825299071256605e-05 0.0009450516832260305 0.002838057218366163
 0.011232682709399658 -0.0032858325291821268 -0.009186271095962659 -0.008854795315882897 -0.4151790007952556 0.6442070096600334 0.1950827336861337 0.15717701830908345
 -0.000415283695642299 0.004679375706263357 -0.012908527791420538 -0.003638854580337308 0.17292731771200537 0.13518608640396493 -0.4476013248029405 0.6676051315006736
52362520000.0 -0.7465745259236428 -0.1840092029658735 -0.059451973233758316 0.427570756006496 0.004914175885492138 0.002702513690519576 -0.0003333256996498899 -0.00031690743886767187
 -0.07634396271340353 0.45091935012245066 -0.7940471181349461 -0.17946329039600822 -0.0004479429288935693 0.0036471604255786513 0.002532131105795131 3.0163521594185194e-05
 -0.00491374610594511 -0.00040182502681346266 0.008448786654225562 0.0026113117110820616 -0.40631599010991987 0.7486026661326461 0.14877722139405264 0.16045967489927923
 -0.00966853075561469 -0.008331497772666306 0.011467095086972853 0.0039147132528674 0.2207429913315927 0.11337295651899297 -0.4221372196153027 0.6888950210829837
52432510000.0 -0.7568598696324133 -0.18502323321172442 -0.08203653492192672 0.45457864833807243 0.0008955603350550594 -0.0023058790120088664 0.0019470719621498963 0.003694310183585547
 -0.07667782878564197 0.4561342949871274 -0.7874385624919523 -0.1848442982717413 0.0029762877216523865 0.0008757630900630955 -0.0006668598486062648 0.005756610930546894
 -0.00047237034018025214 0.010213886972075047 0.0060797042294874 -0.02055685445155027 -0.42624432177672766 0.6833112164182298 0.19719031361441267 0.14389125215458795
 0.0016266776587619781 0.010822634700791874 0.011449962990810733 -0.014654055944459116 0.2096492144435096 0.14130809314911377 -0.3958330914145048 0.6982954691990958
52502500000.0 -0.7416320908840424 -0.18978973088983814 -0.08582090344769805 0.44181491784527827 -0.003284868603773113 0.003508850664648023 0.0035209186151288607 0.000730352110975655
 -0.08070460031715532 0.441979260167642 -0.754552188132279 -0.17672854607710856 0.004012833874249985 -0.005713321597027512 0.009220154715976618 -0.002472109505910033
 0.0012131864414498866 -0.0017972016335440844 0.00017924026944601452 0.005968239381205964 -0.385879075012445 0.6761724813038869 0.2069180308559531 0.18753930836383348
 -0.0026008150060598274 0.003096192899205799 -0.007550582336195761 0.0005966172939368827 0.18636127558970955 0.14667419544297466 -0.46871744559121586 0.6920143634640537
52572490000.0 -0.7172890943597818 -0.15625137559130528 -0.0585136510581607 0.4245663030314075 -0.0016756283808836917 0.0005945331982012687 0.0026420611947992087 0.00028630861854833374
 -0.06618983625126722 0.4312767567869345 -0.7790765373725267 -0.1412226406770179 0.0008433448897014069 1.020321448310287e-05 -0.002007519008645446 0.005532943718406523
 -0.0005549624762121697 0.0015256498791651053 0.010827714882700177 -0.001898935500604401 -0.4105989830323984 0.7515867242100684 0.21644499165495493 0.19428941851995593
 0.00896472137872356 0.0003034765134941946 0.015722867552926224 -0.001368034319500555 0.19254840725820915 0.18280843393266646 -0.4143529218207462 0.6503261555623129
52642480000.0 -0.7804899625739087 -0.16050404197578846 -0.052936300881238046 0.4195286010618841 0.003983695321099916 0.0014939678103251305 0.0022056085514917637 -0.0016392906556902398
 -0.045868577226822804 0.44048404773545957 -0.7712112673484558 -0.18242600611473944 -0.0003014288598495335 0.002026628590048331 0.002626985828332835 0.0020209333377734437
 0.0017773115784797012 -0.003983308637888474 -0.011749752951339966 0.005729188986839785 -0.3769894717175349 0.7262654105902776 0.17891946905229028 0.15365921869407284
 0.004340612279305698 -0.0069520085706465595 0.010054289102010594 0.017546694721386907 0.18881604235087415 0.1781728643239607 -0.5511455121064848 0.678927344729486
52712470000.0 -0.7875864520150747 -0.16437471463561312 -0.08124464496903161 0.45851473630674394 0.0006308745019975472 -0.0002444233513430752 0.0035319380080416516 0.0034929728419832405
 -0.0646265407776021 0.4607338254608985 -0.7570221777291759 -0.18958627240589754 -0.00312507391147104 0.005949663482053976 0.00263621216287449 -0.004140377561229821
 -0.00162422930678884 0.015247204264600462 -0.004658555041065786 -0.0031640374681665777 -0.41136433516943305 0.7044821329873321 0.16330407187438611 0.1403093639943956
 0.006018946568006315 0.005214282585506571 -0.0009669425152851195 0.01622092986584256 0.15753476204352376 0.13979792148731632 -0.4613535841678208 0.7637122501695653
52782460000.0 -0.7545748972363053 -0.1426670690026383 -0.06810393859542994 0.443637553334 0.0022806654696452535 0.002704339837653179 3.277768805458695e-05 0.0013456301074930759
 -0.05244622889531343 0.44117308444066755 -0.7880722003054191 -0.17518189316760371 0.003633638367811821 0.003198724178466978 0.002821771717965354 0.003301239533884713
 -0.005799375800207703 4.443566035093413e-05 -0.00433346747695971 0.0060112646321624046 -0.3927724989740016 0.7010988992971893 0.17620859596284777 0.20814622104260136
 0.003057063600094493 0.0029491378593515115 -0.007047983342874047 -0.016440135540336437 0.1404724601522491 0.13084727759932224 -0.46353679331802966 0.6648971000335896
52852450000.0 -0.7599287893567989 -0.15663519645875496 -0.05377372079659591 0.45914457373811174 0.002536346367471722 -0.0006410515505928758 -0.0001529257360838394 -0.0023516471794511906
 -0.0563599162129243 0.4579811332456242 -0.7504527701109763 -0.16697060922380924 0.0014275104769140333 0.00016104321403828645 0.0020537866444709906 -0.005231178036820751
 0.0003978092083470595 0.00859410648417049 -0.0009996934550644387 0.00042699325397405324 -0.4467346228631022 0.6730393317870347 0.21957204039861167 0.1610875267047846
 0.001302405283880289 0.004310908206752492 -0.0016975998857810474 5.431312692414792e-05 0.19849442905745762 0.10888632506672495 -0.4762343981743232 0.7026764865985831
52922440000.0 -0.7647103230750498 -0.1514319784527415 -0.05745665730268726 0.4474146213953676 0.006956859249267705 0.002306674720278214 0.0060927118665616495 0.002979069518313789
 -0.056214326673142176 0.4394726363659752 -0.7656900506893141 -0.15714852680783128 0.0007282116662842981 0.0014070522636585377 -0.008633765697258782 0.0022331169329663997
 -0.008641072931763926 0.0024855097205056724 0.01698896217647192 0.008742804792437584 -0.4147724279950999 0.7021219608068038 0.17828666684563693 0.10778167528247115
 0.005319265994406924 -0.0019224167696446223 0.002105896652550756 0.002302362432711927 0.1822576873954721 0.1628966305105102 -0.4123685756077422 0.6946569634230048
52992430000.0 -0.7843364262745807 -0.09093671758203908 -0.05290010671195958 0.43843247733749574 -0.0028067071740060807 -0.0015777506153114313 0.000311777015551151 0.005038795438660737
 -0.038608233573475044 0.44808307057289865 -0.7590793782849171 -0.1511459129193251 -0.00011130936339935741 0.0010856384663986425 0.0028386735717286326 -0.0028322490192400056
 -0.001139860184531304 0.011572076580731417 0.0006581541769832961 0.022116035486867778 -0.30503640303524815 0.7090699772215604 0.19167443922305172 0.14937432940944914
 0.00023021098639130344 -0.00517029619746034 0.013058106634981649 0.030890875768232226 0.15167165576480898 0.10952306749411736 -0.4057354195862887 0.6697219218627918
53062420000.0 -0.7494738593171265 -0.09609490774267312 -0.07137023303228127 0.4563313351310455 0.0001103753947272623 -0.002268930710234242 -0.0013086352532211062 0.0021475533681793403
 -0.062105981028724805 0.44283567239408445 -0.7502276804286998 -0.15752348999930332 0.007039719268054995 0.006509986039689674 0.0050277379473846525 -0.004755275071327098
 -0.006671445690906754 -0.005279651114672792 0.019974325714891245 0.004379285390289745 -0.32193066256089753 0.7348800102567716 0.19678729197824305 0.11858333417032843
 -0.0055010526186345665 0.002272336498852958 -0.004553221660047621 -0.018136244910919135 0.24644478508794596 0.1614571788234237 -0.3731131265285069 0.6712366665387282
53132410000.0 -0.7570147001305025 -0.14403037990398884 -0.05061640779217493 0.4467967030285362 0.002198587285454894 -0.00364438955655319 0.006916198207689934 0.003601744224388646
 -0.08296803168161891 0.4207919741113391 -0.7699893647887718 -0.1647537668280056 -0.0041566719730978365 0.003668869228825661 0.009373685315975424 0.0005822216960216671
 0.0010212800436744248 0.0021523937947789816 0.00999116565085531 0.010171117101981408 -0.4258595686923647 0.6892347759273973 0.2034090958836998 0.1448199145652142
 0.010319369230708147 0.0024865913769104523 0.002848720588413879 0.012767259335341162 0.2091049798953605 0.15679122942960363 -0.4733672161592764 0.7410411013337734
53202400000.0 -0.7727252946720241 -0.11299702834088952 -0.047119487940399815 0.4344201755785883 0.001541944171070381 0.001078538689675733 0.003869400740133173 -0.0006035136847559705
 -0.03777622129208791 0.43568830940855663 -0.7878492767639501 -0.12129820033505402 -0.0012735604677107664 0.005809937128858108 -0.0018590141698734003 0.0019060605190329958
 0.0027458987741130064 0.01121461847969401 -0.006079194415452669 -0.012346285253047252 -0.33558556768258097 0.7043732066009352 0.15498997700714487 0.11869187216548786
 -0.003629682810970845 0.0007197038577368332 -0.0024879211770038865 -0.012212484409900278 0.16011022029713276 0.1691766703361176 -0.3516563340992294 0.7221503929584127
53272390000.0 -0.7600130734967023 -0.09969868381771348 -0.062165091908605766 0.44469489168193266 -0.000486624240797211 -0.001250906176388471 -0.0003730181074306249 0.0014914798080397323
 -0.05051018260306855 0.4546134572682445 -0.7731064088756061 -0.15154433151909882 0.002931518508825757 -0.001070890168137836 0.003439353756981801 -0.007978258118439717
 0.010592140292331033 0.007975274113242992 -0.0008880695249804692 -0.006132287258772254 -0.4029824399129282 0.6870152828915711 0.19620615462417573 0.12264930942344444
 -0.004425827307391272 0.0032086526910279924 0.005541146272204361 -0.008520822882399847 0.17722512955562483 0.1716218619796793 -0.36491893696528427 0.6654513039948369
53342380000.0 -0.7549619618944967 -0.1316275376946843 -0.04690743964418261 0.41489883135873007 0.0015632073157362482 0.0016332957393062114 0.0015212439742391145 0.0018351960669173533
 -0.05454979959877323 0.42892861466291654 -0.7861012290247262 -0.08660863084825463 0.002670826109451077 0.003469786710981817 0.00673581982382805 0.0014930054565292829
 -0.003195955146529434 0.005538145789667257 0.008355776673379257 -0.002202921120637197 -0.3159647786043703 0.7766338050091031 0.1949522882072425 0.13666198192664436
 0.0013736969813498876 7.738732396952026e-05 -0.014440275732645674 0.0035459098774132257 0.1867902475475783 0.13069610422526987 -0.4257965558107484 0.7339942328965203
53412370000.0 -0.7684285263309851 -0.16322238838773942 -0.06211997215505729 0.45759228214270165 0.000839888706375622 -0.0019591529213878827 -0.00013749539609542912 0.0009812755654476266
 -0.08247873420135321 0.4396643878711682 -0.7476402273877387 -0.11250142510030915 -0.0009160294095428728 -0.006097935713457919 0.0022366042009080126 0.0005543040144709014
 -0.004717982807923651 -0.004262127244241084 0.0020924294370845667 0.0061471779603335325 -0.3843203753791905 0.7317400410256137 0.22583151232252285 0.16488435048497532
 -0.008751820700608965 -0.008465656665565842 -0.004755280697858358 0.007683938463594658 0.222720143274544 0.15139500530330324 -0.3560341083705436 0.6689322864832021
53482360000.0 -0.7874383979146459 -0.09663087108452831 -0.03308782866908627 0.42594620739082306 0.0055655519264353175 0.004021017941268876 -0.0012632682867836176 0.0025709464518590994
 -0.04571172156480099 0.42175431483456094 -0.7850060662165519 -0.10401294444825726 0.005449193156431616 0.001239009500905377 -0.0009526655006389385 0.0007528748635505071
 -0.0003926551864055783 0.0021275705206114867 0.013071737864874205 0.013213967782389112 -0.3876505633978949 0.7901549783658188 0.18490480679647234 0.17678100794416188
 -0.0032726579456858504 0.0062331247580882975 -0.012365971209654788 0.011400085358963705 0.18700173082726346 0.11247505828148671 -0.36549571444741474 0.7159937333170178
53552350000.0 -0.7397730382008644 -0.14290511842381234 -0.05400836582744535 0.4681065600130749 0.00030188497697604486 0.005732778739502821 -0.0006316294868352866 0.0011241111630840188
 -0.04844525585706144 0.45051395028060076 -0.7687655400781659 -0.12845827159347042 0.0032253060617600552 0.005154923534464549 0.005643947547820307 0.0020373890885665817
 -0.0017277102478211374 0.004263544426856553 0.019327900307031614 0.008707574379449216 -0.4099743667925193 0.726555113895041 0.18708248875076192 0.15040071163771893
 0.003662720771093185 -0.001211995749966999 0.00030204401400458705 0.02131618130261836 0.19607102045501434 0.12144888013165352 -0.39935260672040185 0.7172387145049502
53622340000.0 -0.76365515092425 -0.13743489665290715 -0.058985277419866436 0.4432483747835077 -0.0024716279846267366 0.0007591916924546688 -0.0022581742186352127 0.004749113471481006
 -0.047948746708181424 0.47476791357181725 -0.7582006528712347 -0.1407692082170692 -0.001552628283789103 -0.0031627670730217296 0.0015594933271734983 -0.002885689833935648
 0.005866598115430595 -0.001393177685991724 -0.012023829952267244 -0.012127524671065888 -0.36354770512486617 0.7750838458884189 0.23685756934682842 0.13223778122430022
 -0.012596214912542293 -0.0013435232933551261 0.013111798587650565 0.006917407841233794 0.20295146184984805 0.12088845793371193 -0.4052862884480767 0.6755427965714297
53692330000.0 -0.7592940930029792 -0.20493440388251602 -0.006820743086314909 0.5088101682290739 0.0012224871441812676 0.0009217361157371762 0.0025781772709684314 -0.0010231776189362544
 -0.076095534796789 0.49615655421210236 -0.8016800296159362 -0.18545237273763518 0.0016183545925010253 -0.0043160785664261144 0.0079270939670033 -0.005606748579382467
 0.000250976206485524 -0.009488829441178204 0.007592913115943189 0.0011765884650256047 -0.4364970842437854 0.692119142079572 0.2113206201707821 0.11487650274200363
 -0.004564560232975739 -0.004015303916175596 0.008416916470082187 0.01374436527639609 0.1921835397625658 0.09185981908403418 -0.340002673407857 0.7115962858763962
53762320000.0 -0.7502790188830629 -0.09634988161904304 -0.03689627502422949 0.4524505256225807 -0.001082575496622098 -0.0019240091412391848 -0.0008431552998289951 -0.002066903586272251
 -0.048257950629363264 0.4491732926288854 -0.7639278251585853 -0.08012894130818043 -0.003618413849198746 0.0011407148708954228 0.0029591706086323642 -0.003005601294684972
 -0.0009827744978664088 -0.00315319334408694 0.0055327327359300515 0.013196491846500343 -0.34111840453700704 0.7369840726694074 0.2311978545031343 0.14763084265919632
 0.003644797834001723 0.0038022887488171177 -0.0075372169264586045 0.006744590800782441 0.18664097752826408 0.11889695911975794 -0.3248327359742501 0.7138333282408115
53832310000.0 -0.7656262170704627 -0.1318049132273674 -0.048971228639299404 0.45529681427220164 -0.0003681512210945654 -0.0014248379555877324 0.0006548036646184749 0.005904191077932205
 -0.05361432668261557 0.44295482064484626 -0.7796207901435671 -0.0789119309789631 -0.0020661993122049922 -0.00012648999411231588 -0.002781185749198713 -0.004077203412607063
 -0.007148058539792681 0.0106180870686433 -0.010660029422371042 -0.021119388766171927 -0.35791862325320406 0.706333116827016 0.18701075485236093 0.12583892030316565
 -0.0012904197696823473 -0.00044094403733275546 -0.001065699960647689 0.009227106188500867 0.18999746204866694 0.09366772951726421 -0.3759766530070552 0.7637993936512089
53902300000.0 -0.8198763931997144 -0.12386584544761585 -0.0338579283308277 0.4622125023255534 -0.0015077719985976147 0.0008777133695107381 -0.00041124389264514605 0.0023608143770707437
 -0.016154858958083905 0.47734005152382675 -0.8071722605171963 -0.09392985095660883 0.0032650888291256615 0.00958357403190898 -0.0028779590486116393 0.0013205379052301722
 0.00360955990295841 0.0013487449357836325 0.009808361937685112 -0.0025614414859652154 -0.32586841912504355 0.7135738783795337 0.192461940936162 0.08038084362922183
 0.015704488120831785 0.0003687908117932739 0.002615799656748855 -0.0063314801056085605 0.1799240332657649 0.15012802562543773 -0.3905626473838404 0.7241540855572434
53972290000.0 -0.7505881679387477 -0.08862410271926051 -0.06160344952052332 0.4730390523168025 -0.000927600883200064 0.0025154402423568875 0.0008385409811970177 -0.0024225409049466223
 -0.02370772721288669 0.4800210304590613 -0.8282356098357679 -0.09798710237419415 -0.004872069095541847 0.006696434511466169 0.003642229116534883 -0.0010107552409023865
 -0.0021896350590327337 0.00615526010131257 -0.019676051620300627 0.0044022292985321145 -0.2919771190604175 0.779621361232591 0.2039169355314603 0.12588006965625792
 -0.005901036184009771 -0.006280032430272348 -0.0033486603156786103 -0.0035969850837429163 0.17360188242466243 0.13799475902080702 -0.3924842460362635 0.7070152154345712
54042280000.0 -0.7700625580121484 -0.1235260057049691 -0.045789233839801435 0.4318256465517951 0.001876117095142087 -0.005544779011206383 -0.003825446312504933 -0.000385708022368193
 -0.04030500298075352 0.4487865641204787 -0.7511637701201618 -0.11045607051451878 0.0018367330074071401 0.007200450531456209 0.006680402716734934 0.000824254954196899
 0.009860948088479685 0.0024039476049500298 0.017220800238909297 0.01626519633812551 -0.2888598593492292 0.7001154492706162 0.20244374256850975 0.08809122326350359
 -0.0026820799148401008 0.002392704307872063 -0.0066248172195127394 0.015925990207872488 0.15757198923190815 0.11804893710009955 -0.3599707845211979 0.7220180995929788
54112270000.0 -0.762558626972533 -0.1064296916968751 -0.049509688202338635 0.4477946275545776 -0.0008944320068715812 0.0004261949423843028 0.0023576414611878264 0.00405073929096809
 -0.0434941764906047 0.46708468207586223 -0.7616438257659623 -0.11882629472545105 0.0015472962367829052 -0.0030643976249796956 0.004123949475364731 0.003456607601903791
 -0.0016242090435347623 -0.001999465633040184 -0.01337094653846762 0.000681180028031815 -0.3270661560848898 0.7277008517439874 0.2130605472082323 0.14108144140232906
 0.0015417130561008483 0.006143739072112558 0.007349922721095745 0.0220939875950834 0.2231409876617464 0.09832168771663224 -0.29031964756783046 0.6777290720615506
54182260000.0 -0.7353490444240373 -0.05199069342211188 -0.04008270598522658 0.48227924880032724 0.0018242748144269548 0.0039473433370402124 0.0009532252508292103 0.0027746535720289743
 -0.017307148325052812 0.4595929768078601 -0.7809922455305547 -0.07091643731756621 0.0026045122747290206 0.002805400738147818 0.001018423106690347 0.0019393495916466214
 0.005033415842895162 0.0033265774699518034 -0.010814681592782763 0.003253758751078771 -0.19944633541650755 0.7278101507741086 0.16781395582462874 0.15238576758691436
 0.0015522361385687973 -0.0022258208492185465 0.000547025575789924 -0.012855461527466404 0.18919736600605794 0.0812083990227654 -0.3644358547917092 0.7044697957123659
54252250000.0 -0.7568045849320114 -0.13087792798527648 -0.04661506720609145 0.4641169511654367 -0.0007527816611112177 0.006986204752556617 0.0018834864535219686 -0.002989650361220735
 -0.037939312843579175 0.4714280894733824 -0.8012130559202174 -0.13210125511587295 -0.002216372376796551 -0.00016872348202921758 0.0015889508769854463 -0.003662469387504023
 0.007260565539116614 -0.0027405476337649987 0.00028623718450083237 -0.01324001668149112 -0.2934260671339447 0.7650315414671904 0.22653183283672415 0.07431023397532541
 0.006275048504415517 0.003007104142964792 -0.012261723172283351 -0.0018666497264725277 0.1814706176807046 0.11664161653903284 -0.40837011894990216 0.7452886408527492
54322240000.0 -0.747624944375548 -0.05481818384033094 -0.02569008798890449 0.47048673826472176 0.004799165014501366 -0.0007025501989139536 -0.0022071494251219674 0.003443789761576058
 -0.03488057080235412 0.4643606744685379 -0.8240408901645957 -0.11091387614651958 0.0056538022719715255 0.0023254266901358094 0.0019464818257186754 -0.0046083380698855704
 0.003917568608235151 0.0014261788089518098 -0.00214054164404064 0.0077388380860025675 -0.3388054185396262 0.7158589240423026 0.1910281048601882 0.11045702773790135
 0.007711090126396544 -0.0002486779838869902 0.006496575072771738 0.003458491751717879 0.16430030857621852 0.08411771734297457 -0.3237067298417103 0.6991325729844098
54392230000.0 -0.7378448875421719 -0.13224214753730854 -0.04326475650260182 0.47007078687078585 0.0017038033240149614 -0.001952955037806723 0.0077020099198060335 -0.002053311068178739
 -0.05173511117071844 0.46412227354436186 -0.7718345547295599 -0.13693297250736067 0.0025503697845177605 -0.0026276961677767336 -0.0019026551236726043 0.0035841969803812167
 -0.0009232911642263821 0.001988297200272614 -0.001479169505058594 -0.008804256635424338 -0.3055192292935679 0.7918991571939088 0.20219246593632012 0.10723841154494897
 -0.002330313319517343 -0.002128621884534721 0.006797106419252581 0.005159935304965684 0.2096425328699554 0.1446613112873638 -0.38203164595154715 0.6890870380532708
54462220000.0 -0.7687425941413124 -0.08359362408021298 -0.02092380398615207 0.45121768066372825 -0.002110745854685542 -0.0002941969994364487 0.0009248775149915973 0.0023925446454061946
 -0.03540319853828204 0.44275105250430596 -0.7896611200764901 -0.06475407319173102 0.0011617349164053461 -0.005840046951436639 0.008414904613737749 -0.0003215324435060879
 -0.00434879051486639 -0.010288716317600023 0.01586806997993623 0.010061180550838399 -0.30723886076216 0.734427731278721 0.1701996174568421 0.10683072965793579
 -0.003621354183523404 0.006692193368632809 0.00408028872460624 -0.006318324195672759 0.17911957908550025 0.08419465837240694 -0.38240369134938573 0.7273042051458737
54532210000.0 -0.7542422731901938 -0.10134090640970886 -0.05289396431426456 0.46427678630229247 0.0019134744532654396 -0.003540537717690911 -0.00020539629661534982 -6.422323592142843e-05
 -0.048577592393777305 0.4919033709790493 -0.7577014399066854 -0.08508758796827728 -0.010892575998504394 0.0036940969556595593 -0.0038976995066302097 0.001984058046642517
 -0.011037767504481572 0.007751315594465459 0.016618371833734664 0.020857336664470576 -0.3490592213974717 0.8165367648853102 0.14403918446520272 0.07473140760197385
 -0.007200425163039431 -0.012365909040486966 0.004035127883583631 0.012096318032765046 0.16635163706111142 0.09493913936329924 -0.3738545787996055 0.6735141839050013
54602200000.0 -0.7612182100544487 -0.10427933813565499 -0.029562763085632375 0.4520536746836438 0.003659014752863438 0.00014287659790406302 0.002171648436106438 -0.0005264660513996898
 -0.05619463416691193 0.4464756637199695 -0.7595121454796832 -0.08298962054227742 0.002101672115974483 0.0006272027419548605 -0.006343963383547039 -0.002625200550087216
 0.009756144547014383 0.002622814530550331 -0.003272652554042757 0.0039453044787162925 -0.3225676424767606 0.762469709929169 0.13277716730921083 0.16136292143585576
 0.010792311444762597 -0.005808097079783136 0.006063447391505045 0.002822511852832548 0.1646756228198095 0.10329501613496728 -0.3123888254567169 0.7872613262877034
54672190000.0 -0.7747082711900838 -0.06624975927168124 -0.008498137232112204 0.4515353407614381 0.0006065771782621732 -0.000656889913157605 0.001100163115691709 0.00010887793070156621
 -0.014576937902368864 0.4519243031197707 -0.8075564592611288 -0.06767615098049352 -0.0014387670220839942 -0.00505340833232539 0.004125630160915741 -0.0012671313564884337
 0.010002042485804748 0.005098753801407443 0.00878413502445964 -0.009707151123080064 -0.3023893198085901 0.722144909263068 0.23367702288601266 0.12275883568504631
 0.0030547324021857583 0.00047192661878799367 0.01560763400917624 0.008615493015535457 0.1890618328892197 0.1095223176459221 -0.3450762907045984 0.7672671980837208
54742180000.0 -0.7261755690622262 -0.07231683600597336 -0.030085934842047257 0.4213590131899479 0.0023976900728033177 -0.002532035982106536 -0.0015962111338926508 0.0014127845415458989
 -0.02997475120384861 0.44399166855542654 -0.7310692493630514 -0.039242666773982596 0.00011182867749834151 0.0029321817131739317 0.0013608716950100441 -0.0017013682961280444
 0.011291433049364627 0.005577670806659618 0.006782539916227311 -0.011529007839676288 -0.264859119868173 0.7807243070651919 0.134929466863244 0.10442779660534697
 -0.021748979863334482 0.0017067166732700654 -0.0077995390658952505 -0.011055936938736037 0.18992038817898024 0.08431246611428735 -0.3541161346595202 0.6574973257452046
54812170000.0 -0.7595258169095549 -0.10109143631913173 -0.012399156605032288 0.45096060480490974 0.005054493958128337 0.003783274401513455 0.0058804245410830226 0.00010769341587204326
 -0.010983741752427506 0.46370384681700605 -0.7631328715594753 -0.06576571402375532 -2.0831026026312874e-05 -0.0036863117960975224 0.005351285888304804 -0.005446127886263672
 -0.0007192558344284783 0.004299002188812713 -0.01090932002193735 0.0010691875973554744 -0.31389006664293867 0.7704399577288835 0.17317248720093664 0.11657857687726225
 0.0016267590076299615 0.0024370276730884158 0.005130018700362889 -0.006571725832884833 0.15194130778398574 0.10783740244898087 -0.44246131244770004 0.7578496568369034
54882160000.0 -0.805259950261378 -0.05808905586347516 -0.014588455860553967 0.4806002158182007 0.002292382081144315 0.0016885433133074902 0.0022678945849393846 0.0020307351857272496
 -0.017280292156320567 0.4737066508073 -0.8027140545904998 -0.07721621753436218 0.0053924905453595256 -0.0043785854258293665 0.0011429879423845812 0.0019003959274429727
 0.00759085948161633 -0.01120357215031562 -0.008956214966010295 0.01649206964689406 -0.26907809158714074 0.7475937497687372 0.19180292872986954 0.09578632989600167
 -0.0016148194165492102 0.009661682426316497 0.0016028802801211408 0.008492623354167068 0.15498686356294128 0.10896102643273774 -0.3204714880301879 0.7450748587137391
54952150000.0 -0.7741026297218558 -0.07319332665161474 -0.017792943399302916 0.45501252742174664 -0.0014374312013874964 0.000235483701901116 -0.00026473717127593405 0.00469977507534743
 -0.009180285582248758 0.4521003909736211 -0.7713002100154243 -0.08692822725834462 0.0006422130678264054 7.022246136493326e-05 -0.00867526695880491 0.0006626212927042798
 -0.0026794676790751404 -0.001614177636392783 0.012035710589371102 -0.020142520289941415 -0.3385926990790483 0.7285064212899194 0.14696861661927224 0.12791796205952768
 -0.0019186186072742285 0.002451034268036238 0.005792036435085341 0.0030490017279742663 0.13272409008134128 0.14157969075073687 -0.3234936801589221 0.7765781880948226
55022140000.0 -0.7662680811323982 -0.07047083654128714 -0.0399718688768264 0.47708976639709894 0.002182787878416158 0.005609849812000337 -0.006709613932368116 0.0035533823878567115
 -0.03310416539736233 0.4808303207671882 -0.7840750396784841 -0.08666519271883859 -0.0056177517823459925 -0.0027906807160730804 -0.004206322716174504 0.004340815714949235
 0.0038235329066121804 -0.005766281112897612 0.006615560090583866 0.008653547747614983 -0.2767690407857663 0.7181032374476006 0.17071171912687416 0.1142356751683114
 -0.0009525145585271957 -0.012309906176044173 -0.01639150227458216 0.00945883262123437 0.17255989562694413 0.0749506518738814 -0.3136343427723311 0.7240241492191083
55092130000.0 -0.7859540732933838 -0.06247017383270583 -0.024998976069576698 0.4716581957803743 0.003255430469475632 -0.004749213880606309 -0.0009023833513029661 -0.003966119446389636
 -0.02039244830961594 0.44772809592003804 -0.7777434938378812 -0.08694378044133527 0.0029876624743662783 0.0071697819065350285 0.0005131612917911138 0.0008796358325918497
 -0.00365532237819607 -0.005875469211108882 0.0033720774391503843 0.011453756592381436 -0.2955606152006428 0.6935089837538972 0.1945334449002051 0.13125305001225476
 -0.005558138261952189 -0.0027332683937994822 -0.03188828141987211 0.014334975187082601 0.22547212628750463 0.1259677537050586 -0.317289555710022 0.7676754554458057
55162120000.0 -0.7524071114421262 -0.06218568888469514 -0.036635329933881654 0.4601796776865824 -0.0033845455144658524 -0.0012255558522810076 -0.0026179202197408537 -0.0007369242786915135
 -0.023593048627206962 0.4670791866031861 -0.7828187181717647 -0.10612785525265583 0.0033659334641139545 0.0016134580577579656 0.003787060884820867 -1.3385136057483202e-05
 0.0029710856208422227 0.008979248553598843 0.002613118590725091 -0.015636504152994096 -0.2719686410155949 0.759457833232384 0.1829240363781766 0.11382444119723038
 0.014261023392284215 0.005034196741937351 -0.0023606719518357525 0.017698987538459474 0.20722584988770462 0.07899218868251587 -0.32037516840640207 0.7673030043847119
55232110000.0 -0.7751195746036214 -0.05703275563817767 -0.031158230260168247 0.44981285986782377 0.0009062227151119197 -0.0013421520497755057 0.0006284650872020888 -0.0022550278867627138
 0.0030042330171709945 0.460615568681276 -0.7544958827337466 -0.05660105177740106 0.0005692107728450166 0.0026320813491475564 0.0014740325303718 0.0019019482732525641
 0.00888991384189076 -0.0007674851524421746 -0.01451601702419445 -0.008866318717443944 -0.2687682232813577 0.7868850232203217 0.21216747858772125 0.07872022703319631
 -0.0068998356891083875 0.004696573879915636 0.0057489956161319335 -0.0091302749354539 0.1968559560246712 0.08913746310726937 -0.34672731036600596 0.7162315261481703
55302100000.0 -0.7767818072644155 -0.07242908565058503 -0.03690726197939345 0.4516773098797241 -0.005640483627896258 0.0007597765502657785 -0.0015881454244551162 -0.0011437009490813067
 -0.004713513477891915 0.4587621488949995 -0.7259447944013397 -0.07238598488335653 -0.0027005858681994513 -0.005485583894593338 -0.0033320415882889315 -0.0005918231470661074
 -0.0009104719064803333 0.010437183867732212 -0.028755698215134778 -0.00842673596120392 -0.23786166161965058 0.7458583805647809 0.16803363171691008 0.07732823370507409
 0.002958078666915684 0.0050433709436520195 -0.011010159445662322 0.0171954694413606 0.10697377899494274 0.09848175442501084 -0.34119958621131236 0.6673080349182141
55372090000.0 -0.8068505231656863 -0.012714460792315089 -0.011580683354713467 0.45179765887837303 -0.00483216635053049 0.002943296335973408 0.0033453783240553502 -0.006729739578683601
 0.01579276569571817 0.4776922415783799 -0.7440709004724754 -0.06850671311712697 0.006922290172502392 0.0029390593578028637 0.008823954159033311 -0.009590467049498926
 -0.007261697381238639 -0.0031284928706049662 0.016686177735892788 -0.0028440941571946424 -0.25629540507911597 0.732725610140225 0.12797678086653394 0.13355043598811056
 -0.012919568587124083 -0.004750173381977739 -0.0014617376704988384 0.014008558841948779 0.13060429150293368 0.11123144121542608 -0.32447551522501644 0.7118780004443168
55442080000.0 -0.7569750536593153 -0.08863349405825723 -0.00570073770051837 0.4575798046039231 -0.007036427824021807 -0.0010681043816264512 -0.0023488738099302366 -0.0014626481658892392
 -0.026695119747612794 0.46837131582308295 -0.7701288431921625 -0.052957212174804376 -0.0025018653118314515 -0.0030987471134659513 0.003668248117727001 -0.0030641303174143673
 0.005427257466718446 0.00822785539597412 0.033603918893467914 0.008661686833314121 -0.3335855202882178 0.7576751417973223 0.16926472511794655 0.12547076688179248
 -0.0006075001577372014 0.00475751176190934 -0.0055704805932580885 -0.00827205498298753 0.2062065069483298 0.09750190322640317 -0.26370891699915266 0.789754968022275
55512070000.0 -0.7498273584838687 -0.07116212729624445 -0.027617171492082666 0.4629568182629372 -0.0008193862316204123 0.0002658632215628243 -0.0016931474838143073 -0.004412296077562381
 -0.039137636026773545 0.4526642703275167 -0.7704810062522616 -0.037759641960060236 0.0025252861059961765 -0.0016514228354808434 0.008144614754527007 -0.0026374817559285182
 0.003928336902472762 0.004088532517133781 -0.011916850389688052 0.00712683458890572 -0.24149620922699874 0.7713654226963901 0.1761487209444697 0.10229217161316767
 -0.007108757150994614 -0.0025558628284407464 -0.017422056607222933 0.0062924619654332456 0.1367255169375566 0.09530166740039071 -0.30128825108830465 0.6879354073130582
55582060000.0 -0.7323303416377575 -0.06971824903242034 -0.016284883734761793 0.46081066955510797 -0.005131821490660183 -0.005606860684657494 0.0021855417810275487 -0.0021605794311365103
 -0.01196262737780726 0.46676842371992766 -0.7940169085170501 -0.07881256515900861 0.0015271630099010305 -0.0014644301592633916 0.0003919823310627965 -0.005809707107260443
 0.0016867176087574478 -0.00031540437638969207 0.03143451040160467 0.018382485002420634 -0.2919029099239678 0.7462858451705732 0.17104932567094336 0.08518813571511735
 -0.0007414991209268224 0.006047681842803139 0.012349216747769474 -0.014222058122054524 0.15917938379435898 0.10679280277234998 -0.30254028749554085 0.7740550202677424
55652050000.0 -0.7667347611087898 -0.04394649322884335 -0.021467792870675132 0.4751879325424306 0.0023339712758373384 0.000674060725610631 -0.004739635945251763 -0.00025951040434764295
 -0.017271448266117803 0.47254732744900124 -0.7688146822003072 -0.06772095659580513 -0.000612665865694551 0.0016163375315697373 0.0033578664057045157 0.00719597974664618
 -0.009356418106987984 0.0032308272119326675 0.0009361225755366116 -0.0018485187623891878 -0.2795415903858409 0.7671508935459093 0.1964698851520231 0.10215745040184612
 -0.0061548629477405515 0.002950171100433803 -0.003965980738666128 -0.01025345489335723 0.175738685865301 0.10468031673583328 -0.31916784586926283 0.7574747980004047
55722040000.0 -0.7721395375898549 -0.052545774375291766 -0.015556646540660352 0.47918322222846393 0.0008040882313343769 0.0034689283518558123 0.0036012299414108794 0.0018608766566301047
 -0.0019044543365599816 0.47275510380719243 -0.762482699897165 -0.08474331388231306 0.0038979551567663 0.007868435028343137 0.0004967617948345153 -0.0022363510613051547
 0.002946362224492071 -0.0017142496618777435 -0.006306615310530565 0.02219201627959365 -0.2740487904072307 0.7511068394803652 0.15415980095397974 0.09670763529016235
 -0.00021756724753778318 0.00326330691054769 0.0015072791227282191 0.01946055542457634 0.1530321041281881 0.10607011089663264 -0.32068027034154073 0.7297720337908586
55792030000.0 -0.7740918458939634 -0.03248195684151606 -0.002603556241844842 0.5066793637810731 -0.002275793695576156 0.003457327797171883 0.001019067851682097 0.0022573222939906465
 -0.005563136262399987 0.4432557704127442 -0.8109607299938856 -0.03610645573881087 0.0021388625116704517 -0.0026221812218816766 -0.0017395377709417796 0.0015871361992493877
 -0.007333826521885335 0.012866800874481997 -0.010194078856307357 0.0007737793231546007 -0.25663847712216514 0.7587638472130328 0.2075960959478093 0.06388984608761424
 -0.009415420290651153 0.0019267664357025009 0.015524842325354867 0.023510982614048104 0.18283765583910166 0.08237794388292924 -0.34060558636766736 0.8203622293345579
55862020000.0 -0.752625197175714 -0.03482019987330943 0.021169976153554308 0.4997343030017231 0.0055885191190343814 0.0033090418422792095 0.00226259753680324 0.003273036774431259
 -0.00272376526490285 0.4672269878507897 -0.8147136866887099 -0.03218108598360001 0.0012358269302377028 0.005472328001497885 0.0029940416948777064 -0.0051867981591636764
 -0.0012852388267263007 -0.0005567345351427725 0.01745720329353231 0.025843746022919223 -0.2079638563448232 0.7521052368434723 0.1573375957060766 0.12834107548310889
 -0.006605181602493691 0.005971465151064129 0.014878633177646221 0.002309396309608256 0.20962284719679986 0.0986441078630735 -0.29349227997409727 0.7370005227439675
55932010000.0 -0.749155293648483 -0.05352007124551673 -0.003611538849669502 0.4795189589257323 0.0022325375752425152 0.006535467055676191 0.0014525512921289225 0.0054847689818235046
 -0.005445187918147006 0.4510143399459954 -0.8099371111681941 -0.005097533903050407 -0.0012924352544412092 0.0007881165349172319 0.0056173235228435675 0.001543530081399895
 0.010200512090442345 0.0014177918182067006 -0.022055289078830084 -0.0049005259261475035 -0.243251616996693 0.715734199361309 0.19877565900089045 0.09438417684621087
 -0.005125360184492328 0.0031535125677914903 -0.01319034929784336 0.0008106846910421996 0.14366838340484905 0.08762202222423811 -0.27479288945624963 0.7924807877857939
56002000000.0 -0.7389434618503298 -0.022388294227760466 -0.014145534020555257 0.447721292601089 -0.005298269899792188 0.00658402218471678 -0.0010036221955449516 -0.0037733471454759024
 -0.0030203720185293867 0.4573257218987815 -0.7733461078983392 -0.03546504776221652 -0.003867186122828546 -0.003939992470484195 -0.006606914797295508 0.00446770372273696
 -0.010740408663669192 -0.0015894343444806417 0.009437624766179402 -0.001535417984938321 -0.2084533969771958 0.7592588258183081 0.16910752136324955 0.08225448829638467
 -0.001162631947710593 -0.007560674420325974 -0.004035731072500439 -0.007677425610314998 0.17817840152555828 0.07012958618674321 -0.32566798662226976 0.783546325781208
56071990000.0 -0.7458470447296142 -0.039918422012138736 -0.018152702068712296 0.45891976495079584 -0.004195958078231334 -0.0007758115882998475 0.00121152940620912 -0.0030160006504292044
 -0.022660901775764516 0.4765671225607676 -0.7594013384057081 -0.03017546590010157 -0.00712341066275581 0.0023180694735366702 0.0031175838778166446 -0.004414781649572791
 -0.0030598856379878093 -0.01657309910846643 -0.017246356028725825 -0.012804164979261075 -0.21803644326632146 0.7615571633762379 0.12055937785426286 0.10704872513069373
 -0.0033476505083383837 0.0026775351567207154 0.015386970648469549 0.00458700253877299 0.1743126568626489 0.11245908152006819 -0.26915405625215105 0.7601224175563183
56141980000.0 -0.7348021639854139 -0.06875541926473283 -0.02605404711554132 0.48453987248264546 0.0015929152965372232 0.0017054214710358819 -0.00027435020711701465 0.0005964033556819334
 -0.012348921172028408 0.4573557033314515 -0.8140003074795841 -0.026280683284897 0.00261944899551166 -0.0006508031416369883 -0.00405190923385113 -0.0039948046994997145
 -0.010251265932584505 0.0068913700339763555 0.017334604018021706 0.013287648895875573 -0.2135347145331446 0.7060317583212687 0.14772225723266297 0.10207652521214329
 0.005281220340961383 6.67757099935144e-05 0.003246617774451821 0.020017352637397567 0.17502568163592208 0.11015808803914608 -0.22083967268102034 0.8390457400829442
56211970000.0 -0.7856651795865262 -0.024458555922072103 0.024028949086213666 0.44149711306422196 0.0013032781059286592 -0.0016038217510897228 0.0008627080668084817 0.00021391608728348345
 0.020134260734968063 0.4715427394528918 -0.7812855562225605 0.023834946008195988 -0.0038846815202347746 0.00786866307332791 0.006029120033136782 -0.006785976844007542
 0.002387696053988925 -0.0008130012675563619 -0.017969598920197703 0.0037764061048240613 -0.23002466975360153 0.7070528550682745 0.16882241330705355 0.08478378563975494
 0.0021858314543191796 -0.004657004992060272 0.010123088815840512 0.02648599955618826 0.19377942229685374 0.06365076290068115 -0.17398059017381598 0.753652740494109
56281960000.0 -0.7453006546892548 -0.020712686107204618 0.008995117885558599 0.4805002456208108 -0.008430686981889042 -9.407258119043611e-05 -0.0008774877195033205 0.0031366564175048586
 0.0060274748132948305 0.44687025496491023 -0.7742112860413688 -0.034447241110487956 0.0036612022261513755 -0.0021839455557218536 0.002348848997810998 -0.0020959992644004866
 -0.010689515593562503 -0.005867867620457157 -0.0018806733281791588 0.05053438177780275 -0.20406826689378924 0.8094634065174509 0.20673537421864316 0.09136367077844498
 0.00170959804164411 -0.0041172743298029495 -0.026863077288869327 0.028674894936811832 0.18901780229187645 0.04046852793535375 -0.3115473018516894 0.7982664153608838
56351950000.0 -0.7512773254216785 -0.00915150089682062 0.0024846160626805303 0.4698395560786567 -0.0009688791438746453 0.005205342592510897 -0.0003554951480169615 0.0019202872146022168
 -0.007193655098295677 0.469021362498921 -0.7832233147712228 -0.023022512759351327 -0.0038866998943525286 -1.863461237158113e-05 -0.0025262231041876205 -0.0021418093868943626
 -0.011228485606080888 0.005472593138905528 0.019515841535588354 -0.0002449896336665365 -0.2086714964231831 0.7393104661700511 0.1722229072341442 0.0897968087726997
 -0.005869983997995137 -0.009282203917980127 0.021573866330575047 -0.003259821550024069 0.16504006852758746 0.055743383923488966 -0.25152326596421726 0.7954202382192793
56421940000.0 -0.7269475788809323 -0.02756311428508802 -0.022198526421933065 0.4650758062725692 0.004015874172828563 0.00281151085841382 0.005216060021940929 0.0024999590330359177
 -0.012258107018109018 0.43071295791936703 -0.7483833936116803 -0.038511255179397276 -0.0053698731515480075 0.00015907394054743394 -0.007836271461171754 -0.0028417036820158528
 -0.0011084753082041016 0.011549882264259697 0.009347492660806525 0.0022613688399428108 -0.23466445100749722 0.7568763608609089 0.12562187977494785 0.04982570513050792
 0.0013238037584326501 -0.004598843742730118 -0.0012998399356759743 0.023329042782353974 0.13940524564736484 0.041972536103690436 -0.28700839267006245 0.6888968464251974
56491930000.0 -0.7531255302571108 -0.01970024042898705 -0.0023200684569120622 0.47667042375363855 -0.0029479634264990033 -0.005137366443594521 0.0019419722535322609 0.00220788565645003
 0.0033255059078451167 0.47569368694816194 -0.7784201733734568 -0.0073611114957391815 -0.0028643645504906317 -0.00837012831455208 -0.00256031225443692 0.0044781295992159355
 -0.0067655892516618405 -0.000647579120728168 0.005657183501053957 -0.0038994666263935667 -0.25258293555285644 0.7314963768967547 0.11907958942102341 0.10446621859071524
 0.0073755567666454825 -0.008663997806113459 0.022821193568948333 0.03011876215146553 0.19353643530288278 0.06982808423521354 -0.29632801456402125 0.8112281242048616
56561920000.0 -0.7810662280380747 -0.05770194234377556 0.0006674122080002395 0.4996064798374943 -0.00604776306331508 0.0009855800531111843 0.006336238406030412 -0.002598521854901135
 0.03444430720698639 0.45940615087598946 -0.8127866099732949 -0.025143839627927968 -0.0018460859970776604 0.0026495037094228006 -0.0011212687511251013 0.0008008241575618217
 -0.008251674434524285 0.0032946554714174355 0.0073598285202175874 -0.008312280857275789 -0.20043693267988275 0.7534667197739842 0.17313763667773638 0.06396885710738548
 -0.009615306922349246 -0.0021575940854589707 0.03125422756439694 0.002944026922944317 0.12996437177368028 0.04760550554700319 -0.35289170559411226 0.8378337955092698
56631910000.0 -0.7967274264787911 0.010235023355808393 0.03265174233646953 0.47316586615277706 -0.004026740655404958 -0.0034223861842369386 -0.0010633590139497902 0.0006914456085481222
 0.02145582988461643 0.4406524536159766 -0.7721377855808754 0.03088267628727371 -0.00020834665066412782 -0.0038463766467692266 -4.56345382513941e-05 0.0029952846564380445
 -0.005360339203024198 -0.006980002398319501 -0.02595703281119353 0.005638053965658772 -0.24887154364676675 0.7560797453927788 0.15422375737232702 0.1099325554082807
 -0.012031656744062008 -0.005813351156330594 -0.0015419679218971996 0.013381760377316273 0.14065083801126577 0.05858450842334358 -0.2401539257869023 0.7737653606478254
56701900000.0 -0.747514596506329 -0.028048972181128833 0.008448619464476888 0.4708028506913085 0.0010565741396143895 -0.0006498201457879416 0.0006751652463106658 -0.00027263575214924097
 -0.011025156897261662 0.452696242650064 -0.7562607543057027 0.003550621692859288 -0.002545870628742522 -0.005687236887427713 0.0071594662458780885 0.002214987230125096
 0.007262397392280816 -0.0023738758923558677 0.0206352465227481 0.006181866174920233 -0.17771712892158112 0.7823323065857452 0.16892407206527066 0.05955417409762781
 -0.0005750553278362019 -0.0006235569751030782 0.009865916877987978 0.011283189343258337 0.1945446992343606 0.08975868191407436 -0.18790013500635527 0.7430758064248297
56771890000.0 -0.7803155415406922 -0.004250555474173017 0.02943349069134051 0.44729548865777946 0.00015909533007540187 -0.0018362807206621812 -0.000522067528228084 0.002789535459646152
 0.034909155645987164 0.45791099310767647 -0.8581263296047855 0.04419758913503562 -0.002651943470848268 -0.0016079661710878244 0.005426861899718905 -0.0002300109058120413
 0.015684552138077408 0.004837807624661294 -0.003765047988026717 -0.024875721419497163 -0.21673580108406407 0.8440384769010664 0.1380524395561358 0.06344740811689555
 0.0004429480018542213 0.006721893349079924 0.007647031358191869 -0.014686080480207342 0.1452103658865156 0.056722655187308055 -0.30816712901597626 0.8169892829955621
56841880000.0 -0.7488449803583225 -0.007669632956386448 0.009123605472231988 0.4488266541080741 -0.0017006444534145946 -0.0012876063102353957 -0.004124062323264397 -0.0013232023524549208
 0.01254517635787522 0.4257557274807789 -0.7464799917423411 -0.0031138376041559266 -0.0009959604432729576 0.00028060843489572686 0.006865155196661542 -0.0014727430831961918
 0.0019452654071945694 -0.0026917132013103535 0.0035655314245705808 0.014887731965466283 -0.13731080137384788 0.767970083172755 0.16449477670192372 0.06159325996070794
 -0.0028844735119432376 -0.0027069677303489833 -0.017312505662487744 -0.03208731054838267 0.13171144770257268 0.06797182808170475 -0.24321987127414177 0.6935605294725925
56911870000.0 -0.7730675240116993 0.01429836112020337 -0.0020788174181923546 0.46910864432040156 0.0036444387697844053 0.0012407490746513088 -0.0011181596484169877 -0.0021831960006845953
 0.022140714866371564 0.4666591564600189 -0.7528546947674293 -0.008935478924546726 0.0011516251949707876 0.007298683929536782 -0.003536920963518854 -0.002155126228611599
 0.00031247976858055966 0.00877712828311556 0.007375296080223495 0.016030400528567565 -0.16606859041972366 0.7445289050443399 0.16905967486149737 0.08221428611863131
 -0.004249981973887479 0.0009950871291921082 0.0036014749000185336 0.011864599200287694 0.12559577369379407 0.06571021671103229 -0.2886975369008708 0.7756378221039758
56981860000.0 -0.7461078014794402 -0.013808842954758222 0.012190818202947517 0.48157595245370555 -0.005196506792612141 -0.005434243754762114 -0.003997147010363625 0.0018935839430393889
 0.007790442453457662 0.488386335729887 -0.8128502618604496 0.00039014014832569887 0.0015247204607312242 0.002230544938305752 0.01000268388150033 -7.265481283468049e-05
 -0.00563887789049892 0.0008054934927334316 -0.00021164074776348178 -0.01191900618478799 -0.21444325779226764 0.7781387781133465 0.12496466630134631 0.14106791067655625
 0.0006938795799986351 0.01437643616346529 0.0029136957505992924 -0.0028696063346544285 0.17558405099729668 0.06775038053311593 -0.22675339195995659 0.7604012929187141
57051850000.0 -0.7611212616813801 -0.0090349217167081 -0.0038159914305617086 0.4767663983023039 -0.004138015237529191 -0.0025091025304344265 -0.002248784884085333 -0.0011461839408504761
 0.040697024718752965 0.4439271472464866 -0.8099850135382126 -0.01940661477342399 0.00964951996212099 -0.003287140971470971 0.0049524616025297865 0.001069062865098875
 -0.0005084733185471153 -0.005839095370497764 -0.019198819147426674 -0.0007197592754038919 -0.15329267341641145 0.773844318255753 0.1060035545693971 0.04757954555305605
 0.0026420100614976284 -0.000558079512656105 0.007562389057114748 0.023347244367826103 0.1971458382343429 0.12537035058868354 -0.14803096574128272 0.8101483946572383
57121840000.0 -0.7398036774505979 0.026321901347493244 0.0020989816681535136 0.48383503546500806 0.0006486070044629951 -0.0019263268570492214 -0.0024813160289164212 0.00016394758439821963
 0.026041534445163682 0.43832630493884295 -0.762607701290306 0.03286278188841436 -0.004397837030792212 0.002998066858844819 0.00013925246071034634 0.0016119945768886764
 0.0021690184287647897 -0.003256071821369885 -0.015362302635689948 -0.004397496983626395 -0.14796827466987025 0.7676523474077027 0.13885093725573547 0.05398222742173187
 -0.008594390271338006 0.0007207696687221413 -0.007362316145834308 0.0035524744939007587 0.20107081290555015 0.12354377740031162 -0.15452748086582263 0.7690584163163512
57191830000.0 -0.7804369190147337 -0.007045072808885795 0.037363580901842074 0.4523957611962178 0.005013820241461227 -0.0009857354680475085 -0.00201303493467926 0.00027927438362011255
 0.03683158265454985 0.4610812851446251 -0.764747831826998 0.00429389328299997 0.001687195533351232 0.004719812670486709 0.0015703081458144504 0.006826365617196354
 -0.0008705465240573379 0.005322331364843731 0.008151591107748891 -0.010417859628670043 -0.24521188502508906 0.8544518751117859 0.11222838292247413 0.06009890540910101
 0.0068165005196867854 -0.005012872184459637 0.01910456890653339 0.016744768427399196 0.17695740525048764 0.05297239809254299 -0.23138655549460313 0.7707920910280107
57261820000.0 -0.7780541442710417 -0.0016526406057203549 0.02546156098316966 0.46331294237501036 0.002339696162695964 -0.0037782389703469206 -0.0017888794638858344 -0.004430459198725171
 0.022904858368320707 0.437647020305337 -0.7661122842182335 0.012896385662483845 0.0014560782564492834 0.0037975038677766017 0.0020115550084631255 -0.0036562639889620584
 -0.0011242298374447254 -0.008388195703944045 -0.008252138143049535 -0.003886222881625731 -0.15888833983745568 0.7775222070061445 0.2150362936510684 0.0722242174251242
 0.0008400785856120392 -0.01842192032515933 0.006514262153476332 0.013883058233285431 0.16898067130724653 0.081093573926402 -0.2435313937240056 0.8319391532842821
57331810000.0 -0.7861207255662889 0.017764073999987525 0.004132278346628029 0.493088756821176 -0.0010212675136948859 0.0011058072521169828 0.0017435278519804388 0.0022393964606364385
 0.0013054706641569011 0.4850699010697794 -0.79131285640059 -0.03484835697555798 0.008635477488720324 0.003705320780617304 -0.00277642604082563 -0.0036156818215994546
 -0.0017723371656743821 0.009866142018992838 0.01733261448055437 0.00363098426606181 -0.14431062022259933 0.7306421562536061 0.13127719436330484 0.07925635548102786
 -0.0009382720828662436 0.00499788359530833 0.014821680853391165 0.0023907627446783427 0.18525791866691269 0.06617986113194982 -0.20641038797344186 0.8596223409491667
57401800000.0 -0.768490101663571 0.065147889202707 -0.004633723667614908 0.4673851477861207 -0.0021070982019374706 -0.005848878599644407 0.0014211943341844939 -0.00591778026394276
 0.055266681458114815 0.4894957044570145 -0.8170225399061275 0.04752557329923435 -0.003950504939241784 0.0017887123939423649 -0.00674338961355026 -0.0007511490822780953
 0.002662210314004886 -0.010490029061105717 -0.0027907044369631998 -0.010249789488255218 -0.14014776126381476 0.8288241309126196 0.12726837156685483 0.05814419132700036
 -0.014901234793063337 0.018788146591127628 -0.012540231164421888 -0.012417132947549703 0.15021094197188237 0.013447603940781658 -0.2651062222177689 0.8333683930054621
57471790000.0 -0.7330944509652629 0.010491264390008965 0.03771224257510954 0.450178235640503 -0.004668240069929982 0.003504567884993852 0.0007175778236036776 -0.001952817997015443
 0.051705881773335204 0.46745885472441295 -0.7554432043094599 0.03822944550238646 0.0038998891524535837 -0.0016636375758609222 0.00012241958892701503 -0.000857526411010007
 -0.012008871000252474 -0.004903345827816552 -0.012048533844180705 0.00016001647015549008 -0.15661433996678015 0.7235507105503314 0.19398479492664084 0.04124636498094312
 0.009767937918933366 -0.003577399643733838 0.004387370449467345 -0.023837621875087107 0.20135805405371224 0.08828473435034356 -0.0754659173402153 0.7999106187207216
57541780000.0 -0.7010010537375183 0.040619559608743964 0.003767020988649345 0.4176087423548879 -0.0016306590226100393 0.0023118549337508743 -0.0030311353796852215 0.0016146635318368763
 0.00948553216240299 0.47650753175772925 -0.793986073879801 0.029687254243882612 -0.000876444249955 -0.0012116682710016909 0.0012716846766300154 0.0035531097843995935
 -0.011503263723505732 -0.010827057235248716 0.008018422635668206 -0.0024030307521330425 -0.1801407566110191 0.7899499950152068 0.16751544828899587 0.10734254351039793
 0.005948753559836228 0.010624830005431733 0.016255788909796478 0.01861466329457634 0.13444604058761678 0.061346356044966396 -0.17313351182387657 0.7695376829033523
57611770000.0 -0.7275257338035875 0.0019376765694162868 0.06786615805353707 0.4815571809477266 -0.0025339285811086494 -0.0014984298631137186 -0.008723768168427007 0.0005875837271643988
 0.05930217291360511 0.4435679898125484 -0.7665127008549681 0.016740089631129444 0.0006709548074510097 0.0009547642188419368 0.0024632497509434795 -0.003149736067743947
 0.01826275927866037 -0.0235444874018145 -0.006403703947400093 -0.01075720573602103 -0.24161455438422771 0.7334637545065277 0.1418998540554361 0.1083960061955716
 0.0006651411195588973 0.0021268626681278883 -0.00841708189695867 -0.022855660619274177 0.1298759092410193 0.10998399444363859 -0.12284201567851667 0.7892891126658028
57681760000.0 -0.808733181486181 0.05158976448312544 0.08592419735701626 0.46310340939200684 0.005827703182516256 0.002981687130909378 -0.0018261969454201367 -0.005319762285552836
 0.09702683978896312 0.4643412844702965 -0.7688786618144536 0.07588647239764604 0.002513948984656992 0.006665710095081369 -0.004384907175610296 0.002703830556535621
 0.005479013803460297 0.004316570124857229 0.007802876037103403 0.008923468233316379 -0.12851494100516203 0.7752050529191354 0.2082804670440574 0.018076239802369026
 -0.016515906937770233 -0.010960764684819395 -0.015060083822436756 0.024472064211957013 0.11471357220080562 0.05254814209055478 -0.12315989848951998 0.8118859979339124
57751750000.0 -0.7871698390811306 -0.00196601283984048 0.05808791958966682 0.4951202391051071 0.0034980573131499523 -0.001750700965119273 0.0025666729917208477 -0.0013941106417652283
 0.03529632513627164 0.49323842356999786 -0.8155831006106472 0.027867970737649288 -0.006325009542024451 -0.008950775246929372 0.0026875611576659985 0.0004887818825872095
 0.00992721523846089 -0.0005306430122684221 0.045647446485530346 0.005805284084666234 -0.19471307682083402 0.8185111820288815 0.08944410663047482 0.027169348661617392
 0.0036006384528955468 -0.0105829509492569 0.020874393014384617 0.01854893239223193 0.16835907457403998 0.05925665287571717 -0.1748146349209099 0.7851132261921416
57821740000.0 -0.7469125414951965 0.015011766879253893 0.08135146696401215 0.48010424904176363 0.0022772295784252417 0.0004970830206460962 -0.00573045464462649 0.002211451218037065
 0.03127620915478034 0.4729542829478304 -0.8853955942262298 0.12375039860257028 0.005795001729781569 -0.0026709621478144896 0.003682467322892037 0.002388804247269955
 -0.0051984922873943564 0.005579618525375878 -0.02555735295495624 0.009220718002621829 -0.055545463601799794 0.7175601473136934 0.10428558764163666 0.041635988740469546
 0.01802527520780051 0.009185719497831491 0.05546483413942784 0.05553157250483955 0.17008411070803015 -0.02730806860680785 -0.11096744525035629 0.8259927534522694
57891730000.0 -0.7425531303816068 0.053625499091446975 0.008446365388643717 0.42769603901037073 -0.0020028371699595195 -0.005561114675801072 0.0038375762861620017 0.0008811007628771798
 0.010730604723889432 0.42621585772060516 -0.7021401472199843 -0.03941922720152387 0.0022507219339140765 -0.006541793017681221 0.003335686158196066 0.003120721042676905
 -0.011195653623740849 -0.004045677165562821 0.013065463961878273 0.010411726041295002 -0.08448199098855502 0.7974989270908894 0.18041117388086308 0.09233274379090373
 0.0018013597300200906 0.008555190682543373 0.012022737966342657 -0.0058483973034140395 0.19876984769796624 0.03301914676806412 -0.2262558258597614 0.8058484930207841
57961720000.0 -0.8030674558178114 0.013240874982297408 0.031224460833741915 0.4966263998823471 -0.002713276060360676 0.0034632314352750315 0.004738887795479926 0.003573441396428304
 0.05059788793959467 0.512498349901898 -0.7789779889065755 -0.01216644897334573 -0.003548551257202109 -0.007070381688936026 0.003067862321137335 0.0033294949980660557
 0.015084361627424357 -0.019226318157199145 -0.015726175152248747 -0.009035137557744002 -0.16476101494089232 0.8113337709706919 0.181664135676853 0.0727133265670984
 0.008680544395659169 0.011265537677954006 0.018701549835732984 -0.0003784412410827173 0.1273638752879551 0.06961698981147665 -0.08529758226675196 0.7983091233441078
58031710000.0 -0.6968541021737821 0.021886130565174557 0.05917779684362262 0.4713026622157679 -0.001396586899409958 0.001415235887782184 -0.005569031121325372 0.0064262092383235965
 0.04982256446893492 0.4712126539988078 -0.7477304350178186 0.14600239342723842 0.004065088813751173 -0.006998096076889005 -0.003978157561303811 0.002033553736409635
 -0.0006223974610066666 -0.0065331340676960436 -0.0032880206821959868 0.009389060671225512 -0.18415124325108176 0.7697968570618993 0.1428127153215334 0.10687558556620305
 0.0031068859917097714 -0.0034485838840311294 -0.01977898385859277 0.022080837193933965 0.18118551557559762 0.03159101782121376 -0.09176868142396076 0.6745167325735212
58101700000.0 -0.7869897867699233 0.06250826440532738 0.06353998714130824 0.5049367101548937 0.005019176831977185 -0.0003516044509332995 -0.003420929576206508 0.002606606715293484
 0.06535523557552675 0.4657810754868317 -0.8293596617955274 0.03802943389351627 0.0008879136186759685 -0.002794421051989535 -0.00182529033838773 0.0005586987398598411
 0.0034899858493905264 -0.0004217913866263032 -0.005477544163488471 -0.009193553758358205 -0.17938393676532344 0.7950058453076305 0.1675702767058484 0.08834193539683648
 0.007829558691659482 -0.00779286095675184 -0.02158456396083867 0.0012479977238408746 0.12387588154968786 0.10202490273840921 -0.05870547775170249 0.9036933808518426
58171690000.0 -0.6971522182588011 0.09579921321168132 0.018667040802495982 0.4538715855867137 0.002175338261381344 0.0014929693244852868 -0.004443484898074852 -0.0031257729281516495
 0.04569461718524266 0.4326428442851825 -0.7726787258947453 0.02881089234117517 0.004106852561448098 -0.005137771805348225 0.0024335443210978325 0.004431324292970782
 0.007321006142654138 0.00797936019108662 0.0058341753926179135 0.012734246770662526 -0.009550852694648499 0.8460639299968471 0.12411012947257509 0.08258452352562831
 0.013726408507360585 0.0019256448434644055 0.019377399938642667 -0.01973275816135828 0.15679947733269747 0.027221256103993247 -0.1385325811263952 0.7458202640747379
58241680000.0 -0.6961957240768318 0.023742350576729326 0.030970611740775228 0.49966536877082085 -0.006263457349367388 0.005571464171712205 -0.007762792007136367 0.0008065475473245721
 0.05761988656815645 0.49594104213418266 -0.8015314617190367 0.023927515829365666 -0.007452581838695395 0.007223567717683328 0.004593990377688591 -0.008740404177256241
 -0.003257765041138787 -0.025643804419021105 0.004054671205880454 -0.018927276303745588 -0.04660977277429541 0.842992530683274 0.10478896357876746 -0.06690463479005936
 -0.021792819652506103 -0.0017677268097773795 0.009546353237865663 0.002784372063317509 0.14057354176992345 0.010974300196008032 -0.10838793990816963 0.811056704827882
58311670000.0 -0.8161948199218093 0.03563440819069587 0.079123519875523 0.48042884033127936 0.0057993933290286835 0.004833690340918329 -0.00029625341421283055 -0.0029310715088562453
 0.06786416517541653 0.4476934293274354 -0.7783281766752057 0.14825583150353416 0.011185773293378613 -0.002625700407764754 0.0030947039715598893 0.000642026512663852
 -0.015082545346018729 -0.00843304651440714 -0.023250459703926637 -0.0005001408557298181 -0.007570894975920715 0.8294007187128397 0.17526328311983366 0.08020098732302189
 -0.017252908402466814 -0.01908278679253089 -0.01670525534666649 -0.011571236109405109 0.10059773264200718 0.05093968294704381 -0.11141346301998188 0.7191019168955504
58381660000.0 -0.6877410429690418 0.05285962496718446 0.08272216417885758 0.4790468357969488 0.005200895470046045 -0.0016791167373747754 -0.0034154933123317762 -0.00489858162792909
 0.03217577898533358 0.4544605502113423 -0.7645848785932583 0.10862730290981498 0.010288982739712627 0.0034594728830181845 -0.005058608217265075 0.004921016838728468
 0.024609181196412575 -0.015496832587689531 0.028703234148637007 -0.02927168111102717 -0.13556277451850254 0.7749212544982828 0.19397652389714048 0.05835922550434701
 0.009076860194356778 -4.7127705417866154e-05 -0.005913104781724476 -0.0009318048928966806 0.0830410401356867 0.11047646404949675 -0.12024509602280842 0.8971694724452687
58451650000.0 -0.7650790279768083 0.06328544331034822 0.053177124954602424 0.4580182647639335 -0.0030886261047806786 0.003553784392364944 -0.0010720318843617745 -0.004204583529156544
 0.06288436124818311 0.4962019797611477 -0.7097449085684736 0.09563712071969535 0.0027413386999878865 0.010103196320498477 -0.012575039616763345 0.00594443566135608
 0.01984185966545126 0.0023538398176167754 -0.0034717126293404 -0.021871499700613663 -0.06382100947190561 0.8045849527394897 0.1081448509401106 0.10723701741932166
 0.004958967883504888 0.00471688173933835 0.036935477994428874 0.039577778181423114 0.13490515523523755 0.03779917517364304 -0.09472249675829093 0.757268415878101
58521640000.0 -0.7820119132060745 0.03818519756949058 0.05152012005073078 0.4883004651993452 0.0012023685349934993 -0.00816470738960437 -0.00012512719006109465 0.0015844680291454466
 0.07985008441286233 0.45502120869343055 -0.8330424567001604 0.07487613901860722 -0.008061469859207441 0.00396869250552269 -0.005339618392648007 0.009468798193980802
 0.018227042217267866 -0.0006825627007576121 -0.003424795115735625 0.03679179955452404 -0.1061839752012249 0.8967710980219541 0.13393174630688032 0.07929389891557928
 -0.008784155862443955 0.00616170563569195 -0.0161993726062649 0.001777667854323959 0.1345513098678113 0.022510957597789715 -0.2204033074933662 0.87609025264675
58591630000.0 -0.7805459982612152 0.1155449911943562 0.09608607660499957 0.44438191079489525 -0.005291609947319085 -0.005421207909352678 0.0004688760712649471 0.004792993349813158
 0.051512889406093575 0.48974485982585575 -0.7720541083627912 0.23209741952793622 -0.002670236232704779 -0.006530764306318017 0.0113719476274748 -0.0007029527946470186
 0.007771078782902549 0.014626541669344477 -0.016678948744377784 0.01856766255726535 -0.0813913856817291 0.8095799311615939 0.2346387638520728 0.10721520902090598
 0.015935112797251804 0.01751301293612274 0.04478075863268034 -0.012881556541027921 0.13932902307188355 0.12550297414243788 -0.06939659669951638 0.8320680693158451
58661620000.0 -0.7655225912151634 0.013803294713029025 0.073431839504037 0.47140332925231426 -0.003515992475976263 -0.005642749264807933 0.00622551491317089 0.0005563350322490629
 0.05017815507555459 0.4551730176973076 -0.6994792402482417 0.10782387418529527 0.0045208128612446346 -0.0008758373595263233 0.002889519849943594 0.0007094785462501865
 -0.00500570712000759 -0.022726217792730437 0.004884072752197088 -0.011777285422953806 -0.10401626416867667 0.7567849966201401 0.21628450809731048 0.0047811466363901975
 0.03096805956142954 -0.019870739263616342 0.030272820607969837 -0.0037189491477084557 0.11454281500359724 0.1195421263561353 -0.1948787578209915 1.0008854327976757
58731610000.0 -0.7539326700729795 0.041973186125219025 0.05372857472377442 0.4764291390116008 -0.004229771397087857 0.0017013262902218905 -0.006266949744420919 0.0011042090538844515
 0.05593362758770282 0.44557560790684103 -0.7355731347627688 0.07575589035446233 -0.006520539545645762 0.0013738911441892457 -0.0007643468518358707 -0.012203426781618986
 0.014292298281091258 -0.016324443059838756 -0.0451293936009841 -0.014905374501021335 -0.04129926740558811 0.8064814868538842 0.14943522794679232 -0.021298796838291216
 -0.025693405124772938 0.0022887813209612976 0.017406768430208157 -0.008930522779167236 0.13618832505217301 0.01407053290232005 -0.22343858614762793 0.6837122361100737
58801600000.0 -0.7859578790944693 0.043775368156197626 0.06852244443490332 0.43724963990571325 -0.0017819710044102725 -0.0053840214217238044 0.001876486642715824 -0.000580012008528471
 0.06383415537282505 0.47631872297186767 -0.7409611242745568 0.09701923043350055 0.0009411717580236146 0.001464708383751089 0.006478002464267303 -0.01311948394895047
 0.010888216167944803 0.0034901123711553756 0.008397252816195322 -0.025564628295314026 -0.15334170562413205 0.856551245083061 0.15085775439403262 0.019284818863933195
 0.0022664118961550324 -0.021572342179867168 -0.029752034088128817 -0.06545464111816712 0.16010296042561176 0.018396207998119446 -0.1426339731458914 0.7343013437196249
58871590000.0 -0.7097953786070327 0.07372460212279552 0.044705026083891604 0.4688238159936547 0.0038554736086327227 0.0029542341281222043 0.013421808667390522 0.0021919131579893106
 0.07122664749467586 0.43415646904323785 -0.7764526587666764 0.03966762838011364 0.006687446856606005 -0.0013117158263910677 -0.012140577933214988 0.007898440492586615
 -0.0017829724354041505 0.01226166572509383 0.016253501969974563 -0.04522678541413784 -0.0724483568655368 0.831026877617142 0.15798442390356865 0.02810305058266417
 -0.016718658872957363 -0.02608883691422036 -0.026499006432285258 0.00023384349668637298 0.18357083005581973 0.04409815999162826 -0.15506315129551312 0.8074094226395807
58941580000.0 -0.7966050815915675 0.03386259524356297 0.10351539546513844 0.4993144785625808 -0.011286530031708713 0.00017809112574315437 0.004885408260088523 -0.008118432169393574
 0.08012055324335828 0.45316652047788625 -0.7958399180113866 0.07595081121814216 0.0027448105001074306 -0.008804036422348945 -0.005206721312919049 -0.004984717050031066
 0.002600127377730296 -0.011437360801128421 0.050426195930468085 0.030148205942300187 -0.17051787490416215 0.7613549472132453 0.15613651757113092 0.1425698838959789
 -0.018621638272808372 -0.005653745908446501 0.02019396689389405 0.018594636669513775 0.20898211423856705 -0.017954248362241864 -0.15371278011340483 0.8220075967649654
59011570000.0 -0.7527443236006064 0.07921092700843786 0.0734069596632234 0.4751652535298117 0.00015552141752698729 0.004629057065365711 0.0035062859758203868 0.0008352957443851048
 0.0524072223495432 0.46396035252543255 -0.8151070190379748 0.10426000978857483 -0.0002190516719532046 0.0030350109936283713 0.0023491908748117596 -0.006689538588426987
 -0.012896549582819144 -0.00503126645653989 0.046063487091314526 -0.04448167179001956 -0.08228870307542424 0.7636318486432755 0.1651920374091334 0.01453158350824374
 -0.005269612139892025 -0.0013565166585597312 -0.02529671745390019 -0.006678013383475639 0.17412955195083754 -0.03329863650320676 -0.12008429887458956 0.8281866350995781
59081560000.0 -0.7638513315553754 0.11302461783185949 0.07572309826750466 0.47837565514870745 -0.007370037495130323 -0.004240184945095745 0.00018478972762600774 0.0032355929249830283
 0.11091791572507913 0.46827640185645003 -0.7891521023097628 0.07837281214023567 -0.0012326608125640512 0.011545339293872265 0.0021113724756961663 -0.0038529877639621878
 -0.0063152049267165096 0.008729212399333733 0.01846872802361444 -0.0142058098346895 -0.023579589022077886 0.8355309202462051 0.07260762554305315 0.02086207982334556
 -0.006917162626021376 0.007114465546305304 -0.010014529942305788 -0.027448791545380626 0.04811687749944865 0.042108265734326196 -0.0983875193855878 0.706942422788244
59151550000.0 -0.7862161050789688 0.127836367797424 0.06417618680045074 0.47112508223340355 0.0010759272501263302 -0.003782877348781196 -0.005673487195079383 0.007809286467660159
 0.07153018564645214 0.44764592524691427 -0.8174904990420433 0.01387401177623749 0.009526947338227464 0.006192400449663141 0.004805325919662922 0.00849654702296084
 -0.022821058831147 -0.0046673916185839045 0.013777927107107844 -0.023612160965416497 -0.07202397548841845 0.8600255731136688 0.09800705405384073 0.015487835678962999
 0.013636706683824946 0.001335254721396715 -0.025213802310051027 0.03666382346585023 0.09262286886350381 0.0906522008869579 -0.1730492201331436 0.9038642143522503
59221540000.0 -0.7880257620758695 0.14134099256107263 0.03590059290624191 0.4734801474388012 0.004576809858051867 -0.001113523678692838 -0.00336286718538372 -0.006299360662533985
 0.08196754377138539 0.4984792617710613 -0.7413508224020795 0.09004810174130647 0.008340154647171227 0.002671315843936512 0.013144882262074055 0.0030628208175845304
 -0.014078009203661883 -0.005043872903594732 0.014392016772059223 -0.005535275432380157 -0.013749037767878041 0.766670627375197 0.0791709190152835 -0.0010447978730730564
 0.011517456370757387 0.007919854955835219 0.025621870050662285 0.024053149907604158 0.09838628208985199 0.06937768539817314 -0.04817584133710937 0.6165633321296369
59291530000.0 -0.7327231834853511 0.11263419246155269 0.044945310394288875 0.4985098106706713 -0.002603183967699597 0.0030030789279676725 0.0012637786378748334 0.001610449746150191
 0.07050064348506317 0.4470300958235197 -0.7660190082786279 0.07577298248525823 0.00023630947629556942 -0.00793519328249149 -0.012632354772832496 0.00413823836794908
 9.577164191835707e-05 -0.0052388497401482425 0.013540151197879649 0.023319754345606247 0.05889647144118856 0.8019349364877985 0.10660949670430424 0.019905978355627272
 0.009151275374802757 -0.020844725828387436 0.03104653415868813 -0.05106852130304228 0.09912688452950387 0.07156691466782596 -0.16320994785088355 0.7039516196588271
59361520000.0 -0.7963149875436242 0.1463867720012408 0.08734390527666508 0.4507422363033519 -0.004467199060532359 0.00022572010690870024 -0.007933905992206114 0.0013502963373654968
 0.05119493782436059 0.46256101674520067 -0.8352004149611189 0.06708126025968264 -0.004248955927358506 0.007256439318339772 0.009801975697465546 -0.003998703309370431
 -0.010655423921625528 0.009023771003345744 -0.024969885009404648 0.021165590121259962 -0.0768012820382065 0.8835507927757872 0.11961916865296325 -0.017859254798131125
 0.006629912307358304 -0.017590506459752533 0.01089455118291002 0.0026047192237941804 0.09218041429035966 0.10024776509601804 -0.019803050797052982 0.8026441748839543
59431510000.0 -0.7521511556870847 0.1351558229136129 0.09394829540474312 0.47484022407206034 -0.002828183674700359 0.005804883049431924 -0.00405013552142301 -0.0039010739437314867
 0.11413337215342483 0.46501189313514135 -0.7811293159510913 0.1702137667242707 0.004631228490505772 -0.0007194247578657076 -0.003121225548009087 -0.003013153550794228
 -0.021609627984725856 0.012832337557611321 -0.007424297884775513 0.030539768774260078 -0.04778522713673449 0.8287918868353238 0.06577128836186172 0.058696375620553
 -0.008827406093001491 0.010080659910657012 -0.008693938117379963 0.010845678030596974 0.10549579359774099 0.04056395331602472 -0.06539819498831691 0.7379901646084467
59501500000.0 -0.7739725527036627 0.12144307235484683 0.06962964092749489 0.4405986960376566 -0.0024852140649296996 -0.0005234902434011547 0.0009344241116799217 0.0066737541848124965
 0.09252353775944307 0.45055029344129643 -0.777186817733272 0.08430461555327802 0.0016372733751828983 0.009616031759097468 0.001432219353224572 0.007041841442974117
 0.0042159343423461785 -0.0065979671714221835 0.006050034488856336 -0.02048616439632846 -0.08516662171546308 0.8138436515882688 0.13600409727641108 0.061472970362387316
 -0.004010624731538409 -0.002688631505909931 0.008996191979012937 0.024458771467163173 0.1326841135954175 -0.01331580416405945 0.08161065469769699 0.8470585288025879
59571490000.0 -0.7262056242488484 0.13547544491158295 0.07704388578557853 0.3976888550438149 -0.004924540411107032 0.0016140602944988147 0.00239864117264038 -0.007820745845464173
 0.06878663331709013 0.4454453060579682 -0.7987170753174438 0.14974855276523955 -0.003354434424380714 -0.002121593456229971 -0.013172384776535075 -0.005395541365156948
 0.006240046982500347 0.024149805281481914 -0.016321421008205175 -0.02727024318111498 -0.010251829570871151 0.9018290596212263 0.1336622129992966 0.054295957189396116
 -0.00017400332371464493 -0.005791033039910056 0.009086806867459904 -0.01363361146975242 0.08750124431574159 0.032329398961930114 -0.07496108313269496 0.8604412506159151
59641480000.0 -0.7597480894739315 0.13138423132755864 0.08165686404013298 0.4693487245322538 -0.007058811324026678 0.010010100328066965 -0.0007957284739433254 -0.0013248435200040683
 0.02804799727495944 0.44271154369447296 -0.8410985875921864 0.16168690377345113 0.0013468500770503228 0.0012243362174283352 0.005007720019748252 0.0008461947670012279
 0.00035855387807163917 0.0040789137161137 -0.02498735588849624 0.0031327584106788436 0.03717173391913584 0.7916337514652357 0.05721743651490262 -0.10937617910212491
 0.005331859111896995 0.0007674934093060082 -0.01373779138492289 -0.010603110555210321 0.15489899212238345 0.0482136054814163 -0.10023195091657051 0.9174989725595538
59711470000.0 -0.7625000718093474 0.10314961584560609 0.1111217621356757 0.46324366925156896 0.004493969287345563 0.0008957073805963416 0.004997654640817185 -0.0005940149693832674
 0.055353882540917033 0.46339092097119516 -0.7249021058966287 0.11519843450413952 -0.004910796088771785 -0.0008531590586867753 -0.0003455509218327188 0.007155759249911971
 -0.013367071062033721 -0.021627509649407513 -0.00560325105517891 -0.0007388759113965757 -0.07628966781610727 0.7440883025679895 0.10974974384363544 0.11087405518072019
 -0.013680774786825604 0.016515489190508534 0.03409966503308254 -0.0003344435702931617 0.14512737098934705 -0.03841571651566166 -0.029756747741922607 0.8479337856454453
59781460000.0 -0.769663326758213 0.11703551859404454 0.09689152984954089 0.4733111566935019 -0.0020490742837668934 -0.008551839784336119 0.0008848970721248601 -0.0037644223127596046
 0.059736121454751545 0.47497399422590775 -0.8167689528528675 0.10083074147259215 0.0077805623811576675 -0.0020518043603326187 -0.006470284977484179 -0.0046785269056938165
 -0.008564883298693567 -0.00011412391810623851 0.031267068274539817 -0.012814641441552223 -0.09749420037532744 0.7407657619944167 0.11804273800592899 -0.011464672751962276
 0.004288328589804922 0.0025471292971279767 0.02643853243605606 -0.004713042967683659 0.1413749918680542 0.009397722665681377 -0.012725012244257773 0.869568409444807
59851450000.0 -0.7876376583872532 0.09265995350699761 0.09577451507848347 0.5175050805379523 -0.0033682334715225224 0.0038519627583644364 0.005227936226191096 -0.004210886912577448
 0.09031430411977014 0.44215999947528445 -0.9005616491927014 0.14600110789125645 0.0006471124139355603 -0.004980434244112186 -0.0009384005109257179 0.0017692227141683716
 -0.004030165526709429 -0.01154865103211525 -0.011166379701868838 0.007512664949216863 -0.07533087099041472 0.8216913077868865 0.15847847868710715 0.02265344799090174
 0.013546327268771847 0.010862537233116353 0.032118144580675224 -0.023283344217434557 0.11078126256162223 -0.05914845529677061 -0.1362317639923525 0.9309953457544905
59921440000.0 -0.7968953097557199 0.15078093343367271 0.05275796467905813 0.4791168618645056 0.004252634168147362 0.0030048092108887806 -0.006599705088987807 -0.013070126389635976
 0.07940445238105201 0.45224904723945036 -0.7241891473047235 0.09009856026888943 -0.006028746346259494 -0.007009559158745464 -0.005415097225264556 -0.002679977757991444
 -0.0027697282090139966 0.011819745434977942 0.0027915851085513763 0.0043408443345933625 0.036496403907565714 0.906637014105404 0.0895675451931359 -0.02493150710790161
 0.0015032160325253576 0.0042510855353498165 -0.03344678325111981 -0.025236923195671612 0.21348735214106554 0.06202825400842846 -0.017221465868315917 0.7199944566342759
59991430000.0 -0.7048760565358992 0.14439413928859637 0.09074423708873945 0.43370446986703454 0.007739000285116912 -0.005689306091808405 -0.0019485648915634193 -0.002498675433525765
 0.08500790907057361 0.4539675600417309 -0.7922178866389582 0.11882892782791632 0.0016129969836198809 -0.010799029216666712 0.0005505911449104323 0.0012828509308390685
 -0.006524600139547427 -0.013764390639284297 -0.011363635350362517 -0.011626792270539248 -0.04798265895463198 0.7888476272849427 0.025951740149312817 0.013421909722373336
 0.0067909439631405714 -0.0026248909636739015 -0.04170718227201161 0.017201276234784475 0.13405650981921222 0.03771574545412375 -0.056220107037009026 0.8446086228205617
60061420000.0 -0.7519990265443157 0.15885627697884905 0.1322494300731576 0.46951514203437267 0.001822622287254112 -0.00021132789188284647 0.0006077957568700152 -0.003733825533112841
 0.08294774859381075 0.5177501561208354 -0.7604055536101071 0.21307891949155264 0.0019029994113683554 0.0007544859989624759 -0.005418999001059602 -0.0010609162767704682
 -0.010299206716763388 0.011530492698027243 0.013138963554354309 -0.0002929089151620627 0.020056066467293708 0.7973057396452202 0.10995392643401727 0.059895412575016724
 0.014027102498762694 -0.01311758522477408 -0.010267321827950761 -0.016370623362778967 0.10588426964732935 0.06375038569905027 0.0844711792864627 0.7453644065426793
60131410000.0 -0.7351255556382963 0.15619809824638964 0.09837166354146748 0.46294809995187575 0.00885057433540461 0.0015307735168278464 -0.005131253986037824 -0.006245779503003943
 0.10172813493581027 0.44442962704603367 -0.7685332231196691 0.12908688362408577 0.008697441907070707 2.9294053665246334e-05 -0.003972557527126501 0.007410310132546983
 0.013037176683311473 0.0019059211541246248 -0.0038536666616776965 0.004078273878050396 -0.037949662035256994 0.7548053744728902 0.11080539969399851 -0.02857894793331278
 0.01597574449948999 -0.0037942250488843627 -0.034871011891007664 -0.047160575890354044 0.12097262450036708 0.038714401583597825 0.07431002050554009 0.8268881010347809
60201400000.0 -0.7216723985518793 0.15610229241860432 0.06665448840733754 0.43838105861540144 0.006394599954168735 0.008022017530835287 -0.0027598389459462017 -0.005881280850846086
 0.0876433053309141 0.4751284046612255 -0.7710938038363687 0.1385582829646799 0.0035149284781678743 -0.008712026173988528 -0.003726605062673966 0.004903877897133508
 0.011285411335182167 -0.01236063171044974 -0.005367399629544273 -0.026123626070423872 -0.03464656994920939 0.8734205017395597 0.13515074310167627 -0.018204663345522114
 -0.0013587585038168262 -0.001093379936817853 -0.03769381105584235 -0.008082986086775068 0.13889548721898531 -0.010787313240598485 -0.025314215270588917 0.6846327681573023
60271390000.0 -0.7491288308611066 0.10086417657540345 0.08139087138134884 0.4652497237787354 -0.01152871345181384 0.0013576377317358636 -0.0025622117209074076 0.001841088429051949
 0.08383648883217815 0.4727675045915457 -0.790762577777831 0.11734791614832263 -0.006083568820060441 0.002274625791263613 0.0003411099963590631 0.012760079351903297
 -0.013178265133091333 -0.006338361929887664 -0.008184977816818529 0.004593326822579099 0.06247895982925086 0.858773329152132 0.18189992929128784 -0.03657508495562961
 -0.004105268550103072 -0.013332542958048263 -0.04713814757158193 0.0014344362995558158 0.08714640458083213 0.07802698452479975 -0.050259569950612655 0.9108144790553666
60341380000.0 -0.7368819977010871 0.12072452025242732 0.13008740348726905 0.4611815027413075 0.004980369539273519 -0.003397233825532021 0.0008608662781679647 -0.00452559298039583
 0.0881058580292769 0.426970877515747 -0.7093536226364324 0.14776535449022962 -0.0004244086573695184 0.0011341186528702142 0.003264396727117562 0.0060243134260097135
 -0.00574122803700856 0.0020702977181822676 -0.014463093096059464 -0.0010844138270789047 0.05082281434593387 0.6856669269556008 0.1804245621410681 0.07890848080328836
 0.002669538808680319 0.007902296204820946 0.023962308136255106 0.011331777056694185 0.18131365070822913 0.0057264851304344 -0.0022469428083915794 0.7824711959055046
60411370000.0 -0.8173468288797242 0.12071131306365937 0.050200420321136335 0.3745803413183849 -0.0051081087975242264 -0.0013423172649828868 0.003841310270025282 -0.0014672002218278591
 0.05308311659023391 0.4799499233676418 -0.7763750839084256 0.14502118001385395 -0.0032468981751773776 -0.004566601137974873 0.007913809862147179 -0.008322541101724338
 -0.009618014280939629 0.0068685709144646525 0.006918005429692842 -0.007792495855937819 -0.1725887499167322 0.9433291406013088 0.15833022770701016 0.03861088966929023
 -0.0089618529330803 -0.009095768978436475 0.013567099409846997 0.009367152402441 0.10172537642323622 0.08500733113601476 -0.08103649175853754 0.8999294858007594
60481360000.0 -0.7557407827255931 0.15531138401418293 0.11926571914396321 0.44601513239893653 0.002522396601883413 0.004766448211517507 -0.0011482923550526784 0.001914445862690513
 0.13649777176702493 0.4501861125224022 -0.7102548102599936 0.15951844305944035 -0.004351564547555501 0.0006446553488970777 -0.002116326694134501 0.007913816874483823
 -0.001462577211521495 0.006604186714842468 0.014528292362561134 0.01164426616000948 -0.05170651897437339 0.8296847592851826 0.0926227605654453 0.0816892693435774
 -0.008179875888191879 -0.01718526877784471 0.026183284579350152 0.03561500516066959 0.08329836794374353 0.04957482206637017 0.03403947920043443 0.7400503669855388
60551350000.0 -0.7624683551808198 0.16960209616500682 0.10971390765253197 0.44379533486702794 -0.0040756150217547 -0.002984396072523723 0.005298435790184017 0.0017805586294252068
 0.11851623704107982 0.4377167347821934 -0.748684914061194 0.1877232923482269 0.00048129250843123665 -0.0013486856644125613 -0.0008378349801227535 -0.010361300536510179
 -0.004836457926655136 0.0007129094783916786 0.0009486006217980971 0.012543511971245817 0.010386455358567824 0.737867663538162 0.15370351265801047 0.13328290150153793
 0.0019320192834803682 -0.007392862385860561 0.01456450032871853 -0.036918931387345144 0.08706709567657514 -0.010889495058512376 0.02992094052115471 0.7971989554330259
60621340000.0 -0.7577949918734922 0.238482606925846 0.06165908196317466 0.4886442949118911 -0.00923576179620582 -0.00022970107975320894 -0.009429692989553842 0.0020811904783998277
 0.1662374128869743 0.49475359039626055 -0.7542187774514716 0.15929631205444747 0.0036861769143814184 0.004659757820211905 -0.006487735974005621 -0.00021066352367703233
 -0.006739784780046718 0.009710799122949774 0.007002213873788462 -0.005925472758475624 0.06032004403114044 0.8231690184936569 0.03620423234508462 0.04778599409167232
 -0.003068628071525378 0.003048896731564616 -0.025006350753223463 0.019701531094912458 0.08724916144825014 0.055824990293722586 -0.019204367460177205 0.7945707752450001
60691330000.0 -0.7332591826095973 0.18751204557762582 0.09424565066404278 0.4155387574219438 -0.0013429991754177121 0.0030781909958537447 -0.00034465117700003433 0.005191274386901738
 0.09796043982917253 0.4258718956423679 -0.752094089002126 0.16091924361239318 -0.0017941403455332748 -0.004853080841914273 -0.012158205594873928 0.009848331891922836
 0.001435231945455661 -0.020234958035647378 -0.019136938873899115 0.020669414898936464 0.024098865600597645 0.8112161715974112 0.10902705200161518 -0.01595069182142677
 0.008180520501635664 0.01570406551265901 0.0329224680972313 -0.0024488586788680446 0.10351857491833222 0.05662534275023238 0.029656564094310067 0.7819906481776362
60761320000.0 -0.7428341329936872 0.12938480929463358 0.13762372119617855 0.4159842010748074 -0.002057020124796571 -0.002147680394646319 -0.0058480462429666156 0.00250034063069375
 0.10330472541255785 0.44524161077824737 -0.772671057084261 0.15633538635324717 -0.005765364856987168 0.0022096995215928673 0.004724472197618166 0.002436824959220605
 -0.00562465014731903 0.0010918033313039176 -0.03581779663547927 -0.010957367083770481 -0.014211737008555275 0.6587903353956637 0.06237048514891769 0.014893536503895442
 0.013805153510951622 -0.0038469578303900616 -0.010161248123108337 0.01156024156230833 0.129656479235826 0.02871770250724768 0.028259186280936998 0.8404633837804276
60831310000.0 -0.7196117293736619 0.10679694447396314 0.0852522516370555 0.47755236204477003 -0.0009100523164761737 0.008055708829789628 0.004417457187480908 0.005244007724060875
 0.10548118346854506 0.43022941252987235 -0.7512599459095152 0.149242710199848 -0.0002028327646005823 0.011480193965413032 -0.004394749931656613 0.0027771721304289316
 -0.007847228207644845 0.0015393516189018714 -0.017091577437710392 -0.00833157781190834 0.00012261186341144345 0.7711462384746055 0.09275693128613986 0.019392851921752493
 0.008056625119761143 0.009595497173128752 -0.0004691548912205696 0.014459224786805218 0.16610247246234108 0.15507391628993283 0.07190884173971344 0.8008430672022515
60901300000.0 -0.7554904229658609 0.15088235344493323 0.0831622528352734 0.49261018875310014 -0.0026257385736634226 0.0024278367538393456 0.0001817221858637847 -0.002925511175345588
 0.10218573576392187 0.5192335812668633 -0.773579683823487 0.1901783328870119 0.003321481211334991 -0.004111197786468009 -0.0038170463981838376 0.0004995012487489066
 0.00182558535048729 0.007410038066786437 0.01819192197790544 0.006729695871255967 0.03076153214037331 0.7912480322111548 0.10783503848821083 -0.006081727973928602
 0.00046335256553021043 0.00926797636194186 -0.007990597909230391 0.010755152481986647 0.07243498246759335 0.048237838240968764 0.08732483661496677 0.7175892258374941
60971290000.0 -0.7762356793603533 0.17084970766133972 0.0657314481940075 0.47405958538138404 0.00026846725577994414 0.0019801110406983077 -0.0055266401261386934 -0.0031652006918413906
 0.1200049563855157 0.45491737314322156 -0.7267977787803633 0.11221810933955435 0.00023049268482938922 0.0022999371831678972 0.01110014404787498 0.004556654394651706
 -0.013299619198611515 -0.006421242100249776 0.0023066946637331272 -0.01346534105845325 0.020625872414273935 0.7605462868124079 0.10147616065698038 0.0304990258891675
 -0.010565957825696153 -0.0005987205375416363 0.018251537896925147 -0.03649005271488946 0.0543408501015128 0.020120312512814643 -0.0222162665569005 0.6750303825739533
61041280000.0 -0.7202846698274772 0.16309082593185617 0.11493518248179907 0.46102131499617627 0.006507848462193236 0.004394229659234862 0.004539857592502875 -0.0024159700620828973
 0.12724428201112575 0.46160467539112215 -0.8046986567825489 0.20974028377831533 0.003716558622619306 -0.004244419054776171 0.0028595464592444217 -0.016283262042936564
 -0.011123664490267875 -0.016450108108049206 0.004008886628707756 -0.008375015434755844 0.05250714231543945 0.8276683926845151 0.10841655370265334 0.02815304278577145
 -0.015068796991341435 -0.0034124577646002245 -0.01977708169851831 -0.0252357972886572 0.06906569357058727 -0.05005061460695212 0.10703407711386857 0.8354090538083652
61111270000.0 -0.7421152019533604 0.15334565429293645 0.11893202479590252 0.43313973624748325 -0.0007970677438451642 -0.0029562798748878167 0.0010641876348949225 -0.0005693157494063695
 0.13628220755600523 0.40708238641298167 -0.7665139227266206 0.19058770600266917 -0.0026231138335236887 -0.0007619708318841739 0.005995581959297349 -0.008872258662342336
 -0.020460763463445872 0.010082230751801287 -0.01659767717808866 -0.0318615712907566 -0.016075191937112238 0.9042778101247237 0.08676969448701702 0.04015004663500684
 -0.008086750495716949 -0.005217629825213082 -0.024708716537055943 -0.01318053750680568 0.01713443601786292 0.06414798071246364 -0.09639917761985481 0.7710486913727133
61181260000.0 -0.714367460649037 0.18235689699964058 0.11028020598649994 0.44654898200582066 0.0002685393365598952 0.0028550974978276042 -0.003972994197313851 0.0047888099342859244
 0.1520243465940051 0.44553373111885397 -0.7597375130568439 0.13724188371703755 0.006872018666373229 0.007873103581666797 0.001908740206412081 0.0019676664060044695
 0.0024527696054345823 -0.0070119462710553125 -0.0030050554238510727 -0.009315336045896017 0.02496750013951853 0.7600536567049888 0.11085543370272977 0.03217463399620983
 0.004659811259087568 0.003655648973401662 -0.03215128486014266 0.0054417346545631165 0.14181116475847413 0.027533294776811088 -0.0029342050502398445 0.9149721851375916
61251250000.0 -0.7307655734174661 0.188236530656431 0.1461665405754085 0.43992521711647325 -6.334429616411776e-05 -0.004535442304661255 -0.0002415912362034391 -0.000756349033872492
 0.13559047628167153 0.4366565500987134 -0.7722889194909384 0.2065759548742843 -0.001466240087651233 0.0009340763690337774 -0.005058511946588377 -0.005871624595676181
 -0.011888774159710895 -0.020154085195499553 0.037965864440082576 -0.005245572670098405 0.08795456466160963 0.7846963786079226 0.0690594638446006 0.036807060256884704
 -0.005036705746751178 0.010924456351725618 -0.031159216811237882 0.01712220590364509 0.11876206885226608 0.015676079938979345 -0.005142329056414319 0.855289716858908
61321240000.0 -0.7186992139639631 0.17336318018099306 0.10609333902657023 0.46500234278168934 -0.002634287631072863 -0.000370140589678112 -0.00029462176991123856 0.0071393556216793825
 0.10971365575382168 0.4409284110992363 -0.7315279875908298 0.18658924444033292 0.002359185657131213 0.013636162354914478 -0.0027911664465093 0.0007101988538591672
 0.002938231921608987 -0.011499249276905509 -0.02162212429098823 0.016349065756218032 0.04282485062311215 0.6941102074834719 0.06369850742510946 0.04331251037847988
 0.00027759678049046004 -0.0018401823348591384 -0.012815665031810159 -0.017275449385128747 0.19094798367962146 0.04487551502064365 0.060876897476221326 0.7187231345582703
61391230000.0 -0.7364582982339302 0.1438707761399394 0.11442750806666425 0.42857754017287286 -0.002651809907245832 -0.0034133508241995015 0.003225261388758098 -0.003136609277811145
 0.1035481436342425 0.4196417703096732 -0.7220725518492278 0.23867824064922863 -0.0018418130195725225 0.006126144351139204 0.001676977369442209 -0.005330027387375988
 0.013108328856350864 -0.00011825480902870844 -0.01017254605598962 -0.06291238564970984 0.06516124537651763 0.8356546364929844 -0.03390931213644599 0.10352107825104725
 0.007703028188187473 -0.015080987544200184 0.00898453288135495 0.026600562383289575 0.12546701870788957 0.0709616878137394 -0.00042761513512526265 0.809400073310806
61461220000.0 -0.6915954156479364 0.0944097051405954 0.09912511651290859 0.4246069955749807 0.007590016836159579 -0.0036791203164333705 0.001625150805303345 0.0019202458919573475
 0.12207233147400745 0.47654961443876975 -0.7950000889829825 0.20020215077475556 -0.013786292810875005 -0.007281423111379802 -0.00207207273183569 0.004818821260901713
 0.0006525244435394478 0.007843197819961662 -0.033153545350055484 0.013214985713230981 -0.062395028900129 0.8428690051362402 -0.03161671143209918 0.024991781549169072
 -0.0026511287629986655 0.005137413851058522 -0.005839442073699935 -0.0031847985165631807 0.09696007210425449 0.038269789235299084 -0.05254740910999751 0.6747283180752225
61531210000.0 -0.7132738389811037 0.15868940565918516 0.1415745583531762 0.43355837473459985 0.00717292791055264 -0.0006724355912829097 -0.006726118263179704 -0.00534128916010526
 0.13582854115251614 0.3788168309114017 -0.8019642617597718 0.2156299408952956 -0.007470828242202493 -0.002896213333573824 0.0018304100854980056 0.004042037896819827
 0.006012157257468247 -0.010309547090312617 -0.020536498010073834 0.010404207185469373 -0.021418523028719938 0.7856401437881727 -0.009476102607915026 0.07024021077167245
 0.013360138835849156 -0.007566897517760282 -0.024888985093649094 0.009407990622829926 0.013872687913849617 -0.005414621254446063 -0.0964378347963023 0.9368507829379895
61601200000.0 -0.742820993216792 0.21913417693671586 0.13365137921427483 0.4270278804244398 0.002617086285967434 -0.002247942289077699 -0.0023489040899123768 -0.002432480332357153
 0.15209763232779894 0.43408511451782056 -0.7190979057094233 0.26815181725657417 0.003326174039624185 -0.004856549030938984 -0.002519953886953657 -0.004180344036037122
 0.000585213801241385 -0.007611471587150669 0.010104546559240653 0.03163225769411614 0.017722336083293048 0.8140793961568135 0.0915183804336727 -0.07332495268416739
 -0.019723678307247486 -0.010123542298157227 -0.006918802349901538 -0.011066595215259259 0.08520251802856497 -0.04342083113469895 0.06219684839817941 0.817787294524183
61671190000.0 -0.697606768737273 0.2105654322247053 0.07279310591383309 0.4607472096586624 -0.004925700762394996 -0.003216183805339225 -0.005326787515463254 0.0021247201167510993
 0.12499515038498973 0.4464129455382983 -0.7674890110155571 0.1563859580250747 0.0050079066732523474 -0.005185447942664278 -0.0008232726084607129 0.010023212846733338
 0.02427562384696313 0.0029073900001725266 -0.0032841569831194664 0.011044360857247928 0.10348016440282849 0.7357470948515502 0.10280158936550741 0.028403700884680874
 0.016682648226383812 0.014875970748926154 -0.02732536584787544 -0.022109646597593985 0.03583207651278848 0.0051259713002192505 0.09431091692191994 0.7451618901632157
61741180000.0 -0.7218697167711242 0.15841619534944326 0.1359780566004341 0.4203378877356323 -0.002175315103130942 0.001465783086924944 0.003841783864755962 -0.005572993921268473
 0.11141147420660306 0.3906050540456353 -0.8118702665427601 0.1761615503309822 0.0006958228510940942 0.0018466723227946618 -0.0012587139853944141 -0.004753256915915305
 -0.013579416179195187 -0.0013621085224143493 0.023316331266476725 -0.02229606390962805 0.046280813484617725 0.7173303918413716 0.11288296372703323 -0.019234124889205454
 0.0038733012712295002 0.0054988517876512835 -0.00954867516198923 -0.007263059409916993 0.14356165881186123 0.022025474691091902 -0.09763191531686981 0.8195286249807231
61811170000.0 -0.7589416281949287 0.18803274925079577 0.1195372827755335 0.4618605391070588 0.004624735555112632 -0.0011146845723952964 -0.0017115077358643238 -0.0035099970939288165
 0.08654542736852162 0.4519776234842208 -0.727443741648337 0.24146669023858983 -0.00222248152105758 -0.008697828297187243 -0.007154461801298648 0.008409080581505036
 -0.0034808109805733365 0.0033666673643059216 -0.01711839812990579 0.016820147581690873 0.06278051440675728 0.6885382463278961 0.08114213676403319 -0.0050893013177271676
 0.010550771042494089 0.00881295979895561 -3.0201328500550405e-05 0.03155951359739541 0.10704894178851046 -0.02895655203896078 0.16986212295430295 0.782765111689659
61881160000.0 -0.736395656302464 0.2356640145235002 0.1575398433236604 0.48368383297940404 -0.0019228693544756333 -0.0013215366694144476 0.004078066039306053 0.0020760354816107096
 0.14931995452871366 0.4122559769665349 -0.7690095576868128 0.22284750166721087 0.0064431650962463215 -0.0032212759501362306 0.015655663444129643 0.006774573723511989
 -0.006292542426466681 -0.01632090390858218 -0.03420298635041086 -0.013687697591890924 0.03315610499817509 0.7266836109975133 0.15610001151852798 0.10090622532239578
 -0.007144290435173839 0.017096909947652412 0.05749293283810387 0.013061261334479898 0.12929154073112406 0.08347369789967629 -0.03144932115671635 0.8073820272289508
61951150000.0 -0.7253088270347311 0.18988482452603633 0.11102724200076519 0.4368607994890913 8.056300152728022e-05 0.00341310422252064 -0.002481932319619781 0.003159677255220058
 0.1324394193506755 0.466920650562293 -0.6905727330049167 0.19441819585570086 -0.0002560488017630756 0.003708856305583656 -0.0004285822331500536 -0.0038153120871533617
 0.001051708099237744 0.01636645687711233 -0.016017238376848326 -0.03394036766110735 0.053560335527540096 0.7644950334546489 0.07486450520398302 -0.0028321343726951825
 0.0006643865313449678 -0.01649590098618521 0.022265103793566082 -0.004778065806752105 0.16134239944083073 0.09794126894693352 0.00018666538760819608 0.6549380650049665
62021140000.0 -0.8096564922421561 0.23289032725036027 0.11668190923468003 0.4454652605489043 -0.001243108095758019 0.001008572460377664 -0.004141342016547061 -0.0021774444078049484
 0.16668872615498034 0.4322649199642832 -0.7600784564442831 0.20691763687626727 -0.0031139329320160987 -0.008912486450913103 0.0023960804085568633 0.004054305381085625
 -0.002220260285148864 -0.00310845361560549 -0.05015563883592981 0.024623986985999567 0.10263076930659934 0.7820376100516253 0.15022030684318133 0.06800393447456514
 0.00728570974128026 -0.04405569148926856 -0.06541442516728715 0.03004730798720646 -0.008542308063500438 0.017727904351894044 0.00828610807733569 0.7580559425095801
62091130000.0 -0.7371874000150811 0.2309230348134097 0.10447578776416827 0.38188109108288887 0.006035291918025104 -0.004835704625937099 -0.0031631324129741097 0.0033669922483608
 0.09431144934578496 0.44611808422564103 -0.7758444378058114 0.187521662715305 -0.00031039189289964054 0.007812995061043423 0.005746597938500124 0.014678919080406859
 0.018371615250423756 -0.015510549257571853 0.036720682221956645 -0.02638585527208805 0.1311750386982529 0.8909214660609874 0.11715195527128423 -0.002678229870900028
 -0.0026355816740220566 -0.014020840743316049 -0.02486207887883685 0.016899930758763376 0.11664181577283912 -0.09543269421629132 0.04383861941202792 0.7731693294858577
62161120000.0 -0.8007138348509875 0.11439763934846801 0.13922749151386 0.4538679125936961 0.005464864196452066 -0.008352874110590738 0.004719822514307313 0.002127658158721056
 0.08932441391763453 0.44579229973400203 -0.8621834075801859 0.1597697892267793 -0.00018833061941388282 0.009024662196666266 -0.0044658954441545275 0.011658558947363491
 -0.024529419825035724 -0.0337913588400695 0.07486113332349659 0.04259109680695222 -0.2208208683005647 0.8860396329449529 0.15487445999682914 0.07954887838236278
 -0.004145166811375466 -0.010418090798208128 -0.08006329343612108 0.07252442553470427 0.01305425452436176 0.0020841323221487506 -0.07788234273361001 0.7766428955110624
62231110000.0 -0.8075690457704578 0.2201171089829733 0.16376670906426494 0.46673221452298636 -0.0025616180823675285 0.002351571007420878 -3.351659708976168e-07 0.000849340759487324
 0.14264157177559772 0.46205600295740706 -0.7768768047325234 0.2330136166023655 -0.0016283719418769148 -0.006032251853060352 0.011466983572142712 0.005845604222913041
 -0.011305928000103467 -0.01513545890100652 0.09206223121802362 0.03734752418196323 0.08502413318161103 0.6859338750054814 0.18687090936327833 -0.005994066325539635
 -0.0010163407965439613 -0.010769477112326578 0.010599079153309918 0.06764907901697767 0.20130331546537644 -0.006575560811919444 0.08341000816954547 0.8198766778329721
62301100000.0 -0.7417385531174904 0.21997632194395902 0.15055195757960035 0.4303056373822345 0.0011120197061567194 0.010197887454690078 -0.008974572730280638 0.004103576259574295
 0.12896399268228542 0.43070972421744885 -0.7735637819087342 0.19100932695287284 0.004657127471521214 0.0010082696930521823 0.0014884993109223585 0.010459605015261305
 0.003481412540646866 -0.012504586068245373 0.0016892229001617637 -0.02304308855378156 0.11838695597427991 0.7201793417488779 0.061799081790045 0.005601103236465171
 0.0021445102941041183 -0.015392311212720014 -0.020048360899960115 -0.0037720887918456687 0.19420561149092774 -0.023571970660649106 0.24795890707496523 0.9303381148057708
62371090000.0 -0.7186031346402141 0.23540194538360187 0.13432827225272076 0.46099928529952544 0.0034439906863464285 0.0015173153759828046 -0.0020350685106167647 0.0020373643096292986
 0.13884066201412698 0.44935197571459523 -0.7901936587127212 0.23659900824687682 -0.0038854199357613727 -0.01319548715090374 -0.001989439011399824 -0.007609636007451226
 -0.004676673143966087 -0.0046233678753776425 -0.021016693506726566 -0.010712606480036052 0.06423677827134328 0.7750651745863203 0.03639426978589448 -0.0053958566835916625
 -0.01569720743224176 0.01004654369304808 -0.01659208620937781 0.020614649464805603 0.057760128855698534 -0.054318774224548436 0.009725242433383598 0.7776066883273163
62441080000.0 -0.7682694528254951 0.19666645651380307 0.1028012757531912 0.43004406993812627 0.0067440393587532175 0.007338981020882223 -0.006633123772713174 0.002889410569660908
 0.10604897656664082 0.423433015127432 -0.7159641953212407 0.18869140502559426 -0.003292452298610635 -0.016571471582469684 0.007655347741015597 -0.0043193072651230855
 -0.008387774390826701 -0.01349163132095775 -0.0494298965871935 -0.037266903367159265 0.1164780435640899 0.7504236041710399 0.05747296083610112 0.0014434514139132794
 -0.00427684896688058 0.017495364074984053 -0.01582892307093999 -0.007351739300030562 0.017560720963449024 -0.004211175063069836 0.06348549229596169 0.7325245362468402
62511070000.0 -0.7688831813139538 0.18512768137286026 0.131065451812976 0.4350395374402741 -0.0037448792715532547 0.0024800540681187556 -0.0019871838986051686 0.0009899896555652032
 0.14590593881365033 0.42045414058459957 -0.7726983633187547 0.24212825428339355 0.005353780833249465 -0.0006356757206347299 0.005326387408555539 5.7019341122550455e-06
 -0.005260252891986312 -0.004603641249684335 -0.0045828674377383725 0.02589478758554495 0.14679536453946512 0.6811116467854599 0.1380798569313627 0.05615776438163806
 -0.022330403228637826 -0.010918730166302133 -0.019965417633728562 -0.01357984646969506 0.08273032575153313 0.03555955857701028 0.039347726358944866 0.7911808726102921
62581060000.0 -0.650399174345334 0.2558948753669097 0.17701122752102577 0.45868287874749686 -0.006849136967613265 0.002336452957439341 0.0035666315608312293 0.0017542387481034583
 0.13562958127844765 0.424910157047046 -0.8142333561887896 0.211125517540485 0.003557207646594357 0.009223449519038267 0.010253219588041698 -0.0061031045869565405
 -0.016027170910345705 0.00588005569667549 -0.00729912573194378 -0.06375708633856453 0.11507644470934168 0.6563804155477199 -0.06426888202446852 0.039082392157050325
 -0.014895571021068931 0.0076585703915944174 0.006731564270343033 0.03245434544321224 -0.03493863882670728 0.02803270127119172 0.10153001842562015 0.7774708056870938
62651050000.0 -0.7580240510458129 0.21063333565854978 0.11402962489247893 0.40786647050933483 -0.004717301959604401 0.005436228267044888 -0.0005320845914827602 0.008509403870169107
 0.14114484357000937 0.4143416626335591 -0.663312789247073 0.22881137582281688 0.0006923935381583932 -0.0023283592388293685 0.006933960313760659 0.002245744084155299
 -0.0055104725865538625 0.011583159323188971 0.012814750654710489 -0.007880792470080005 0.1226301074117142 0.8358798111143652 0.12111111493026266 -0.0039725100403952855
 -0.004954878721812455 -0.01996882041136148 -0.02936265141545868 -0.056010953798679326 -0.06431046714662847 -0.0061140104907022475 0.1481669509132749 0.9016545706682453
62721040000.0 -0.826484699323937 0.250660986261368 0.1321226774717279 0.4439392177187593 0.003594877192972864 0.0018943912097024508 -0.012643519734290912 -0.0008043250085188831
 0.17521600139408158 0.4673355850947511 -0.7788798905274168 0.16511988936641464 -0.009100098409657632 0.005019856918324913 -0.015863861213959832 -0.018339468694210045
 -0.0072392279957445545 0.00878860293964569 -0.009718597111725015 0.04203862360777217 0.2205246148046548 0.8259896250711558 0.061287848033226365 0.0756853236536794
 -0.016319388759843553 -0.0171881534653113 -0.05986379884707547 0.0016764344236053512 0.07358775206614482 0.04744810450933796 0.013186592101957205 0.7422227634760618
62791030000.0 -0.7974777468503091 0.2316026730711207 0.19315971246234265 0.47106922845211635 0.005038518408578412 0.0045922453832569704 -0.004472914988520347 0.00021558504337461544
 0.17369365385733068 0.44251428221993405 -0.7801568241163379 0.29748083108612083 0.005111462752124182 -0.007458385298364031 -0.012504692018028046 0.001960686909451148
 -0.013942336114240976 -0.00968548526811404 -0.06423455206105132 -0.018379536058812367 0.0294967211785685 0.7169626258901051 0.10539090074054122 -0.04382653926371463
 0.02434593622509094 -0.004016985154300667 -0.051052169363076445 -0.04813117338719703 0.06953571216752538 0.05264118500596446 0.008247544750462162 0.8272216946764646
62861020000.0 -0.7721404898006419 0.18017432339498146 0.14640891008231607 0.44155208040880944 -0.007289828791276473 0.002116276884575326 0.0032128099385512273 0.0011261620554513302
 0.12066477905111611 0.467144800759643 -0.7023471994860574 0.22024228465565648 -0.008362113689228111 -0.008868665229622031 -0.00534048086425089 -0.009891202358447461
 -0.004970199780491382 0.01917759758882148 -0.02919512249489945 0.10721328715160837 -0.03477419597097745 0.7042584546908338 -0.04548123421857161 -0.0023261046729492196
 -0.022799744535487564 0.015295159755700798 -0.02875487047506182 0.009310742113066223 0.04011779275733775 0.1047909840251988 0.14174091583952075 0.8092032718973511
62931010000.0 -0.7209700983384646 0.3208518341731039 0.09123913235929942 0.4913336987444486 0.008402832106383498 0.009657276844220746 6.94682227352684e-05 0.003979672595822814
 0.1570979919426837 0.429838260539809 -0.7447285232026556 0.2168415420119528 -0.005905699351307908 -0.007220906946785021 0.006625168300556845 0.0033950235921681943
 0.03361125658967431 0.00746598697198956 -0.031471319974454896 0.019617227528550805 0.15450670348643047 0.7845168464544964 0.11008316984871457 -6.40033877420525e-05
 0.004697199324097138 -0.033908140150608536 -0.019277436130692983 -0.0878952953600815 0.028816666509933295 0.029774278083730163 0.0034864171018213434 0.7097618638305033
63001000000.0 -0.7000253462360942 0.18618777313839074 0.1495642492458375 0.45752803678860027 0.002428333441396199 0.008097902829135063 -0.002690326579467707 -0.0011345631028304452
 0.19154070077481525 0.45286120114277145 -0.7671445513232024 0.2574737836871903 -0.004890356404297749 0.0030500927623074636 0.0026598371212513574 -0.003973205254509656
 0.03297456627135455 0.017239316871953746 -0.003882794587286691 0.02283344447456232 0.005745069550974871 0.7427435834962485 0.04193437615793735 -0.05097442617934453
 -0.0074320570992222985 -0.0017443365188007304 0.017471845876123205 0.031113172498496173 0.0784535060643077 -0.0198665776025499 -0.0048244129781428655 0.8020868461286541
63070990000.0 -0.7543568112071379 0.3068417880972953 0.1903427224896125 0.4233374992914719 0.0010981644953955193 0.004472987412673724 0.010254952354809858 -0.004752532728716855
 0.2065813548173599 0.42889583780049906 -0.8019695724296632 0.24445682537127159 -0.012894037654829792 0.0034947517950673955 0.004429655324772534 0.006491979091869813
 -0.0015948505524862222 0.007268614726114568 -0.05556569798834919 -0.009055720498507227 0.08261902107368786 0.7262106214721963 0.042584467308111267 0.03364059986944217
 -0.01853329511898553 -0.01890167332471718 0.005992810812829794 0.04726673736668623 0.008568324650710559 -0.14338474736063306 -0.02097764564264888 0.8468353720416794
63140980000.0 -0.6989483077304025 0.7843390530940174 0.0010620206423327034 0.6060681103615431 0.0021279410726078676 0.00958940502831464 0.00367055807582651 -0.008381714025665631
 0.18857647433173702 0.3614405740589929 -0.7705189684977506 0.3305521228862639 0.0008308411122817695 -0.005032592729653807 -0.0070840158084726395 -0.005032264158640948
 -0.01082565052700248 0.007858802062716191 -0.037617841821638874 0.022606654247809728 0.4857150895935853 0.9807982317147818 0.06144597742741262 -0.08066799063753444
 -0.01983708065072799 0.03074293042983538 0.005307119151404016 0.0059967044334786985 0.06322569547714718 -0.051219095580019025 0.2264929344315155 0.8257298489957677
63210970000.0 -0.7481438495109901 0.21467094238415196 0.09980586059276028 0.5044579737945689 0.0035811806126222327 -0.004518989694742072 -0.007977828258945448 0.006579478214845111
 0.17322052801164922 0.5083970903580859 -0.8334610797246613 0.15660442084344336 -0.0021178757175047947 -0.00674993309246241 -0.00400099656577235 -0.016555710182759593
 -0.00375638410823524 0.030229370557332352 -0.021136544641261308 -0.041790673993564745 -0.03673867965605547 0.7778790396977953 0.19955259722519636 0.09294348846415154
 -0.0024790458739157276 -0.011066296959897018 -0.027968842442598545 0.04577916549096288 0.01010905076269197 -0.11308779067157435 0.03517359412109594 0.7122714832860062
63280960000.0 -0.7950191234891312 0.17606807865428672 0.09679343864696804 0.3944155045912588 0.0008473760841012574 -0.003608350127151862 -0.0018505935613696161 -0.007809078036210657
 0.15929454367798884 0.44543590770435376 -0.63095030182012 0.2789849708218966 0.011751669072898254 -0.008188689828286978 -0.01768497173092081 0.0003798039848341495
 0.011631221255787447 -0.02014578496810164 0.002669117982130483 0.012744519072012298 0.12952370582519823 0.8815014590023631 0.11968013905545484 0.02517235218049068
 -0.03845779250206706 -0.012721826355230888 -0.07160973181868202 -0.05877256226911611 -0.0660248149065271 -0.0010393906822993898 0.05001045456240845 0.6791368248383162
63350950000.0 -0.9633046162533381 0.26525690199201557 0.05698139202278065 0.3677360727872206 0.00026662118151659807 0.004152816748968793 0.0018505866423782482 -0.006899503411813216
 0.18757761652657068 0.40351866991928304 -0.7973906435950991 0.2710207033993623 -0.012105323297515095 0.011449716623145518 0.0021965409255029085 0.0012497660061462814
 0.004205367364648993 -0.0032946756107516935 0.020476270545540146 -0.004913664937417355 0.11225356584018893 1.283347903307971 0.07176690295749982 -0.0023122536359926962
 0.0008641939452438496 0.032442661520772194 0.0050010830441446115 -0.031247389392173218 0.18115828336347203 0.043003420475101785 0.004119132773510231 0.7554628182480587
63420940000.0 -0.7061376234752659 0.1722487843571484 0.1595167593905559 0.4805744411585372 -0.003386614013256574 0.0018552695451514824 0.002597929390334923 -0.01151741444512661
 0.1659086468626138 0.4207967749296549 -0.7580063254682132 0.1933500614209636 -0.008065010807587964 -0.019610107666517006 -0.017539635695647458 -0.00752155622181465
 -0.004029326085162094 -0.0014578719043364529 -0.004595444853238252 0.01655795712604958 -0.00464640103079168 0.6331051617254336 0.0287932460616056 0.02171650598699008
 0.006762060270318979 -0.007256815979847069 -0.0426420201479449 -0.005070864790461121 0.14163128963344992 -0.09381517505318251 0.026749420117078516 0.8354721299963619
63490930000.0 -0.7479500740335432 0.2826819797823274 0.15756300862370423 0.43478874655616656 0.005885819032508678 0.0008337487931343558 -0.013631569061463981 0.0011885802833571635
 0.12084176051119204 0.4644732850136792 -0.6392416612630326 0.2886783749341496 0.0031678286207146916 0.0021530367759590207 -0.014369871682134704 0.002684498258858547
 -0.009584026634870782 0.00772323156218604 -0.14287512560809626 -0.010102067150510768 0.08099463613988417 0.6517067114402527 0.0007004821542425826 -0.06808940186798537
 -0.025549928654967025 0.0113708059675281 -0.028598228439300537 -0.027622583423853583 0.11616418519694033 -0.035287686514712154 0.2004528464095555 0.5801720961904107
63560920000.0 -0.7490477524737988 0.3690953451533072 0.2128490001269563 0.42255914528690103 0.0022667745438777094 -0.004702187999893719 -0.0068328628855598116 0.004521355727675308
 0.23698595884175924 0.41623870223200193 -0.7516319332764008 0.3616310065125231 0.006801915796966482 -0.0014644837186880719 0.0029918249069282804 -0.006638900504310759
 0.04082571888035201 -0.002193876799461566 0.01448091258187471 -0.04692193976914852 0.14408082471515626 0.7688085162308903 0.022104943653717516 -0.10018083295622858
 0.027205986912575652 0.02778981354950485 -0.024143105888342637 0.02563680048308031 0.04850146351042952 0.04216066839982421 0.014935409936889 0.826803972206872
63630910000.0 -0.6641305338850163 0.21036209455524454 0.18101497711200268 0.47722770042265655 0.001896840994917324 0.0029362503963269275 0.0005273802955935604 0.004703131408738953
 0.20183072489020112 0.4174669285288041 -0.8222318792906966 0.3151231594892818 -0.007000346408135317 0.005584743295639506 0.014919750386539074 -0.0030834916946963727
 0.03203029347865753 0.0011801418999749153 -0.029894123672373582 -0.011173030087076439 0.23676346159945835 0.6296970838999066 0.13460827636337938 -0.07319216479760057
 -0.014969208461780743 -0.00025833535595278054 -0.1120965247624436 0.053178920521454835 0.08371806835029517 -0.050656820344261534 0.10327359475763728 0.9360351464297421
63700900000.0 -0.7127035622125076 0.18024511021720124 0.10913704628660564 0.49637962236959826 5.267500640862548e-05 -0.0089838095143451 0.0029023195049022055 -0.00424280086726829
 0.1857200366321196 0.46803439092159627 -0.8975974244412378 0.1543886720970123 0.0004790060877202578 0.0021129512665287284 -0.011859831202344944 0.0047891548150786455
 -0.005175412272245112 -0.022348116663949147 0.022833235984177146 0.04547186740617734 0.07526188184659277 0.8394257710747148 0.06387900340273119 0.06220874714194442
 0.022060829466887494 -0.03283957205378759 -0.07691984076726562 0.08969479908207342 0.11627969567143306 0.09068164410798582 0.030768062211111766 0.8235159102952356
63770890000.0 -0.7504480374495699 0.12501245135246433 -0.0064230933080382515 0.4936818324184285 -0.001742287279403624 -0.0013190874392267772 0.004800944152731779 -0.01651622105839712
 0.21112202404497427 0.3987468479526817 -0.7025976614626771 0.17877520100207095 -0.008341227221733543 0.013636688957073997 0.00867292830418014 0.004803784929856092
 0.012788515373664081 -0.007594285188706957 -0.025747319137906514 0.024417583756283032 0.24970942361048057 0.9839717144920537 0.10658302587236333 -0.038076873530371036
 0.03287421511894938 0.0207811881971996 0.0017239930653942812 -0.03161770595321682 0.08498530596494389 0.024232404649814222 -0.03720165055018258 0.5311823684793076
63840880000.0 -0.6476300269144499 0.23947182110518095 0.1815925105285357 0.37843515153788454 -0.0008422326967136475 0.005343612394498417 -0.00494929222585858 -0.004205554002061308
 0.20597486287205255 0.33638143377937285 -0.7540807434599166 0.32250171923194404 0.004716385443500174 -0.004343865301220087 -0.0018744298091819271 -0.0029854342451046917
 -0.004624100834345396 -0.015309290640123232 -0.012252493763321385 -0.03420803563958212 0.28034590358894323 1.0669200213966936 0.049206300940109 0.08731403845018863
 -0.007940559008549205 0.026985617179737426 0.012670539810966778 -0.07574710251079064 0.13652286223290128 -0.032287078824007366 0.3193133470559071 0.6895299204110855
63910870000.0 -0.693342859187729 0.3464921825474066 0.18180590154516343 0.3956299109468302 0.006901911056445569 0.0034199666477207433 -0.004169616935560121 -0.004243995990963344
 0.16554672307537902 0.3859545384747298 -0.7083243455855934 0.3559619689474503 -0.004010679405727928 -0.005214540824452837 -0.0018429180478403237 0.007146562471475611
 0.008659718226067384 0.00410102881153206 0.07108970161203759 0.009687971286415574 0.1915674010472081 0.9676580309486786 0.12846519542782067 0.05346624505923177
 -0.007897363655571442 0.004531048523408964 0.00816767101275768 -0.044408758784125486 0.008764893184606496 0.13804633382349693 0.14698886781158604 0.737976056166547
63980860000.0 -0.7415648450504881 0.2683988109170422 0.13590536950822718 0.46760382972559655 -0.00506610821695019 -0.004557239322260645 -0.010543602838555528 -0.008580018052884691
 0.15623799446696657 0.43255612387357273 -0.8123067512859438 0.27201476009446285 0.002077856842132543 -0.003966333451795318 -0.00783844128534025 0.007930448053925301
 -0.01658990787316272 0.013373417388834163 0.050784320378480366 -0.024850566019325174 0.25025910362090187 0.8125508481112239 -0.11160088155942254 -0.04490128242004814
 -0.006915999434086389 0.02626377908962631 -0.017082367692779436 0.02700253505371787 0.01021501311937235 0.03134987793108739 0.12430487088135518 0.7701862828917843
64050850000.0 -0.7577340305477214 0.24220853147353677 0.10464328053136875 0.4627096167639375 -0.00554525291393786 0.009945403995212446 -0.008512901716013543 -0.009753882165571305
 0.17029711943561926 0.42313777428987187 -0.6589241316672763 0.12640104580957073 0.0024854265168933643 0.018646371182497394 -0.02134154817501241 -0.0067036651815949675
 -0.009389003464676813 0.002041915977396979 -0.05296763775222128 -0.03171667652304494 0.16517481635238182 0.7982697492446168 -0.03420856439911458 -0.07428832816616937
 -0.02184406458974788 -0.0017289092602537162 0.01540149287098646 0.008283150257322227 0.03919623255894042 0.022164251262613174 0.27958493455657824 0.726532541211776
64120840000.0 -0.7143821549321934 0.23264765724974892 0.152391511278591 0.4171552050122002 -0.005474027327765258 0.003667171245705595 0.00422895710721607 -0.006266145145532545
 0.1715018839606889 0.41913025311026914 -0.6693987132520091 0.2442936961894568 -0.013255230006497575 -0.0034812279886440606 -0.0003856535676601826 -0.005950064560618488
 0.04541166670250275 -0.023009182313156868 -0.030923787579026644 0.04277153639319841 -0.06465834058421911 0.8867656873059984 0.055614319165620665 -0.10816671734518883
 -0.009316084709944324 0.009083919806523075 0.016436706747879462 -0.03039802603757919 0.07837669890483534 -0.07574189610425731 0.13866764701762868 0.77359565147815
64190830000.0 -0.7368884642206525 0.28802407482378584 0.15595826269509283 0.4090705911835903 -0.0015559508252528877 -0.0009806539187984132 0.00500292598353374 0.0040266366859752975
 0.16575803492844923 0.3844709220665703 -0.6642052319640369 0.17859713097038504 -0.006182027394479812 -0.005534810875363175 0.013431565513437571 -0.0034976744715345784
 0.02939952068890529 -0.00199012154894879 0.019506892493820878 0.03334054126073477 0.06531460907796763 0.7273280880850381 0.025305808513974334 -0.11535976316777105
 -0.024742452039332886 0.023175861931814975 -0.001804914871556151 -0.016611715383038912 0.15892327844222287 0.07176546076009604 0.046644795425074 0.7918747877698008
64260820000.0 -0.7794635101873079 0.2794475442775384 0.1919298371924477 0.39455702410594284 0.010960805902922876 0.002570228343799936 -0.002705655578916161 0.008391590724262129
 0.22273177988215725 0.3639805129164831 -0.653666403057486 0.2890579082976268 0.002770112103923972 0.005108447997457767 -0.001646357080750237 0.0029865827759455476
 0.009499966811008426 0.013474689076914651 0.01822487794169744 -0.024534862467030218 0.1543646262824644 0.6471612003097269 0.1926019836751238 0.064932037771937
 0.01724949043018652 0.012824088018093278 0.044914671991900496 -0.06641257252457572 0.058264029649783354 -0.08392405942174057 0.08786564522106466 0.7110657763998726
64330810000.0 -0.7733359340137193 0.32891811112502667 0.1704997091736841 0.38688727410855833 0.015394319464939592 -0.0002089590930426102 -0.010942000011074562 0.00951398213387797
 0.16384012099504308 0.3934184788841963 -0.6916481120487703 0.2695065893330304 8.351491609759682e-05 0.014840896067914952 -0.002296699579258241 -0.0023422437622503483
 -0.02136690535299398 -0.005111915832443417 -0.025509948546820826 0.020099955939900088 0.12415170900652743 0.7087087955393518 -0.01545885943614953 0.0003574243607084136
 -0.0006381922919471278 0.03162394767731597 0.04270606852369544 0.022851868082831496 0.09489706372419007 0.05165858513298457 0.07827904258609453 0.8982037360989537
64400800000.0 -0.6932995334610025 0.2538776354160079 0.21209779050812214 0.43114580510328404 0.004202745278243555 0.007962973893619682 -0.01875387435435454 -0.0029124707585435434
 0.23841045071129666 0.434484482561156 -0.7153799419455743 0.3397057323039011 -0.009158524078273583 0.011156794925722663 -0.003333536428338025 -0.008423804164321548
 0.0065886773678929715 -0.012763103962523168 0.027218286937277722 0.03556565444137488 0.15728258967212974 0.7508905576607049 -0.009365853598444813 0.027742748570635772
 0.009819331541956753 -0.0026947515174378235 0.03299146940978863 0.014933543427680005 0.03125910118434652 -0.03653783300348087 0.15163265775788648 0.7716127305015722
64470790000.0 -0.8974390189678583 0.4045833822967192 0.14161252029590968 0.35777547115965175 0.004013156745782918 0.008120840598527643 -0.01192189838748918 -0.007990721703889068
 0.26235369727498514 0.29690300787779916 -0.6810144814503768 0.2792002602994078 -0.024833705671412465 0.01310850878584528 -0.0004772888123037954 0.008583841281690563
 0.027354609498950692 0.02704703861356422 -0.015761991838148724 0.040205403025746815 -0.021876189408300568 0.8703454352195201 -0.03383418990797825 -0.20878661409343233
 -0.015187457890173246 0.008277101269437183 0.06556857295860959 0.031405572476008344 0.04813822893962269 0.046598890467881016 0.2330986708441986 0.6907764804829121
64540780000.0 -0.6167612254727693 0.3537229908682918 0.20543215138834794 0.36836339397741913 0.0004350117211186437 0.003244407482262428 0.007092339599286363 0.00017586647257077394
 0.20345646717978116 0.4196374858973432 -0.8202509127100075 0.30326379550981325 0.009729075033443925 -0.006596627491705508 -0.008602144706143705 -0.0016530400500292626
 -0.02326796397150246 0.017050288807292337 -0.047310074901744166 -0.01370268351334751 0.18965931881984407 0.7416732757395483 0.030045824106441254 0.06336567322447231
 -0.021547570126657443 0.04544067147585888 -0.033612565785638364 0.03874652594827076 -0.01814134993472549 -0.022877775777660408 0.09886665112426982 0.8656713744761876
64610770000.0 -0.7371661040684069 0.21773172303392382 0.17581600361501107 0.4120396075334481 -0.0011644089079614816 0.005175565531392318 -0.0003474330943049189 -0.0013403643839436468
 0.1717708043713146 0.38844567397572927 -0.6992976649894707 0.3168417656074883 -0.002664282835376448 -0.0012981626626079714 -0.01572430924657429 -0.010131761471460375
 -0.009791192595524911 0.002422186580064977 -0.01067993252344692 -0.030052141212699175 0.1191001814176642 0.8639044361451567 0.003803682819583855 0.02417644556359594
 -0.04980588771149484 -0.0054903505493556866 0.0260921509540817 0.00982427410569993 0.0838904496543095 0.18047372431100514 0.172008454891223 0.6243850721397451
64680760000.0 -0.44627975736155034 0.3910021962632613 0.1794027924529056 0.491877549089534 -0.013431096513809538 -0.0043812428388683225 0.013940682371116076 -0.002039355212327445
 0.028061759569717147 0.40667693163080704 -0.666122125619543 0.23508839717445817 0.013095100424280753 -0.00962964263320275 -0.026817550606437552 0.0013843757636157403
 0.015909152115202656 0.0013408212735436403 -0.04294223578707675 0.001731719840389456 0.5095267925728123 0.29755305258881803 -0.08536545608081429 0.08790316649534805
 -0.0185122970953121 -0.005755235989101418 -0.028001816849436822 0.04339739857423573 0.10116311590898364 -0.005514576608569488 0.038830471009781015 0.6610944065083364
64750750000.0 -0.6658151365588035 0.21983897236459596 0.12538795971256664 0.4491691105218448 0.0016323141408389138 -0.0038605571565288265 -0.004248049729495149 0.008441864920926459
 0.22235156380812113 0.392702271689995 -0.6940495504229724 0.4010941871416518 -0.0004761009600517187 0.010537927555612062 0.013389064834389477 0.0060777931128079945
 -0.017616827414951793 0.019973301142941303 -0.01237229879765444 0.04616309005339044 0.12361420623595094 0.6534538784149565 -0.0007578396478368061 0.1526316667541788
 0.002185909390064579 0.002932183440698637 -0.005878165885652632 0.0706233579417242 -0.1108052294294259 -0.04073435621280011 0.04647279908896508 0.8692603642305838
64820740000.0 -0.7043032675269814 0.2921972411331613 0.1770666194287887 0.3361559258702383 -0.005447373184419804 0.00502185257066278 0.0027311168374646016 -0.016708655121984727
 0.2021774901225642 0.3433033892040615 -0.6046029029463027 0.4054145022214091 -0.0031731621900148075 0.0027599828129777726 -0.005586725992397857 -0.006782762098857848
 -0.009209482721718417 0.009353888848461835 0.0006575548880960914 -0.03458967968416755 0.2848559097456061 0.8517046900066444 0.04112549042663089 -0.012931748993323786
 -0.02007372006621715 0.024233251961011833 0.0021317068499248403 0.019916616194881512 -0.07409591912236962 0.017694098295118674 0.044991519289384524 0.7604746999653915
64890730000.0 -0.741348966374998 0.31953916815612254 0.13814200385503472 0.3183639568616147 0.00323632961886789 0.003952048721154449 0.003583142463175399 -0.019043686760417372
 0.1704060099335425 0.33767921646309623 -0.6556257005815487 0.29473652737435213 0.020011427858257907 0.008922253130868708 -0.006026622499814882 -0.0064892328976418265
 0.002394543782706344 0.008770512902501634 -0.025716844482877393 -0.010237251035612733 0.19673289616962994 0.7592930118770139 0.06509089138193108 -0.011897533737253801
 0.013381834813426157 0.009441867916099227 0.009500961515110918 -0.009032402112400213 -0.16117080610893064 -0.04101512526904993 0.19634368039390493 0.772046584036937
64960720000.0 -0.67664039895661 0.3046750090994082 0.158857703060636 0.43133764716098094 0.002334363193783229 -0.001094062553869142 -0.007892535665544953 0.0048008691719003405
 0.18888014536458592 0.42099426748499197 -0.7039792612379379 0.2763883292057072 -0.0022054959329413587 0.001823592009506907 0.008560068853197288 0.0045273337374020905
 0.009446235378100127 -0.010392611277927849 0.05874827888935659 0.024607279751062753 0.12981467987583187 0.7448299685936496 -0.05530849339801686 0.06606288319116763
 -0.02469935356446535 0.018017748442907065 0.017338101038568383 -0.028014562314682346 0.003309279135785557 -0.05504057236616689 0.16262479564873591 0.6414825150694273
65030710000.0 -0.7514504836227085 0.2883193923473712 0.135677687501522 0.3961570984085738 -0.012679347995456275 0.005423324766132719 0.009374609591138554 -0.004800005294281453
 0.14618043665323605 0.45354530092688355 -0.5895325463920174 0.36420933584847415 -0.006915732048010725 0.004141292089293392 0.01729846898846765 0.004290022892514226
 -0.011869125490564212 -0.005300195166340964 0.05685234952182971 0.005187022640700808 0.2407191889636541 0.790891515952211 0.15169660585530367 -0.022662591454267165
 -0.0008573098540753763 -0.004159163783919457 0.02567995571504125 -0.0442317201498084 -0.06196534695863768 -0.03770115274473639 0.2898787538740469 0.637930821351794
65100700000.0 -0.6372452415293329 0.3896160878290216 0.12747102261962076 0.37391457271715306 -0.0033396940121203818 0.0005127810497141881 -0.0008358592339987081 0.0066647535905196825
 0.17698487507102886 0.3553652742041993 -0.7109213551111011 0.2615089621746125 0.004214483608362893 0.0019221558732056849 0.006827911170621406 0.010147894809372879
 0.008944938202312786 0.013817037818526902 -0.004925410138425046 0.08408095296881063 0.2854944074889889 0.7809436111279499 0.07085484746173062 0.03091383268044414
 0.020988623987651008 0.0011689606585572907 0.03480526312505432 -0.01350229427635429 -0.07531662938212207 -0.03711754136935328 0.1630506236261377 0.6316040221269533
65170690000.0 -0.7541430628566218 0.19155315921374697 0.21826974221765857 0.3705229081022523 0.020411429737233228 0.013345089811702897 -0.01249483797804081 -0.022594451705428547
 0.1742811111433901 0.35737862258175723 -0.6462809029381382 0.2992549527399865 -0.009117377570295314 0.012742017654480388 0.018748304471348204 -0.007804300294525699
 0.025665823535957817 0.015493308406721149 0.019299030506243185 -0.030825720194888752 0.2938126501398157 0.9296889469646702 0.04077608715941179 -0.03008474411022808
 0.007484455913297224 -0.00354559072103818 0.0054404691561192285 -0.05429503534587793 -0.04965677374543603 -0.042647068220987364 0.349283051499265 0.7067941533180914
65240680000.0 -0.7216981108008947 0.3119283771293603 0.27134024093907505 0.4577709334937472 0.007229830588768562 0.012794970571993452 0.0010017521081205428 -0.004446934080928028
 0.1808232443538522 0.5598916600482138 -0.669020847685479 0.6706388463704189 -0.0340131091096688 0.010358164229251876 0.00554029447576239 0.004690567365684031
 0.006794242760494596 0.02569685261621206 0.06061922261160898 0.025077107202145964 0.308075623145455 0.5956805327270707 -0.07619059527264053 0.016134778773799974
 -0.007893691074716777 0.02809832474559458 0.014688464601137206 -0.03484753881598422 -0.07320345917323252 -0.0049806277154179025 0.5412091732942921 0.6334873343772826
65310670000.0 -0.6379101423787135 0.3147485810586765 0.1854429349482631 0.4015158137202503 0.0027353107055170453 0.008166587497214672 0.007186924116530515 -0.00577553013916367
 0.1774451963576842 0.4116546393351982 -0.776398727466694 0.3020107554417371 -0.0020255257045128025 0.00357102453739951 0.016088449180571028 -0.004625920628043035
 -0.02447781586537066 0.02523463512284122 -0.03637056391599212 -0.011847627227572672 0.21776851090450194 0.621975921243071 0.015236112103333617 -0.047264093633011824
 -0.028818968687266452 0.009377365341638279 -0.05032861475756041 0.035843285330445764 0.09989809023974926 -0.11749855621301628 0.3451134610052682 0.6909772173357205
65380660000.0 -0.6108882589014253 0.39051861657382453 0.22344249797849275 0.3375262934459043 0.008139367411409271 -0.010589543745070233 -8.856915460788507e-05 -0.000807531407436679
 0.2578381691537353 0.334416146633383 -0.6479808925655525 0.36133879310836636 -0.009667396991467042 -0.006811162005684724 0.025022839488168653 0.003910061985008107
 0.015588121474011937 -0.0036439326225862984 -0.05598976602168256 0.009777316898741357 0.12543834586500544 0.7888300911799804 -0.038395803916684415 -0.11452109219313798
 -0.00970179703919824 0.013890402343310387 -0.030427651542757457 0.001835289931682659 -0.03530031720844097 -0.0715923567538221 0.33143680986413687 0.600381637647541
65450650000.0 -0.6824593825647511 0.2970335906281822 0.17697246313193382 0.3944650757661037 0.0036149370250617937 -0.004040743121384234 -0.010373254564046506 -0.008853742783252511
 0.16148966877496035 0.43372582909117846 -0.6417117149648797 0.36718015963909456 -0.0042316507456420915 -0.00496032113212015 -0.0054722644799419665 0.014396981082954077
 -0.024482654445767298 -0.010168341877037017 -0.044946082567778774 -0.01987486295561684 0.2575742779703187 0.7602852313053478 -0.004764157771721057 -0.05404357170769238
 0.0034536304835549865 0.015047008744267055 -0.03787836702193876 0.018637646082104675 0.09117024570857342 -0.021333716825924727 0.22835698811688157 0.6697017328156801
65520640000.0 -0.7201474994140519 0.38848936939931134 0.2271395254380691 0.43034008477633356 -0.006554467296939611 0.00612976516211703 -0.007868457766028809 -0.004928337501338776
 0.2217323922320826 0.4384862947960869 -0.7104133598108211 0.25727403489485107 -0.0016676490665638124 -0.00982652085783403 -0.00599576786598961 -0.0003051383672985954
 -0.016623750371825067 0.021114021297474233 -0.021268954729010907 -0.017974678397086236 0.26535006775468356 0.7249678738861993 0.2434600305479336 0.07690100152682043
 -0.006872904180735315 0.03531623137993016 -0.009982705224937796 0.03416940202855487 0.11139033605493448 -0.027696812707977282 0.25208818541007555 0.7475001118666537
65590630000.0 -0.7162299375050027 0.332086131500881 0.2373120442186857 0.3838892719063182 -0.0014461103623672894 0.01525128489959126 0.005353416637746845 0.011848270774996622
 0.2351016435727612 0.3843240185959958 -0.6864772065238838 0.38790627804883365 0.006204020441604097 0.0007232559181726678 -0.011225116376831441 -0.01933601927323182
 0.006364834445718581 -0.005066495413773344 0.0001060259476844849 0.036093053575873786 0.2921768330477943 0.6978296653463656 0.2680094093405452 -0.23476177712990556
 0.02073995464896933 -0.0012840076246501864 -0.0509366785874544 -0.025343942118012674 0.2227021148363868 0.05262583486308161 0.44949976895034904 0.6915837396669797
65660620000.0 -0.6653642963788041 0.31621859520284906 0.20192260634852086 0.3680049797321618 -0.003704220777259046 0.0011269750497936656 -0.008638443067186334 0.004805884229823843
 0.14496048166641448 0.39526786580290935 -0.6815881780243753 0.4103235272804786 -0.0006968103281576351 0.001653702107278361 0.0025939965419795982 -0.002601959733713131
 0.01380363038895029 -0.009694121328462325 0.042157102522852624 0.0014862984134580085 0.19974156269625026 0.6658378994900807 0.19687521925732307 0.07581378486636964
 0.015970320482099277 -0.0033333834382748046 0.0340316052763322 0.034491528366690304 0.12324163134761985 0.18081457404909768 0.3949731873233533 0.865727581593392
65730610000.0 -0.7068096774806035 0.36640194424982175 0.1762444084695153 0.382115794197483 -0.0103601706478337 0.017145754021789483 -0.0024509695757692226 -0.004223759716663101
 0.19788255894892953 0.3789104131299396 -0.6408081807993135 0.3465429543791922 0.015180695197471273 0.006511839898411069 0.004473676743719658 0.01163089975242081
 -0.004275155597031625 -0.014623966037306393 -0.0017681309620990572 -0.04722335035260613 0.18109392448699663 0.7618553427420421 0.2277485415187756 0.14620859715180792
 -0.0365105697707587 0.027428957536169963 -0.08854148200179537 0.036518031542266606 0.1837589764887201 0.28963915231337295 0.29701452326641525 0.684925354287546
65800600000.0 -0.6415164030528387 0.3205014047648547 0.15723739396078956 0.33056029441865414 0.0013869872750344387 0.009025313693496748 0.00996678513154066 0.00018512664266428505
 0.16664908312877666 0.3863538606910015 -0.6889170925865356 0.4261651927626911 -0.028039112287563995 0.018203107732555564 0.020959633046358506 -0.0020066692824730163
 -0.01716736453811304 0.02231313504754211 0.03627795941634098 0.00195880723613969 0.5639572374055062 0.7686113396020725 0.19223074873756965 0.07568671072619136
 0.008561397568036717 -0.013426474286079838 0.005357788623368466 -0.010998747907976818 0.1439464925150338 -0.08958743737736996 0.29350189257145154 0.8075776638457349
65870590000.0 -0.7294009765127931 0.3280139217983227 0.2785450338365324 0.42062952570505235 -0.006276059824508419 -0.0009566842486068425 -0.006674606047723951 0.005950138683858301
 0.16376109648795417 0.3584957837075183 -0.7954614745840187 0.5871829885290434 -0.013998185689014985 -0.004105770549993882 0.0014389115439191482 -0.01141271190211033
 0.023400514046430558 0.011972447497177158 0.058551831090157304 0.05697451097464126 0.25373685887723607 0.6374577636273376 0.13136654953929813 -0.18161887965732088
 0.007141500893282887 -0.007245101383336254 -0.030069629556824056 -0.025615341703174827 -0.014408196170979472 -0.10355837898011655 0.34751084740933125 0.9042733709288341
65940580000.0 -0.6950519846237154 0.22917897730427322 0.2151411497784892 0.3684630880029676 -0.01206544792193399 -0.00660402504176726 -0.014788682715864095 0.005754540485577975
 0.12613842639715855 0.38213747142812954 -0.6742536962549247 0.3156153723335434 -0.0012185887454348387 -0.020661386322107518 -0.011115963314213257 0.0004896293101198922
 -0.006026642649824962 -0.04096922873920136 -0.02877612714131543 0.003926183368162013 0.25165965553627806 0.7438157377550717 0.044871682122582246 -0.1396740776405826
 0.014948156796388563 -0.005772303356696326 0.01895816492573411 0.0290177142796452 -0.04303487309387544 -0.07808440071979317 0.3243478453808946 0.5804732190005346
66010570000.0 -0.7388419086048212 0.2961201603662207 0.1677295831174011 0.41508980208065543 0.010770255615077636 -0.004409723956855218 -0.0008738329665568462 -0.009075301567576233
 0.22938172396555373 0.42017668894921756 -0.6560631268278944 0.3354413142881521 -0.00011480773577667804 0.01258406424273779 0.02298189804134863 0.003588784022580405
 0.016964809575728983 0.002767707874472105 -0.011586598688643587 -0.02554832256737935 0.15657648280552852 0.5597603136562608 -0.11337774293605965 -0.10993938146948917
 -0.006695860141505363 -0.0040327803194620555 0.0449213701177946 -0.03125373361029414 -0.05082821744781476 0.14847652345885742 0.24978326206727447 0.7992968656555707
66080560000.0 -0.7283809723846965 0.375370893804119 0.297482289032531 0.40308112970091403 0.0016940141012933587 -0.009478631848882448 -0.015720058044149547 0.013469055931109274
 0.25495097937190747 0.38725336519488723 -0.7630419727865162 0.550274640880835 -0.007888404412560607 -0.0004537650814470718 0.0036089997326785883 -0.00852619937455464
 -0.028267020727786054 -0.02794795175764995 0.030293071419446607 -0.05612429914634673 0.17540298678533808 0.7817265731124499 0.1565675162152788 -0.11840863401999446
 0.02271857231191479 -0.014762758841858868 -0.08333997050200695 -0.07463475651599656 0.012021716358907343 -0.01491737720728049 0.369794516094618 0.8618902537238285
66150550000.0 -0.6146979245782765 0.42970022363451027 0.21347536033195647 0.3511703147574247 -0.006157922661097391 0.009444684819766009 -0.0072495691777873985 0.009211500469981081
 0.2473360217416794 0.3377736872817692 -0.729940946764379 0.3738238924956829 0.004102838635472407 -0.012594627607636294 0.005603521527918496 -0.019073677011441727
 0.0083045260126628 -0.007390528767019416 -0.004778031387724326 0.03435035805142757 0.27892486885849316 0.8634165340521235 0.07727479339444919 -0.025662574052078523
 0.05336664399167657 0.01777407414504686 -0.07180874550713262 0.029976418498252135 -0.08966381847054072 -0.08532365284143938 0.1671482831109455 0.6648185407694186
66220540000.0 -0.6963748614946603 0.24552332419822553 0.17565527536652994 0.44846156587193586 -0.011553511172686942 0.011788298775693148 -0.007150877563409257 0.012844531317041531
 0.1752605178744198 0.41757609026850234 -0.7549975424895506 0.3463058294017844 0.012649354685186806 0.01028367937937366 -0.003668759052179645 -0.016378974141402665
 0.0028943872173220137 0.021097746535149373 0.06587270545824295 0.042920893222121226 0.17801184735250125 0.6192926635303285 -0.26329249156327267 -0.19997810766910712
 0.03866759070020991 -0.004131024563206118 0.026766834037965693 0.013851768608937333 -0.08770749692546077 0.11897355351943438 0.10606310026094902 0.7107046619410087
66290530000.0 -0.7068224994718383 0.33971651868239394 0.21045056929045308 0.44211644726715926 0.0017469147092744686 0.001652559696750541 0.005005513194725162 -0.0012190927380228685
 0.3038652242463299 0.3850257214801784 -0.8167197612772839 0.29345927352842777 -0.0012007693186932315 0.00948701065305402 0.006397909364200949 0.01652931202900973
 -0.0025289694825573307 -0.011791266985028828 -0.01613859133530468 -0.05521006670956909 0.2589093768887481 0.7419088471192468 -0.13026881918699218 -0.4093847392343224
 -0.03751820844983302 0.008729449082410164 -0.0043298433448422605 -0.05308454937653942 0.06083661082182987 0.23104644602270102 0.12018431847224537 0.7460179850994701
66360520000.0 -0.6794918458904193 0.30319454236058435 0.19222723722840374 0.4562843594487004 0.00033072840079715395 0.0048768243866032 0.0052422046161593695 -0.0036638994504766993
 0.1756047965706235 0.40772058929532534 -0.7335017563810284 0.3956653344181885 0.001713321591000523 -0.015280143325573434 -0.014936343487294806 0.004091697671124559
 0.01419741945247381 -0.006988274223536066 -0.022472841958581572 -0.037458524993177936 0.23536095332506585 0.6524711203274497 -0.23546925735728447 -0.2475178180151877
 -0.013666772274928619 0.05268461955013727 0.010378141780897741 -0.09265884139331695 -0.0340801801356083 0.17794746362495675 0.1930662687574098 0.7413938662029032
66430510000.0 -0.7925716965421553 0.30594398690086855 0.26903723525871015 0.5188026926958073 -0.010172429665803803 0.0023974817570061803 -0.003739834515503158 0.017915479977743346
 0.23084993201164322 0.36189358282765816 -0.6901823802280057 0.3115147372588254 -0.006106528835339839 0.0009010476473385671 0.0020988070779078757 -0.016382164300488476
 -0.005497646422329153 0.03193157173179133 0.005459124112954976 -0.01462042618054308 0.3652738438204064 0.7089065454763276 0.16471283554793567 -0.2824584941701128
 -0.029629936499080987 0.01836332136196955 0.018406778553868144 0.048114526658994836 -0.18811623835807717 0.32659915980975784 0.06630868962225545 0.7757466556915694
66500500000.0 -0.6880911147968634 0.3156881038715488 0.13015060154346128 0.40479266907682004 0.002196931779415818 0.00046362374302683724 0.003928056188902518 0.007385266897323795
 0.15513746597279782 0.4133874901725406 -0.606485337692238 0.22141774435544206 0.0015392818622379833 -0.018633122197061678 -0.010326147648195073 -0.009192021268985873
 0.010457325722732287 -0.01789699514319575 -0.04555935295763319 0.019859712635083696 0.2935042782207986 0.796537445026458 -0.03890350215708856 -0.1762654599944453
 0.027059209998777888 -0.029639069804611146 0.04306700921769426 -0.0034347066021110685 0.0483330918513239 0.11214315636195434 0.3527768078266999 0.43952360556898723
66570490000.0 -0.8192086475808037 0.3584365288737632 0.20487265455502165 0.34554447734886207 -0.0050933727358612475 0.015696667423507324 0.0029666283906554926 0.012775817586323764
 0.2641730892608366 0.39111885544049363 -0.6828428223711444 0.37138324098653763 0.018345223272709873 0.0013610683133574403 0.0056806051392024595 -0.023977166072527367
 0.017582791153476048 0.03159328470714064 0.048078447034189016 0.004251717858799031 0.3439908997313876 0.646526158937042 -0.11650014973636208 -0.007683608394758644
 -0.01824393143248222 -0.02111574744167397 -0.06542700751535946 -0.007713576736195379 -0.0944641444360017 -0.019878479615577975 0.15122884560059002 0.8068621258917598
66640480000.0 -0.6446034398668736 0.35799224432844845 0.15246608578045218 0.3875600766281575 0.002636602704401585 0.005557247565644748 0.003411056576533738 -3.0250252703745923e-05
 0.21181992619961734 0.3724998406368378 -0.6321092118782337 0.3485142030617761 0.000492943410055763 0.001223990210299402 -0.008146786597622302 0.004316778900542362
 0.0049470233256629845 -0.011951282217072541 -0.04709092679689472 -0.002803490150190398 0.37481284370753526 0.6343784609624089 0.130785568378133 -0.2600940217053631
 -0.016568170742740588 0.003086883289949309 0.0023805123182196975 0.004199639843888305 0.09858883918228713 0.1752001525800559 0.3438768836547116 0.7361203098242219
66710470000.0 -0.7126178317127163 0.3982196788446167 0.17147344418411475 0.4048508645431902 -0.009173513092094503 0.014901249316962474 0.001168202586532348 0.01190131158137853
 0.23258297316051682 0.35001236837145483 -0.7289023536624983 0.27296631389662285 -0.013595456426591454 -0.00019178684353646938 -0.017420094785019317 0.032876270506080746
 -0.01668581734193299 -0.012352940566829207 -0.03424841194562676 -0.03358855991060505 0.1563264946239835 0.7142954373273053 0.04578938796581955 -0.23448750091488105
 -0.022303427841742232 0.017449746188084307 -0.011228747886094998 -0.04659444373253187 0.0744948726718341 0.15523797164627812 0.1537437138280976 0.6977403943272235
66780460000.0 -0.7234030891309118 0.25840630769756295 0.1576689556099127 0.37587471153599555 -0.020929042887923764 -0.0014428734978737061 0.0011231851190491972 0.014832346477592875
 0.15944336321453179 0.4003577419816609 -0.716756848048304 0.32641681295684705 -0.016914692515769866 -0.020259187599164417 -0.017700771588824993 -0.019388419846714768
 -0.028724813765861733 0.020032373028873413 0.06635531630268598 -0.021758578688181856 0.09480609128638622 0.7481078895149598 -0.18755997629935012 -0.09916208699219002
 -0.045282899245210395 -0.008462767169738894 -0.023702456342618982 -0.0482217922744457 0.19553251640313385 -0.017661875261125067 0.21912045333897642 0.725785761920951
66850450000.0 -0.7129142130605897 0.356761208601688 0.2552167557631254 0.44338308353950634 -0.013257603774281541 -0.0002128497373244904 -0.0024669633143943755 0.009048405508073305
 0.235989994465523 0.3885406760623829 -0.8612064598748083 0.35376677608033036 -0.0010503794345087644 -0.01747795605844983 0.0026464193729618104 -0.020758362842221083
 0.0010504732573645215 -0.024845667883961812 -0.058490143274376696 0.012554897199921755 0.12032059575127083 0.6899085546542166 0.0841246819733551 0.00928014849085004
 -0.010526964412579077 -0.019617739935443936 -0.05783398002017755 -0.06628162238045097 -0.04813778831410322 0.07064519991972715 0.15085890360325524 0.7121711962085655
66920440000.0 -0.7128496917021282 0.3782408912469812 0.2332007738608825 0.3888435555080938 0.001398495427466528 -0.00745351084879241 -0.01481894129411505 -0.0024398159630060695
 0.1823238880819878 0.40069969207425765 -0.6179391888020414 0.49696550359815883 0.007699952349141225 0.005906880361690391 0.025014707050841942 -0.011258778443658546
 -0.0230740447929878 0.03428852633153263 0.03890297081485433 0.011237438211986053 0.1420280018208269 0.7243597497802086 0.2624578853973366 0.09679007455671015
 0.038642981153853506 0.03415346067777307 -0.02809770112360611 -0.06329836424509555 -0.12538138776954258 -0.023785583029740792 0.053073433737661276 0.5966838349696764
66990430000.0 -0.5080304668694076 0.41290049715407956 0.32936967405039075 0.3112758622310584 -0.0015465576511313783 0.001984396239066209 -0.001986549602295419 0.004565721943867337
 0.16049597122192666 0.3846408132734417 -0.7483668915594197 0.3108425326817704 0.008578673490968488 0.0037618998955804292 0.004162973177717523 -0.019248219109386896
 0.001680817676149355 -0.028385690303861514 0.001480204830456061 -0.004214126296545103 0.37044886460757054 0.8792678099041004 -0.1331278037269938 0.0853841971777294
 -0.02792789989336542 0.030582165860000687 0.04272476238534124 0.08743013331455665 0.057281751119555045 -0.02303761528311307 0.2605487086274463 0.9345400521285976
67060420000.0 -0.6443218513028707 0.4317903909029897 0.14259278354408864 0.38651486037577 -0.017667674688430283 0.006795149400759965 0.007241034061510308 0.006907330186178933
 0.24716167594528857 0.4200900344232385 -0.7148622980625245 0.2606549708441074 -0.0035134615187437535 5.806445463560754e-05 0.007992579861887372 -0.024868171206553148
 -0.02826218480387275 0.03730633649582883 -0.03976206193790143 -0.02683590686303299 0.22989305988241007 0.74762727544081 -0.18037796597858158 0.14652020787778836
 -0.017233337335500618 -0.05927274201000921 0.03070453895934332 0.0030238587972316504 -0.0966752506335308 -0.1280825016540955 0.2058515825673146 0.6516466219498596
67130410000.0 -0.6478095936293174 0.39218527832907696 0.2552623814047025 0.423802067911233 0.02002495722229583 0.04067715990882292 0.004271999868675847 0.03458597751341694
 0.22704501086576265 0.41121719513042876 -0.6638130221283218 0.38901617948017186 0.011036827752998435 -0.041878709798741885 -0.010370040131942614 -0.04887486117772137
 -0.018001512330516393 -0.018579298841848467 -0.005804549777859088 0.030209322939178045 0.4752641138948703 0.745361384786581 0.22677547700706488 0.12937106473440882
 0.030306437040883868 0.02180106199184418 -0.10594609942410588 -0.010518803583388586 -0.0008524966081444749 0.1689403815659491 0.3773028028136669 0.6411040203709097
67200400000.0 -0.5300303726343542 0.36929652841253646 0.24202889192248214 0.3527310542385286 0.0008427993210717945 0.00677365502382235 0.0014922822214493703 -0.0015916351780850442
 0.29569101658250097 0.3587686045395454 -0.6882272192450114 0.5468153051298693 -0.007331047018790403 -0.005402248225556196 0.005240119753312845 -0.007134915717652496
 0.010110082224575512 0.009955259957043905 0.07496779469995625 -0.024315658409288038 0.3793025142243685 0.6679217005279445 -0.051606839166977406 -0.18120562680961594
 0.02447394451626397 0.03310205758536801 0.0337451319004167 0.06660010937969359 0.07146502683176065 0.04750887081241722 0.36380874887077624 0.6573789117058224
67270390000.0 -0.7784390828223069 0.46256171104575633 0.20661227776560823 0.4287799007389532 0.005684827343582711 -0.009138310702172981 0.001215622135790369 -0.008957517240443125
 0.2202960036404786 0.42591081292600147 -0.7223968448261244 0.37877802045162634 -0.006010067421552524 -0.004326549809662207 -0.01065025616448959 0.004990916713269467
 -0.002260173875451146 -0.009343009843461984 -0.025392470725124926 0.021059458844350957 0.3024059839701039 0.5353199227128622 0.01266519074601441 -0.3247140646625671
 0.003271161023633742 0.010307162394346925 -0.026389353365364625 0.05214544024187779 0.07969832228839156 -0.09474148144658673 0.42297282872380504 0.5267963948252924
67340380000.0 -0.6243736602892908 0.37089841985752586 0.17230579322836712 0.3539443939437301 0.007477763467704413 -0.002316047406111111 0.010575999637575316 0.0031631720775500945
 0.20412632369460315 0.33501660021086066 -0.7326655288042753 0.33888976370894663 -0.004974875866824604 -0.021327999161009813 0.014265832944158782 -0.023907016379706103
 -0.05792267485829995 0.06448678321979966 0.02389991014840711 0.02807333401245753 0.13783099404323026 0.8440491853184605 -0.014450381701151115 -0.3127118277800911
 0.014837476285901974 -0.028775419841713293 -0.03109959251235954 -0.03197639269595848 0.027788877405012475 -0.10185262369009786 0.15310773059988064 0.5035548454747629
67410370000.0 -0.6555467508443794 0.43924806611365375 0.15922951114785988 0.41108457510920804 -0.003186730322396056 -0.0074799737404537886 0.008476909722985594 -0.006473487458862474
 0.28758646283895933 0.3736583488404117 -0.7238966806871173 0.30256910932294245 -0.005531245693031365 0.0010338056319834333 -0.011032839610143716 -0.03278152689161583
 0.009033367107702823 -0.010833799466249332 -0.04179781338399775 0.10197544307265813 0.23480663254714665 0.6788665435350273 0.3043460903437737 -0.43507391488019026
 0.020982308987793026 -0.01546502154103768 -0.03843061632229343 0.02882621374169146 0.07001635655906804 -0.08296674549111721 0.27837509755936296 0.6820002273761435
67480360000.0 -0.6143726945127695 0.3056966328561431 0.2241658629862895 0.3393353551601385 -0.0020890066833348904 -0.006565617824036457 -0.005373233362126096 0.002246702589708717
 0.1528199570730777 0.40468173473173547 -0.7448103971969244 0.41992574967083757 -0.009354218814797912 -0.015918153167368457 -0.03144637853898919 -0.003374582335334264
 0.038701321649095 0.04565261950175801 0.09618572740787222 0.06956143131323543 0.5767002320947366 0.5575896755676282 0.1035267210905924 -0.07414953278413815
 -0.0011231414932750129 -0.03320398353304716 -0.04588797214789256 0.03177694517137762 0.09371318771331502 0.04247595522380841 0.3341538770649359 0.7774824693466993
67550350000.0 -0.6496365148143189 0.516575776524439 0.30347535639196405 0.3383099348669496 -0.0032307693430043004 0.00044617997154562444 -0.008900275923138428 0.0013661785735940334
 0.29287752359422353 0.3768033802572713 -0.5790024704896171 0.40162040768645757 -0.008891459897950987 -0.006912844710093823 0.0006815727130256805 0.012408329550590774
 -0.021338473473577382 0.06630487703464752 -0.12573863835797008 0.10327847173436423 0.18383856241239002 0.5165636546025729 -0.008556672832473187 0.21783226156355376
 -0.007614730572841391 0.056623406491536285 -0.02329825686061979 0.010363698712267307 -0.022414895730795928 0.00923696845394749 0.15869429618173367 0.640229800173694
67620340000.0 -0.6302265989417564 0.3957037654401205 0.24254503589553403 0.30912831881854114 -0.012148269718362793 -0.008459566012095845 0.0011034636078211175 0.007039401060165271
 0.22018572103502498 0.30111295855039455 -0.6426366515176447 0.46080065380751906 -0.0049214781356079875 0.0070522550536916626 -0.008594242361880498 -0.0021891753282801078
 -0.04254401056902245 0.03740254194069006 -0.2252329721672385 0.16806517215131114 0.3520358345461277 0.41713783134675003 0.005584178866418657 -0.0777658986807164
 -0.004641792693683389 0.0005419674384718367 0.058886299678419074 -0.0592384952272138 0.07451802942650902 0.0030254153617970767 0.4289641699367476 0.802254938280002
67690330000.0 -0.7130750790071028 0.4135264470342618 0.09320570722143115 0.36072020616023304 -0.004604343953783889 -0.003632065988663684 -0.00891541863549616 0.012269399785671336
 0.13229125529499763 0.3193536454481011 -0.7894534209470916 0.3440721289508574 -0.011370271529165836 0.010836848757596926 -0.013340790126545786 0.012141228164790994
 0.03573927072708878 0.011355168079829309 0.09062045191155876 -0.08574608812125568 0.4944853999458551 0.8488736976319678 -0.008336239474544281 -0.050704429667164805
 -0.006066099830817902 0.01038583700629016 0.07749000600195517 0.0022053251781636277 0.3104896877208002 0.1656782655354878 0.276742792670747 0.7340076602767928
67760320000.0 -0.6310984781377409 0.3775819851312129 0.20139249322685954 0.3234782056220041 -0.0011605574427912524 -0.003561989582109702 -0.003740771478188285 0.022582544001834858
 0.23936746790616026 0.37000789470913437 -0.6066527853777011 0.31588419972648013 0.014424983249837724 -0.0007604730898471291 -0.003023671393433501 -0.015052679066829585
 -0.004555088510713733 -0.015917245992825506 -0.05128851790961341 0.054160486168518235 0.1371181687594959 0.3581383206976383 0.0964749246034538 0.0699119017556462
 -0.06070018302627604 -0.00678330076704133 -0.022316104897180934 0.1850219672690903 0.22891604732399048 -0.13522326089657621 0.20962576286202825 0.6411397555028922
67830310000.0 -0.6013958391383122 0.3619853745334609 0.20649403288355508 0.2534245668943253 -0.014887681462444353 -0.007808486130917576 0.02557718084805145 -0.006509853667715923
 0.18242412378316913 0.3095629899873038 -0.7151087066382958 0.5228956963624064 -0.004589624978529875 0.009263066725235717 6.006690214101702e-05 -0.037707648406597856
 0.064797778916674 -0.019758420282964435 -0.0257408764047078 -0.06687301394043062 0.2823681064240752 0.5716758083637848 -0.04479331223213321 -0.1451988708439157
 -0.02577616814204316 0.03278638802789267 -0.0096921563245529 -0.005690448063645646 0.1330256315802704 -0.2534018505984596 0.40942288171699626 0.8789416133755897
67900300000.0 -0.714007603899505 0.4811818636989861 0.17262810558588593 0.3812367434992268 0.005963459459354118 0.016586714119747617 0.019695782070985098 -0.002912538611643185
 0.2295402533617302 0.45162773827406805 -0.5819669868665994 0.3889328426063609 -0.0022953732863337877 0.010820982638114766 -0.008227190502580545 0.009474147454045451
 -0.029585807322755397 0.010321978653214858 0.1447769241803896 -0.03918178307150529 0.28059830427779575 0.7785956390862596 0.12889990149141506 0.31772658266996373
 -0.07356254517095284 0.020330063202496133 -0.05726647915998538 0.03002644268288981 -0.20001853690921065 0.03168483402001732 0.47663986727316554 0.7685646828615058
67970290000.0 -0.5858899885049744 0.41495452837915203 0.20903558767466474 0.28411179415428656 0.002743177295105243 -0.0012634246256608868 -0.0030632481559063687 -0.0017358348115628166
 0.23287993043096045 0.29376657369939524 -0.670398688408271 0.435481781852905 0.011728847849941918 -0.007094661602480161 -0.03146523642538921 0.000747453771696129
 -0.002720475773661159 0.003425883660032367 0.18851971845394366 -0.17103291546762212 0.15190317354597793 0.6934692646888253 0.0017911135326699934 -0.2256549265880607
 0.04831199788372052 0.023568753281849097 -0.04288343472019127 -0.177072255875038 -0.1233140722986552 0.0632741924826047 0.9371429429017607 1.1146363068562102
68040280000.0 -0.6410202105722783 0.476516835428063 0.24520322306024303 0.35693596568578023 -0.009412107036266156 0.0050251115894733075 0.009280426722228112 -0.007546003710953618
 0.23676925505932273 0.36932943002679164 -0.700304217832766 0.45060461244564304 0.005964302256173526 0.009250586763109843 -0.017197952594894227 -0.02054307929001489
 0.00021823868556163848 0.000514808744665542 -0.16808183995272408 0.059609725079648956 0.35341335906681937 0.7281106715221437 -0.17979529619778473 0.11028318372955628
 0.01687007912149013 0.07802021806336262 0.0813232044633888 0.21876756774192127 0.007949597187477333 -0.17691636339880926 0.4734622177093341 0.45407042832391226
68110270000.0 -0.69201113834351 0.5758134340890645 0.16574519277285027 0.4573990526509669 0.01014944201054288 -0.009245233924331407 -0.016268337257031928 -0.008558098718891238
 0.2175818781321112 0.5269949163661785 -0.6525080348715012 0.22196157756437704 0.006245878873574345 -0.0029287922560303774 0.008612161859574467 -0.0086563762869446
 -0.03269502823954415 -0.07785027460263011 0.10024208311459802 -0.04899238111270023 0.12321629282484373 0.8075975149128196 0.31618878073904416 -0.05814873432244166
 0.0466519031976483 -0.004975623142153516 0.03228859588079085 0.06844502241163646 -0.18316234103606782 -0.150714831109766 0.6169826179119721 0.3949208951698735
68180260000.0 -0.7226670575056529 0.43689422720898097 0.23246842009260615 0.34473802192772623 -0.008417111286731645 -0.0012300992969312733 0.002470249641119605 0.002514033920929673
 0.219706055819743 0.35478331094099624 -0.7777171999676352 0.3339246686632839 0.005836368074378319 -0.004094084551753106 -0.011926602550100028 -0.020409852367996483
 0.03145201706380138 0.006110200596160222 0.12105292451776437 0.08195070312373444 0.17316657202367075 0.799326910568618 -0.014937264292585793 -0.20341558480368094
 -0.013860707496624346 -0.05806382132734588 0.061170327957281875 0.10780424806557212 -0.06653534778004645 0.019713467979184364 0.30137933621422636 0.5894470446001966
68250250000.0 -0.6419738140460459 0.4663733461616713 0.14638878324743168 0.3417336129384953 -0.003878481852013259 0.00589939687477797 0.013712999461570409 0.014409084343023027
 0.154882573271456 0.2940423873894198 -0.6796622099680611 0.2650097210781221 0.01990799386139214 0.009060978700682404 0.013319365674432876 0.01819854540326044
 0.01473159932448614 -0.023452090138136424 -0.01771226894813599 -0.015889073842831485 0.4568124208460227 0.6975863299936161 0.012189977165157441 0.010519277252018398
 0.04675103201888692 -0.022080546432654443 0.0019053570028249667 0.17072139623038396 0.26626634334478444 -0.01802396516607272 0.40599713492607786 1.207983214741979
68320240000.0 -0.6116973924807881 0.5014677366715722 0.226779579186546 0.3275141141044682 -0.006384538981129104 0.00967380509192276 0.015261263411122106 -0.014444301701681038
 0.22577122674236608 0.2998802535992562 -0.5625652468470053 0.5227733766498621 0.0062145225081674275 0.018072103573695486 -0.006706882815392964 -0.019902322211933835
 0.049058804513719044 -0.06255385819945189 -0.14197367024655186 -0.10049320370886902 0.41775815091300034 0.6731252380309757 -0.0653471435876761 -0.24446244781613496
 -0.04116042108181332 0.014090355509607792 -0.0014754719130736147 0.03211771997066646 0.29375250494300736 -0.07687177831788518 0.49003409189350944 0.8925232992794917
68390230000.0 -0.7360818988640204 0.42935464025136233 0.19493859362622554 0.3606863501043165 0.004835446215030752 -0.001543074288079185 -0.012295428440934654 0.0054829966046942985
 0.13364193610911357 0.2901795806063264 -0.7188261964774681 0.6284542089660596 0.004812266855305835 0.010936656588289826 0.00897497461702206 -0.014538844430408968
 -0.05252752375969854 0.0072466580215483955 0.06435780224825854 0.1541579642816195 0.37034665455826743 0.5070939599160388 -0.10088267988399754 -0.182815017698831
 0.004363574320410073 0.018784087419658212 0.1708505069369907 -0.1618241333911872 -0.13220575597118667 0.16297358610954044 0.31130836263101264 0.9300854030137794
68460220000.0 -0.4736440690733891 0.6584564922134392 0.19994337177439495 0.24620115498837492 0.013517149001789042 -0.0061462781357089135 0.03298093200435877 -0.021625065538787347
 0.2264730387985411 0.2549123208776705 -0.534193625402381 0.4247082868575544 -0.0005406970370727277 -0.01087894450634156 0.012376125018347974 -0.0077492624497369844
 0.012703443407905244 0.0011611072159386704 -0.08027323391844535 8.448227484730316e-05 0.16040122721807878 0.9017242881206303 0.29993072245433844 -0.3684825909772902
 -0.06445108089741915 -0.1405788520924903 -0.18111862269902268 -0.18424524526641498 0.12793640956501498 0.24181084662800018 0.3783943548697719 0.6946868485849031
68530210000.0 -0.6516458269376599 0.38270522817461294 0.17534903826754164 0.37858387342474487 -0.007443101384830934 -0.0038025021062777866 -0.002707226816577509 -0.008569430691853305
 0.050389401842815935 0.2727756317910655 -0.798993905764642 0.3499324267439175 -0.0036917202437701272 0.009059705682331044 -0.02051434476835355 0.016571560111316656
 0.03458611100533473 0.10465195060353424 0.15103166124777012 0.04988169611225055 0.4501076689915828 0.7519932010424164 0.1258076431745498 -0.04163978740545516
 0.018231818898612976 -0.0006243462446946666 -0.145568285712614 0.16852292430037108 -0.0747087049798064 -0.023322964681399064 -0.08021376443743145 1.1862652316161504
68600200000.0 -0.4579502926179613 0.2422133531502995 0.3517358435561116 0.40750585707102066 -0.0030425613548575067 0.0085559386839773 -0.0022431828676060263 0.031012040678008872
 0.2123977372212707 0.40016268652557857 -0.6529564663114779 0.4395365112309317 0.0026883460717183052 0.01986541843740167 0.01965343397073886 -0.03994916539299832
 0.00765895001375316 -0.06666985721668174 0.13158185021475305 -0.02867832067095401 0.25658457696057274 0.3780075473336908 -0.08135020948859874 0.15346564781034328
 -0.12381254826182554 0.0037849784353871634 0.2305371128943062 0.013314950520396156 0.07683981868256629 -0.16696218104313115 0.3365063373271882 0.45373719541805757
68670190000.0 -0.38370003266675284 0.48750121685234077 0.2570316467551637 0.3149530109204587 -7.320408497731903e-05 -0.000130530340068196 -0.0022623587652822142 -0.0034287028241784083
 0.25624629727742115 0.27292985651905294 -0.5884336829090536 0.49849153867386603 -0.020271120796352068 -0.004633361230372866 0.0026609413719067233 -0.016312053808237543
 0.010192969056615835 -0.06333208746478562 -0.15532095574556407 0.13961814041215181 0.3096295932504067 0.7151285520840666 0.04373210854260182 0.05577725417786374
 -0.006593501875331542 -0.0066437055550890405 -0.057740648653157395 -0.02354988644388661 -0.013636732855275517 0.0725374006877131 0.25960675139727235 0.8209651087681763
68740180000.0 -0.6535247553416854 0.5270756923865869 0.4126544909479373 0.303157460308826 0.004764326922371023 0.00451887383299217 -0.013792340391320488 -0.008869693849644008
 0.3786870949233805 0.24679746696366325 -0.8306394789558577 0.46098453187857824 -0.013775650391636035 -0.005190854761294312 0.0017916969975798546 -0.02317071728917141
 0.0178005598861766 -0.009615911568924487 -0.023053179593961717 0.1370875435083011 0.38889350004577117 0.522214328261766 -0.021222967443277462 -0.06558426980693605
 -0.07471307905642083 -0.01945475494525585 0.13282096864119608 -0.02359779488748632 -0.1342465684984658 0.061736871241666165 0.09641972738634808 0.6723714597652583
68810170000.0 -0.8021167914611099 0.2800677449801099 0.2185915452638869 0.2419810093286415 -0.007235213243409483 0.01115164545592877 -0.019972579359289762 -0.0016955405385619307
 0.3294594694052756 0.34503779841420035 -0.7251714942584526 0.35574135756344966 0.013291515704875096 0.006104004113152491 -0.01804122442298754 -0.010506820435103278
 0.0036507710808127824 -0.03237721904455896 0.02251511192391518 0.12051758957079169 -0.06546683154861777 1.0396881087462027 -0.516427632056221 0.15673338624575947
 0.06924410895715541 0.0023344589361279323 -0.19820833974636387 0.06197760710985504 -0.1378011596163057 -0.32687496796645416 0.9237735392748057 0.3116595540330985
68880160000.0 -0.4856119415692179 0.590878195778401 0.1857681531575853 0.34565393218163487 0.01487748590757592 -0.012743154241697072 0.010382629731800621 -0.003376526284812401
 0.22055122520706819 0.3550335595944535 -0.7083640515150179 0.3571441079946987 0.005007988432559049 -0.028576791010623104 0.005435373419192523 -0.009435819135033174
 -0.06146725315064876 0.04869476791009027 0.04168526286361299 0.16007548226322885 0.4456842462670517 0.6949785927340518 -0.07954505463449701 0.1360318295053065
 0.00920149396837478 -0.0002913892835048564 0.07438375316825079 -0.056506395242466964 -0.22339006799898167 0.06721747215865648 0.1587291034327048 0.719355392649646
68950150000.0 -0.6541515889357373 0.44890041750882376 0.3264361449366726 0.3336913462778471 0.01549767393124262 -0.0057691838268622885 -0.0221780480706768 0.014110642881122779
 0.20814007152293962 0.28357403142634824 -0.7935939374245086 0.5131435605860827 -0.001546408777722205 -0.04268080735836496 0.03851945215597929 0.02289011282832863
 0.008648442022674835 -0.06575360345802844 -0.13114833329824793 -0.04503257214882941 0.31066851850042076 0.6834085155764132 -0.0032390294337142655 0.1440594503625077
 -0.01612074867029885 0.017196842548740935 0.28686296615812074 0.027458539775608155 -0.2370389935379763 0.028301694022022494 0.45266165740072534 0.6861747774638073
69020140000.0 -0.6357853018423267 0.37761275923433874 0.16412709037881024 0.26068145802600595 -0.01285137290854094 -0.019210059009280085 0.0017207779235057772 0.00826680020189429
 0.14837235341443875 0.31621980151746565 -0.49229213006380185 0.40643955528147224 -0.004203181950716814 -0.017777384729653508 0.02749816286257277 0.017797761517105267
 0.049278050488441937 -0.05508556656006537 0.1572520627914526 0.2418298755980363 0.5490088813065954 0.8010983033011557 -0.0027004955878952683 0.3230133508371041
 0.06267097700446855 0.01866549915615433 0.1508001053786987 -0.019055342190644264 0.03660959199010811 -0.05301064660446782 0.6360950992745841 0.46375245069699367
69090130000.0 -0.5686173022627055 0.3925338351940078 0.24599147906341334 0.47951851312019234 0.00856691166455935 -0.01433748828842176 0.010672987021439269 0.0049116053834070165
 0.2663516566915011 0.46629375329464673 -0.9788890059955597 0.40721561128492745 0.004223435299745693 0.026877752688540285 0.006836605920095623 -0.018890633300033693
 0.05262926480283365 0.0276820666645887 -0.02355026667948826 0.153936002004286 0.6575150122524294 0.5953664705081539 -0.21079679794959408 -0.25630428261134586
 0.1466139114856414 -0.002694293044769579 -0.25184303366055283 -0.42255780880214955 -0.11743763311182787 -0.07080405711964154 0.8681854349308024 1.1362502840482924
69160120000.0 -0.7069024429674292 0.47648508030033127 0.1828044416286451 0.3742685020433079 -0.0008731836357303879 -0.003549270475600681 -0.004245403059122785 -0.01903153216486088
 0.18537416848817143 0.4098348561694044 -0.6347365456176357 0.46695659696406566 0.004494965836444447 -0.021128202464702532 0.0012650622623371372 0.01039417400883534
 -0.0386991424962746 -0.012417932245552325 0.16335265760403475 -0.0023067062092977293 0.33072139906814474 0.7720546753540762 0.021382080077168415 0.23866738509054372
 -0.12854427488696557 0.08025008756940935 -0.40829024257210517 0.10008700375432256 0.0062478479639202795 0.0839621243705208 0.7873633950364244 0.535050429395874
69230110000.0 -0.7217888888219504 0.7207792683396249 0.2096411475403704 0.27357903843823195 -0.023990156542787956 -0.0010111480029281975 0.0026362172393429102 0.010254340112789855
 0.2400360188791578 0.3234266570529795 -0.7022267335493708 0.3635225356917436 -0.010397243808004842 -0.010548446709012033 0.012655037103719647 0.0315224031322986
 0.09754563569190887 -0.0320429645032321 0.05800679889333661 0.20193946723515058 0.7179591363175112 0.8101727537137294 -0.13788313647636352 0.2880745659814469
 -0.13786541365559443 -0.15089989074126203 -0.14232021700802802 -0.02923278353992701 -0.24127612410639424 0.12869797910936578 0.16761857697092106 0.5276631280052575
69300100000.0 -0.6480865840033637 0.3620549207565457 0.26013415460177186 0.2145645081346625 0.01658537285453917 -0.0020017182814986018 -0.014666755094956723 -0.011837707388743068
 0.2842117644234734 0.20565556451398515 -0.478599901839776 0.6290580663108332 -0.01714013958151618 0.0026491148337459687 0.010383347457943136 -0.002379679509613562
 0.12214513165071265 -0.013603474513407722 0.00418144914603915 -0.09258006525403582 0.49347320704984565 0.7859139098810447 -0.35955552863645784 0.21102843342628747
 0.011067363642511454 -0.003501666823367054 0.09841759308064345 0.04054215914962714 -0.054087791069192495 -0.08757115263445835 0.7519525207552962 0.4263833260327862
69370090000.0 -0.905818315815272 0.4966404711305867 0.4501167782355972 0.43463795422380885 0.006297215509708138 0.006147459361764274 -0.014677499526397245 0.016758003990549587
 0.4541157682819012 0.49503684770323186 -0.8428704369546932 0.9965236935097671 -0.0016537637030249912 -0.026519430280074998 0.022923839723474927 0.008676785719994567
 -0.03525732935864143 -0.22095938112977487 -0.02524876084493302 0.05219632056241344 0.09755727990819235 0.94087027187342 -0.7259342804669284 -0.07608612941543219
 -0.15275078137629394 0.08626568990190417 -0.2924937184785811 -0.3440754091941165 -0.13795772191283986 0.17334407808556893 1.0020332845601976 0.4703704189648499
69440080000.0 -0.5296400906754264 0.29278000308606933 0.28792921442325314 0.310374976168238 -0.019946872816174 -0.005822520578267837 0.01886378117367693 0.030578782167113003
 0.23309533021487688 0.29973634924966347 -0.5538545539778897 0.9740338754360147 0.002001216936932844 -0.03922844691473619 0.013633419021264798 0.007580981762920601
 0.015438287419639343 0.0012714558572781164 0.12548460884312568 -0.20790383100124848 0.28037906834432524 0.8443194492703915 0.2882791141988281 0.04329460812032356
 0.0492956678507516 -0.08404330051295424 0.04084556032457171 -0.28785803726624754 -0.20247164464721618 0.03555439219106891 1.0988598996531935 1.146727951754766
69510070000.0 -0.6563842145557692 0.3511584640915223 0.24206140442770466 0.30794289669580066 0.007606785098502549 -0.020785022215960958 -0.01138171466729572 0.024852944495563484
 0.2687710813008177 0.22709258976569285 -0.4858261208001412 0.48297697912958076 -0.018218321895526187 0.017395880816643616 0.023804167971591586 -0.00828624153645917
 0.04677042710995494 0.11495937468746475 0.0942353234576074 -0.05267283923500625 0.10197268220841876 0.6348005279085389 0.21648461412308567 0.06202910650075885
 0.10863532087917466 -0.07267216462272083 0.04021551172524364 -0.3174935856499737 0.2187998109828768 0.0889406009303882 0.24506730444867977 0.4732035376990309
69580060000.0 -0.8432793814991546 0.49330196040239976 -0.012602000538835544 0.25823194633180974 0.016840657965945905 -0.016101550741077608 -0.0051656767177888085 0.05414570508797786
 -0.0019961046031906995 0.27147338636375157 -0.6993925996636043 -0.0003893938859751183 -0.04073577364390532 -0.030906914146101704 0.04491119963372638 0.05922938879192288
 0.04666649376394755 -0.03723468014544885 -0.005435197599895901 -0.05749559990838775 0.5682905329179351 1.2835513040507258 -0.8132746329128838 0.5754406489398068
 0.03251392358292747 0.030727449134719507 0.04227159977296148 0.24165521651181687 0.01846575945951728 -0.06042846313878925 3.7104663427619906 -0.7805118593387442
69650050000.0 -0.5738039190878225 0.5575499911865394 0.12939736790462925 0.2647809592715793 0.021146502492033713 -0.021143284393375428 -0.02988376669244562 0.017322107773979568
 0.10637726274830987 0.27390666875906294 -0.307223454230046 0.35787705453501195 -0.010661073519275959 -0.039763793163254735 0.018388728778456664 -0.006190384664448668
 0.13073748514601655 0.0777494300437338 0.17342343005909908 0.2824882213798371 0.4105872954075194 -0.003248563466806769 -0.06368948667786284 -0.6452393861283555
 -0.16701669211252002 0.0632996324191794 0.0006860893759333456 0.0116445572872442 -0.39809154448161327 0.2479723950793202 -0.05056481300715779 0.6716626276072699
69720040000.0 -0.7641564853866734 0.37951178715165246 0.2903021247501754 0.25482719467207743 -0.0038474153392058065 -0.01383085874179882 -0.02970644391246406 -0.019562879742076513
 0.31258125035086837 0.19320337097992257 -0.44113132418869627 0.42502651420568544 -0.0044578678286816 -0.0012891758199595573 0.045512346265842794 0.012772624073258177
 0.05753584082703108 -0.047631540880211216 -0.1741033282988291 -0.06341798733206738 -0.16051773978466277 0.38724497416946807 0.014039687014134187 -0.0882087092174666
 -0.040432818844958654 0.04592064678080281 0.2269700242578942 0.06824987508074347 0.08377720827466922 -1.01943767801638 0.7548110949770782 -0.044712275259747684
69790030000.0 -0.8578799018328798 0.8301568035884803 0.10985844091517376 0.41606477266712233 -0.012014949460909176 -0.03100688258257285 -0.009044143007242208 0.02330802218300524
 0.23046005485901958 0.501251729499019 -0.5818358565033956 -0.06372036208815032 0.017452609228090943 -0.021686152117214304 -0.0008797747073927337 0.061437491750334035
 -0.05414761551957692 0.06622735543046164 0.23889054748528019 -0.3002048156501643 0.24228555239622807 1.050413357020599 -0.09285034876622165 -0.3424546398648561
 -0.06074621398244953 0.23424380032410405 -0.6052978957362223 -0.21390742610046742 0.3274087355358151 -0.38845797052277425 -1.2296282784737584 -0.1428731345064621
69860020000.0 -0.017942798026424806 0.42844713756097935 0.15398576110760018 0.1426927525832641 0.012980342134673157 0.018983313390015022 -0.0076128266216130116 0.004182349673543859
 0.21572207204954866 0.15272583606658 -0.5918197854674543 0.39813634967146105 0.07725898084982448 -0.03795774494988973 -0.015589344860202494 0.04163953561486239
 -0.08944064362454104 0.03077121776742587 -0.06418581313075754 0.4657190570277474 1.6810679286669166 1.2403963072269502 -0.7892481123362922 0.9859535271149523
 -0.16023251922784923 0.23872465420976138 -0.31507678887969226 0.21601878704052863 -0.32314153768583875 3.129379775081786 -0.0923267667043358 -0.1728117529667763
69930010000.0 -0.5949661111643538 0.5874028293526046 0.13009273266221688 0.1581630489306471 0.00983730712251936 0.008426354604482711 -0.07469160208069038 -0.07343665491402192
 0.14252127814558818 0.1578970473907898 -0.280110579035695 0.24153169636174154 0.023698515481604912 0.00515259029250931 0.03125441738048359 -0.014773928781668203
 -0.004102630772844715 0.03834880484250412 0.06475364625080297 -0.05692849078694437 0.6207574505539349 1.533592719745391 0.9952886983672771 -0.6932595623964963
 0.02587428175422024 -0.021045580810690082 -0.15614760453230805 0.1445274602573754 0.493459682402372 -0.3830423909158644 0.3352828956492491 1.263720738383978
70000000000.0 -0.26429762735835227 0.8466307563433605 0.003196596839368531 -0.2597799467687905 0.005959171125444526 0.026037546285939274 0.03675476674610848 -0.004243454393431242
 0.05174859559429739 -0.27708208012582813 0.3189967936072824 -0.28084427554438235 0.04682869336104785 -0.007907440336978154 -0.02288307395447467 -0.04462004112802906
 -0.2195241632113619 -0.00601875165514383 0.19837349504149754 0.09662917239205729 0.34216877541844404 0.23218809556317715 -0.19764215450602196 -0.0045175700964929285
 -0.16914775241851823 -0.7652133054854401 -0.2935988493361995 1.0957870228301303 -0.391704098753334 0.02605747125943082 0.7624050212243626 -0.24850475643534975
