!Pstart = -2.000000E+001
!Pstop = -1.000000E+001
!Pstep = 2.564103E-001
!
! 4/30/2026 1:59:22 PM
! C:\ANRITSUVNA\TEMP\TEMP.S4P
! CHANNEL.1
! TR.MEASUREMENT
! CORRECTED.DATA
! RF.CORRECTION: FULL.FOUR.PORT.CAL.PORT.1.2.3.4
! AVERAGING.OFF
! IF.BANDWIDTH: 100HZ
! SWEEPTYPE:  FREQ.SWEEP(Linear)
! Reference Plane Port Info
! DISTANCE:          0  m               0  m               0  m               0  m
! TIME:              0  s               0  s               0  s               0  s
! PHASE.OFFSET:      0 °                0 °                0 °                0 °
! LOSS:              0  dB              0  dB              0  dB              0  dB
! REF.LOSS:          0  dB              0  dB              0  dB              0  dB
! REF.FREQ:          0  Hz              0  Hz              0  Hz              0  Hz
! Power Info
! POWER:             -20  dBm           -20  dBm           -20  dBm           -20  dBm
! EFF.POWER:         -20  dBm           -20  dBm           -40  dBm           -40  dBm
! SOURCE.ATTEN:      0  dB              0  dB              20  dB             20  dB
! TEST.ATTEN:        0  dB              0  dB              20  dB             20  dB
!
! Created with skrf 1.9.0 (http://scikit-rf.org).
# Hz S RI R 50.0 
!freq ReS11 ImS11 ReS12 ImS12 ReS13 ImS13
! ReS14 ImS14
! ReS21 ImS21 ReS22 ImS22 ReS23 ImS23
! ReS24 ImS24
! ReS31 ImS31 ReS32 ImS32 ReS33 ImS33
! ReS34 ImS34
! ReS41 ImS41 ReS42 ImS42 ReS43 ImS43
! ReS44 ImS44
!
10000000.0 0.024502118335420972 0.00033615012574654974 0.0009841414956929494 0.0002754942988317506 0.9755714107462335 -0.0013731975295512662 -0.0009894673620231725 -0.000251596044438312
 0.0009883383686248638 0.0002485641095141069 0.01545902048637322 -0.0006604887357557466 -0.0014098950804362393 -0.0002428672724774783 0.9856544647150312 0.00017089032565581084
 0.9760029415474609 -0.0019120853520489117 -0.0018765887872021461 2.1073942786766194e-05 0.022285448649564034 -0.002070646490283832 -0.006397991429618567 0.002729766533348224
 -0.00179351436496993 0.0007840630010464275 0.9852359325272816 -0.001191142269138495 0.007525679425500838 -0.004506854250917565 0.018627006666179814 -0.011612557445501675
79990000.0 0.02505206154914197 0.001400973310828671 0.0015179461221847593 0.0017602462216490292 0.9744620347654587 -0.007705256914594665 -0.0013382605255802833 -0.0013625704513637658
 0.00156179802560205 0.0017153191630725432 0.01541924918617248 0.0004683789922118177 -0.001344437875667221 -0.0013663486092270274 0.9842598553791778 -0.007088657176358194
 0.9765087514354734 -0.006344175523958615 -0.000993904444033844 -0.0012526922953198605 0.02384605441986053 0.0013969760489090453 -0.0014146204078477574 0.0007277466268141274
 -0.0015583197884701558 -0.0011679242119973189 0.9848570997776831 -0.006119982957832459 0.0021736963436600415 -0.00016363643009315143 0.012034385324695822 0.000836484596102208
149980000.0 0.025555815812835447 0.00206870512549741 0.0020554709380746616 0.0027280091471946722 0.9727955011629202 -0.01256104973456818 -0.0021915898191026814 -0.0020127513904431727
 0.0020285125554363537 0.0027384365269628092 0.015662703527716055 0.0007289006200435853 -0.0022238398350085927 -0.0018721097708411768 0.9842840421859393 -0.011204375145560365
 0.9755614362736736 -0.011639826886951121 -0.0023193951284072416 -0.0019217589358118629 0.02488672364332768 0.0051147848517421775 0.004730697846238803 0.003605961162036044
 -0.0022172229528160093 -0.002229298544627522 0.9841911797092711 -0.011057123332277442 0.0033232860076117584 0.0030078729429002 0.014601268082048225 -0.0006431709121337608
219970000.0 0.02593072510231807 0.002127512344541213 0.002389381888759643 0.0035211089895819266 0.9734238903665359 -0.01779661543791135 -0.0024691531142231726 -0.0025303058836663047
 0.0024395714939748647 0.0035229127789014785 0.016000365223553192 0.001428971305833374 -0.0023123203435490985 -0.002042561596291433 0.9830450474907187 -0.016507934034929447
 0.9749179353381474 -0.015926764767850383 -0.0025125007246645215 -0.0022178355563589338 0.024422223567245396 0.0009338991766302401 0.0015110623999920953 0.0026504845191770675
 -0.002579431858846798 -0.0024782571355207264 0.9844779431125767 -0.01593229689978108 0.002993828441358493 0.0032794397546195625 0.015271879931424063 0.005756158395126601
289960000.0 0.02621744810095422 0.0017736739325629777 0.0027246096801553377 0.004261020250691613 0.9717998519902976 -0.02110899131203241 -0.0020748460836869536 -0.00241593032654301
 0.002658247679949758 0.004264943650648051 0.015513796965984598 0.0016499522747856082 -0.0024867210350979795 -0.0028650153452154754 0.982679944470214 -0.02074128013951895
 0.9735421941010987 -0.021036034981905406 -0.0022621058028695273 -0.002748549146164827 0.029565604607493044 -0.0008120125723987863 0.005296283699043204 0.00011908864456202075
 -0.002314303849994632 -0.0024283397544214067 0.9818235655245201 -0.021728704052243468 0.0033550242397173604 0.004688175514489261 0.013669251075864107 -0.002289085734398126
359950000.0 0.026775925377405693 0.002879857429662589 0.002889964654799894 0.0049333288879424364 0.9722056350106923 -0.025005271055431127 -0.003180751167966176 -0.0027873919728645374
 0.002963041174287686 0.004976422894387419 0.016728848605392192 0.0028039753305587967 -0.0028121168136329734 -0.00326204459021833 0.9817193819320386 -0.024700818384691004
 0.9733215711327895 -0.02563072909503613 -0.0028946270455670695 -0.0029356973981632542 0.02319885260047024 0.0027043568276931755 0.0034983156062891848 0.005783004866743762
 -0.0028375849324864455 -0.0032183705138667685 0.9815475921009325 -0.025669076615412983 0.0016047243505836503 0.003532832869333196 0.014847867159155754 0.0004215046566384295
429940000.0 0.027474686006342095 0.0030655962832640436 0.00323874392981571 0.005623634567162225 0.9703575845953365 -0.030379149753056698 -0.002818549090124136 -0.00360698138071464
 0.0031004246798186953 0.00560986112612881 0.016919405319663034 0.004340819119923527 -0.0032928785647462094 -0.0032985846858895034 0.9801876962272491 -0.02962757938982949
 0.9730746692403774 -0.03064047101410624 -0.0028099741603895257 -0.0026981538336272445 0.032695780163556606 0.005206798420913124 0.00557229105529912 0.01095807168004411
 -0.0030802476025711253 -0.003990755784006081 0.9805980158101237 -0.030576025909663528 0.004384046667281745 0.005784905938140175 0.016592083015729387 0.0036192942489264
499930000.0 0.026847472213272064 0.0019444757079330767 0.0032157676172557166 0.006177376837364587 0.9691638215102908 -0.03487752185485783 -0.003666866030894458 -0.004163298893494648
 0.003239447693418401 0.006342936303285767 0.0156746810007597 0.003277792231835983 -0.0032105360938571425 -0.0034994525873620654 0.978796228768662 -0.0336624676944225
 0.9731084065612539 -0.0347911396946463 -0.0040993031544312095 -0.003510451049346985 0.031015886397708834 0.0013813675793080255 0.0001898408335469971 0.010231357343881987
 -0.0031326744531889497 -0.003930448396428211 0.980983254421177 -0.03465237348723989 0.004703819599827064 0.010242136570792563 0.017615879522081747 0.004863013425640725
569920000.0 0.027167133926286766 0.0027717588623262074 0.0037385959449588112 0.006816038712548298 0.9682245374188541 -0.03626055624907914 -0.004694746943873481 -0.003931868138313668
 0.003283987682344149 0.0069437033177155855 0.016785927632275238 0.00509633881762711 -0.002066702859010527 -0.002677833728119773 0.9822101670521024 -0.039848013703780466
 0.9710064670020729 -0.039118335364016404 -0.004126587174933262 -0.004198747194634105 0.03216950565815167 0.006661474935259408 0.006503956897295604 0.0073964695530206355
 -0.0029608461546639497 -0.003765335680417684 0.9812482691398595 -0.03820342722908698 0.002576210469434898 -0.004928908844370761 0.012559382463438032 -0.004679724861400491
639910000.0 0.028898594966665362 0.003385402083922369 0.003514670011654024 0.007032212154862516 0.973099160942764 -0.03814582410759324 -0.0027382466259961223 -0.0023041764807211766
 0.0032593978722855886 0.007592032198164748 0.01841982998917367 0.007528404170880132 -0.004862204713017684 -0.004617657908851868 0.976027722754534 -0.04784333075753209
 0.9709811746880497 -0.03988646464413275 -0.002355523060680965 -0.002385036217764326 0.0068713885965138825 -0.005447388675510272 -0.0023244521491951817 0.001998998428138375
 -0.0025591211641567205 -0.0050481023457383915 0.9751300795381915 -0.04729158211124305 0.006520528945848342 0.002373931895172837 0.039366838994918496 0.013137443902822435
709900000.0 0.027866338205471453 0.0016781616256389903 0.003547159049781038 0.008757577203888301 0.9694648938600037 -0.05010667979809233 -0.00338931691815574 -0.003106335339648559
 0.0035005592557595007 0.008204410706909597 0.017737263528900944 0.0036496746524896347 -0.002001367538603064 -0.004597014691369822 0.9804947963454909 -0.046913837213540005
 0.9717991451037842 -0.0491043908530471 -0.004210054359358313 -0.0053795995123216925 0.036178854695228774 0.004268377576736904 -0.000572692372762962 0.009109814043780041
 -0.00435924387039621 -0.005464191692150087 0.9807915559485658 -0.04887953325213804 0.005330699024239485 0.007485956787037691 0.03395584389588152 0.008655987146241897
779890000.0 0.02744396477928232 0.0023149974242776504 0.003515909079429166 0.009230688972422013 0.9687772869781366 -0.05370873118341318 -0.003358152850805271 -0.0038898535652722487
 0.0036987359742162297 0.008986500005686434 0.018235566665923766 0.004307217185093649 -0.0034910293699745355 -0.006617490522916931 0.9760433969364192 -0.05316009409028544
 0.970106534029794 -0.05400238153028843 -0.004116676830909422 -0.005664871962297267 0.02468825234793065 -0.006739128008194525 0.007459211784274296 0.009959441525500604
 -0.00418270305341502 -0.005803580322582614 0.9795858811463686 -0.053472143916809954 -0.004660679301272827 0.004719206345760421 0.024245346501915798 0.008928670984659985
849880000.0 0.028826113412942278 0.005127030915419027 0.0038095278769412835 0.009786505248762312 0.9691857615664338 -0.05831547255048286 -0.003365562470203449 -0.004313943440316996
 0.003837222313449909 0.009984340033848805 0.01972482412417239 0.006851047049771087 -0.0033489725046681696 -0.006003618455132971 0.9777437339759423 -0.05621809567777608
 0.9695565663986121 -0.057351203502359616 -0.004236373203011793 -0.005017296680285339 0.01892378834762234 0.004265385243293595 0.003958982962682704 0.004974662075781535
 -0.0036602337369521405 -0.005478796274505085 0.9787505292228101 -0.05725619694229034 0.003368463897640103 0.01264350726433299 0.006704820556572625 0.0021062227821527797
919870000.0 0.02939081129311052 0.00340606682857832 0.003885167889406042 0.01047412592135508 0.9652433463558768 -0.06317605935136249 -0.003753867032691571 -0.006418905976814402
 0.004165013165082441 0.010820872014235074 0.020784894677207462 0.004427855058507038 -0.0046368934459925576 -0.00451275759918373 0.9773226426094256 -0.0629777774489175
 0.9699482962838237 -0.06372180377004036 -0.003453108467162809 -0.005614638277522163 0.039673194526917414 0.005265541223996009 0.005461891883366898 0.01182250826495116
 -0.0044184485169811395 -0.004851506145266873 0.9769316761566214 -0.06186178395486806 -0.0028375568540611957 0.008130985756789302 0.016946921597048508 0.007436384672677587
989860000.0 0.028494372797097503 0.0013597140733021436 0.003991970012813777 0.011419891878108593 0.9669756803461286 -0.06721134301297707 -0.0036086637178736323 -0.005943665444866588
 0.004250493555416387 0.011285134562039549 0.01957490427229694 0.00404283064461022 -0.0035325256960515258 -0.00568966156512267 0.975301494906772 -0.06636629118805663
 0.9697152559291752 -0.0662791339485527 -0.0037111349078397136 -0.005699651397290034 0.0360443666300963 0.001354879524885427 0.00475641920113143 0.01341693187477347
 -0.003196287857191936 -0.006170138395985063 0.9759386878361955 -0.06618035019524111 0.0054613889767652435 0.014965703626437569 0.01568142721164347 0.005012619794362974
1059850000.0 0.028927572822517938 0.004199802538661217 0.004261778998742685 0.01214728386760369 0.9648817830446323 -0.07129517348736839 -0.004739737125757208 -0.007516766309199603
 0.004032762701931728 0.01214632010469953 0.019924980499574838 0.006524814479393529 -0.0038476912707418537 -0.00582000050530063 0.975858317521963 -0.0720393577682708
 0.966812855107999 -0.07075641452765531 -0.003662182585716273 -0.006797374811840578 0.02016214038653756 0.006351814076994936 -0.00259874891191312 0.013753489988205997
 -0.0038157424443057792 -0.006534205794985205 0.9766624042361666 -0.07385940476093862 0.007669529090462703 0.00908456718095632 0.012135542761168726 0.0016343772632486935
1129840000.0 0.030734090109896747 0.004672414466684799 0.004157456159244917 0.012924511669282856 0.9647211971530043 -0.07286588245226693 -0.0038803252962638342 -0.006793674168212547
 0.004184968684795058 0.012869934970474572 0.0201931541195243 0.006327353600889319 -0.0037382807523835657 -0.006944715184861457 0.9752701686456035 -0.07399681886394711
 0.966421534214461 -0.07480538246707365 -0.0036216052792424165 -0.007803400172515109 0.03072007096341889 0.008714954299858952 0.0012896999330225048 0.01345296190184277
 -0.0033581703236605074 -0.007013313789949686 0.9747428469248941 -0.07455284372451136 0.0012802580694363185 0.012646649289465699 0.021684324675751914 0.0038983360924544756
1199830000.0 0.02912894691439851 0.0011474871847542236 0.004277708664859619 0.013652264106182598 0.9634750030314093 -0.0781263073833973 -0.0035018808482606065 -0.0073997605726830755
 0.0043871145631645195 0.013608937200365392 0.019931980778558386 0.0036252268631517775 -0.003650593675820534 -0.007160429460331741 0.9736019458836395 -0.07778988787573612
 0.9660900936637193 -0.0785752813012903 -0.004473993821756456 -0.007436212440503751 0.03227259043461854 0.004241146125964833 0.005567300299694105 0.014825018859427781
 -0.003915116476309096 -0.007029455887354024 0.9741331919804301 -0.07996183556508789 0.00546045064892394 0.0158820419400307 0.017377611940674605 0.00435823231740956
1269820000.0 0.029020295494761216 0.00341229823870269 0.00462849609119978 0.014279764875195217 0.9622422910544283 -0.08390874580598003 -0.004154049163724218 -0.007976420895023742
 0.00441906047083569 0.014401873779353806 0.019122846225984518 0.004440084125692296 -0.004039170029088918 -0.007277626577639281 0.9735796438852194 -0.08239413268641284
 0.96543812724104 -0.08392977150266576 -0.0032870482798214484 -0.00787948786274627 0.02392087302886402 0.0007929389899189154 0.0067139867031386 0.013770519159762662
 -0.004163505797177916 -0.008053121318519168 0.9730283165494378 -0.08415087942791423 0.005299387957002226 0.012338198077189893 0.019044826786328427 0.002092613909144264
1339810000.0 0.03115432721750201 0.004771890825516292 0.004632862840106803 0.014881600149575402 0.9623964234205725 -0.08576082081748553 -0.0038200096374643223 -0.007090465687944475
 0.0045816463397499235 0.015142501381479694 0.022052190148955157 0.006488539287957448 -0.004371163399042258 -0.007700834279292431 0.9715294195986792 -0.08653782985697486
 0.9642700629385298 -0.08881164249965773 -0.00447705858315663 -0.008123308485403236 0.033746720942052354 0.011438188841663647 0.006802593137706446 0.016657734271277848
 -0.0049605290181842215 -0.008497267126472396 0.9726800229923471 -0.08969240275189717 0.004032434959320215 0.011088772220731642 0.018857130159340322 0.01347365475839922
1409800000.0 0.030007137397496178 0.00256015591446026 0.004622518610394485 0.015937597002625953 0.9627453719743567 -0.09066978937562549 -0.0037042135123829733 -0.008697906942594508
 0.004737658913381838 0.0159707688823059 0.02256363370185015 0.0034406948486176256 -0.0041444139038126085 -0.00906940961057217 0.9715077947578118 -0.08904267173774891
 0.9623371210530418 -0.09046755393424899 -0.005057178007484201 -0.007344830190580156 0.03225728129862234 7.703761585995109e-05 0.008191513917415093 0.014911921174475951
 -0.004815160147172232 -0.0074203657664997005 0.9721449183123739 -0.09176733750503889 0.007921626999410606 0.011966711757484889 0.011421539275089852 0.010749685748704852
1479790000.0 0.029207545479783326 0.002658740953564441 0.005114560910503341 0.016847955962188497 0.9613985947607656 -0.09470105147443801 -0.004160449019588592 -0.007151639787575656
 0.004926779520794759 0.016558025135946102 0.021915329341452582 0.003461866591883999 -0.0034975571866287854 -0.009404296183641426 0.9732162416058083 -0.09748038308567943
 0.9644955250982823 -0.09682189031608117 -0.00356746838235627 -0.007860209991857882 0.03606375213237524 -0.0014732736305710706 0.008431255066852343 0.025114489636404308
 -0.005016160368070349 -0.008443174480605546 0.9729750859123415 -0.10079893010351654 0.0076271187660418875 0.014216883143559456 0.029960107838424486 -0.0019485932541651394
1549780000.0 0.030236428818268445 0.004148931585447093 0.004862204159253931 0.017143109961800188 0.9562805873570611 -0.09920508453166284 -0.0057389732676536255 -0.00910233880756092
 0.005133909542848607 0.01720911322059465 0.021887233109489267 0.007618004853904438 -0.004884441247289378 -0.009348518081638113 0.9704168345116572 -0.09789170056214687
 0.9603564103870317 -0.09710560193756793 -0.005342554711908297 -0.009116003703888294 0.02404924752923921 0.020250708407285475 0.002273808004422867 0.019610039809621123
 -0.004257021257038755 -0.00987207437591608 0.9707621876294165 -0.10102093784589175 0.004877561848862823 0.016643560964933 0.0210438737902159 0.008475065423062632
1619770000.0 0.03138474964399362 0.003250132376275618 0.00509463339198486 0.018257838522664327 0.9605728536422117 -0.10234805812961655 -0.004491125299362989 -0.00808652012987012
 0.005218457799803306 0.01791099000747629 0.021688321814664478 0.0056354292860000465 -0.005634345788087124 -0.009763183395756613 0.9686751992767118 -0.10284792328856952
 0.9615916672912783 -0.10451932374168725 -0.0040975125247630865 -0.008461182700848334 0.03769600054138334 0.0019021830914018247 0.012532023610333284 0.020041627121427576
 -0.005814922017585746 -0.00928233529967389 0.9698852982882523 -0.10472315000268136 0.006234505373855473 0.026278186851111097 0.02017349536321106 0.006897857528926911
1689760000.0 0.030184177277776614 0.0020708053913646228 0.0055346063211341315 0.018793074461615183 0.9564303774454249 -0.10800256800941335 -0.00540501646113879 -0.01181233335465682
 0.0052321278489768615 0.01873435179935812 0.020750150348818955 0.004529902270142424 -0.0041263535846449 -0.010305611703873226 0.9681921063101434 -0.10841786816054953
 0.9622077261127091 -0.10767514836930091 -0.0046639542384794555 -0.01046027601192483 0.021474120623888773 0.0045706627363072926 -0.005156076599839882 0.01686487192348558
 -0.004878295909825249 -0.008986049775098974 0.9682637510446485 -0.11130402448169058 0.004167213676315753 0.018647842683710326 0.02163809342516375 0.002203123789016602
1759750000.0 0.03069676553996789 0.0031536440167855145 0.005482879398496352 0.019755560637476726 0.9579368048970477 -0.11193688156889148 -0.004815923862172273 -0.01071891853383675
 0.005722667357966484 0.019458562378888513 0.020508626897067464 0.0060947395973722715 -0.00559718906706958 -0.011448236414774634 0.9666681379004601 -0.1137113154518438
 0.9606486080522748 -0.11236187058613575 -0.003581262464649447 -0.009688477406867535 0.028573402319120016 0.0072625914033168145 0.0018192714186052973 0.0191120054672309
 -0.005918732888135085 -0.010435047107132075 0.970198335367531 -0.11626155966751839 0.008533286367704342 0.024045842217993718 0.026009693121679674 0.016589684318277977
1829740000.0 0.03128282322999227 0.004418587256103737 0.005801596323828328 0.020340991216030075 0.9566644417847794 -0.11409436247677891 -0.00550649140471999 -0.010974337235678632
 0.005485374915263034 0.02011479596263291 0.021513553877797853 0.0052472595799585835 -0.004228773428384684 -0.009649196968794807 0.9672861754774866 -0.11569509169914391
 0.9593763489638634 -0.1166452090471259 -0.005936980585568988 -0.011308473452165194 0.03183521936900143 0.009902323106537108 0.003158475105274076 0.025046410664983712
 -0.0032087655619098794 -0.010908143343779216 0.9704689368582236 -0.1210520780777886 -0.0004005554148935881 0.019605565734169734 0.02974600358815601 0.014547620732883772
1899730000.0 0.031538522511678116 0.002601223039330559 0.006016565128573944 0.02114121477096762 0.9562016032145828 -0.11946304069274896 -0.005453464484617255 -0.011306252478245916
 0.006021234830576697 0.021068024077304695 0.022846564904392342 0.004346653458615496 -0.005031399042917186 -0.010950169706806328 0.9665999965575022 -0.12197048016406599
 0.9590263951633632 -0.11866237491380915 -0.004311065913465125 -0.013659569272815504 0.02799449930272566 0.0002772376100330915 0.014207369177638866 0.02447964461534735
 -0.005933621478440806 -0.010459892601345267 0.9665340234107969 -0.1220787969797723 0.004167371256226136 0.02279482891122552 0.02916156210230621 0.005732197049643074
1969720000.0 0.03158009266530629 0.001679909097593453 0.006052823348374825 0.02195166404237346 0.9538582713910283 -0.12454617828496145 -0.0070156881744367254 -0.010794548697262582
 0.006495755184978137 0.021662619444700562 0.023541328875660267 0.004062757960987857 -0.006085285242680607 -0.011687283727848396 0.9659913718022238 -0.12381876783315236
 0.9558368401844048 -0.12844348045124815 -0.005485375040607776 -0.01209277876666624 0.03761320133099302 0.008195186540481245 0.014871846641260105 0.016869172704118456
 -0.0035224846614094565 -0.00918716816983458 0.9685875780424578 -0.12782761780817045 0.00586478228552846 0.01470135588154478 0.020450456157055704 0.011765784988589302
2039710000.0 0.030744836614811474 0.004228305404623271 0.0065055744944656525 0.02251473975148725 0.9540927957698161 -0.1289773981116175 -0.00565644840884866 -0.012195248443439135
 0.006264060960842743 0.022515340167050063 0.022129775390971516 0.007330830061103059 -0.005898150639925358 -0.011410740628306314 0.9641035308602168 -0.12725982866989569
 0.9541519924244173 -0.1285850580753259 -0.007221307548396314 -0.011174968330158092 0.038235149497807035 0.0042561963380625826 0.009140822010993302 0.02512526700975502
 -0.00595642979550857 -0.012039009686359351 0.9627264250784877 -0.13206422104170365 0.004960227917232744 0.026065767770125686 0.02427597410049728 0.015438912344627036
2109700000.0 0.03216702497130453 0.004736652611007495 0.006517116623202383 0.02309894011138271 0.9553787727156876 -0.13079454409484118 -0.006288684434784552 -0.01225065299069615
 0.006502932463251967 0.02316892564143094 0.022155600406641305 0.007782447819034167 -0.006096868289514916 -0.011494161098747771 0.9632245318696815 -0.13283605765156348
 0.9539390935902017 -0.1338249048713187 -0.006026626697232988 -0.011100728231080501 0.027664126232438257 0.0034880889046878453 0.009805246638350673 0.02045319036768042
 -0.005781673174611271 -0.012042731006407764 0.9635056810492245 -0.13447245239873432 0.0075775951086129644 0.02871661286618946 0.02220294582015586 0.015320252525296566
2179690000.0 0.03267017512680145 0.001345564090168706 0.0068185358789947335 0.023847283707332755 0.9531392399922016 -0.13589134143498688 -0.006103202419959954 -0.01306870285917412
 0.006786590703125771 0.023713571928687276 0.020421194303974745 0.005771852421378209 -0.0055688604889685585 -0.012149325608417963 0.9640451137274215 -0.13514546910027544
 0.9539914043338371 -0.13785846757284 -0.0055228394090580035 -0.012215756074565912 0.02886700574716334 0.002540030669925235 0.010932295270339346 0.023499163281058635
 -0.006652614239154479 -0.012670825543010723 0.9606230722630834 -0.13577810832301265 0.010997089057886286 0.022304748248557434 0.03455643836299978 0.01396053575226202
2249680000.0 0.029797655149773186 0.0024126384216397695 0.006848116873227715 0.024557693534042822 0.9519293199878903 -0.13938818167280412 -0.004700898767897692 -0.013226488903927634
 0.007135211771640506 0.024370045204099113 0.018671895469033365 0.006875840518360906 -0.005796180380949582 -0.012032392831264362 0.9627576952462078 -0.14064631786918255
 0.9527089105762769 -0.14303816267380798 -0.0052750389740722015 -0.013615225168070092 0.032685070012840836 8.817779387607361e-05 0.00288397890752037 0.03135746507177505
 -0.006891877163077904 -0.01217416194191343 0.9634397749927229 -0.14277367925480175 0.008681065920690175 0.022385504355656928 0.021702666928234523 -0.0005174231508455588
2319670000.0 0.03161121311671625 0.0058723693719481595 0.007014643897826709 0.02516033276656962 0.950366327861121 -0.1444986579191744 -0.00491364058053813 -0.014566015322130109
 0.006895366874044184 0.024898834584372958 0.021129462026284653 0.007570086216350736 -0.004124466149742211 -0.013148319300429425 0.9605254011821374 -0.1466392422463399
 0.9527358979946311 -0.145520839682576 -0.0051920953836886 -0.013833942669026537 0.02358112807633118 0.0015393933979811398 0.00896906857628806 0.03505838667439592
 -0.004442739678379346 -0.011698116345224156 0.9597831446507585 -0.1475418059570197 -0.003588711319374632 0.028398486934266196 0.023586198033006 0.004174581246783462
2389660000.0 0.03521925869166774 0.0019435712493547 0.007380958826783299 0.026600562557676486 0.9477783389536799 -0.14936797668272472 -0.005822673812387655 -0.013540128212906712
 0.007342926834581544 0.02574186860796153 0.023754206189536154 0.004437738178942199 -0.00524210506787363 -0.013707468566306913 0.9601172204203178 -0.15037331543556123
 0.9519367176353973 -0.1510331830487876 -0.00827419680869695 -0.014752528667163535 0.02710184894748785 0.005735763347695842 0.009822254594921299 0.030113399308082208
 -0.005811588740456042 -0.013150953578874271 0.9616988350585276 -0.15422867506250407 0.0040730777754848435 0.026364381209281893 0.03332938700242806 0.013209537984510031
2459650000.0 0.030333615188964158 -0.0017393844770073935 0.0073616839337787765 0.026135209789742975 0.9500069068397223 -0.15395607788838128 -0.00577049873706334 -0.013946153486346455
 0.007365321353930499 0.02670805660534096 0.02182199953591528 0.0018941791552203927 -0.006562057460140764 -0.014240608922796228 0.9586189955198814 -0.1547828444923099
 0.9530147549711407 -0.15500041781604806 -0.006053728322692774 -0.0151995276453662 0.02927010578372153 0.014655044989193618 0.006242161133848725 0.029675360718735735
 -0.006166035738164044 -0.013125487363783049 0.958100424866866 -0.15825674845316823 0.007150215083179435 0.030933516988701233 0.021190981904175243 0.004879921482069011
2529640000.0 0.033098799342552075 0.002676937048105982 0.00792771469754355 0.02744037979110878 0.9528239926306634 -0.16378290702143344 -0.006367901695824718 -0.014042716900297396
 0.008050642548947265 0.02762486436319211 0.02449153673184736 0.005715867284054642 -0.00678765742784952 -0.013908195398722416 0.9617213520754654 -0.16489301328660003
 0.9545612471030671 -0.1573434670467621 -0.005220724318864668 -0.01523607828884053 0.03223476332380272 0.0013658522797367599 0.012708339063577864 0.02773651855346552
 -0.006176180987633226 -0.013170729211965127 0.9634442440301306 -0.15511613094482962 0.005964740802502112 0.029041173134649448 0.025600455388853464 0.007120170646727876
2599630000.0 0.032385479676298866 0.0022294683267385447 0.00831026707906994 0.02805062277938794 0.9512493122750104 -0.16356205840533677 -0.006717808979959409 -0.014136336907121953
 0.008124466690083702 0.02814671355185013 0.025228845668695942 0.006968362365928319 -0.005869289880666411 -0.01445120653109602 0.9615067912240254 -0.16454054603148274
 0.9515665078300295 -0.1602753530759499 -0.005693317676808621 -0.014309001743275682 0.03321654155835144 0.009414375964644133 0.012117752028898804 0.028332453675010163
 -0.007135897445673387 -0.013091912866089014 0.9601404056331434 -0.15948131540025737 0.002597648890379856 0.03477874988391445 0.02180703069248988 0.009040549907691427
2669620000.0 0.03287302810169556 0.0020819938180345124 0.008293511577849959 0.028874233916831173 0.9501033458347389 -0.164728717278922 -0.007283157464470865 -0.014454289533237815
 0.008279034170462912 0.028750288984289142 0.024503231643674538 0.008060333060181628 -0.007459667865982495 -0.014872745428751286 0.9582129050595717 -0.1688067182574693
 0.9519866233659108 -0.1641313810916559 -0.007104253294843472 -0.014314624622176865 0.036565572464051566 0.010319537417557048 0.005263241792063299 0.029357693507071705
 -0.006940923026096366 -0.015627797431279376 0.9609168269893277 -0.16530833927745692 0.008623278886218153 0.028604307695435153 0.014674121152440269 0.013117938975586847
2739610000.0 0.033043906345537055 0.0030516253876601875 0.008531585814721685 0.029347078586143417 0.9469667259816479 -0.16595349587461203 -0.007570092311512797 -0.014333693148016866
 0.00828379242949282 0.029460266240354492 0.022437080179162128 0.008539810614071235 -0.008025174549005275 -0.015799205794380208 0.9553409804410781 -0.167988083557507
 0.9497674677433838 -0.16714059512791768 -0.006049909745053468 -0.01469718052358487 0.026547445246381057 0.009296621857525502 0.011104822446890124 0.028324059451444998
 -0.007487904277836691 -0.013886393408484136 0.9582353752368331 -0.16826621728310379 0.0025353489815012785 0.032893360661949186 0.018934098059155847 0.01815263746206895
2809600000.0 0.03271488315191767 0.002846829887925976 0.00857384398993772 0.03043200688668129 0.948526752875443 -0.17178470216582037 -0.006673516768155373 -0.01597712653486355
 0.008692163740676266 0.03005030826830696 0.02227668130972156 0.0066483129955345055 -0.007313441484826684 -0.017114744062071863 0.9559821451521221 -0.17506924980007446
 0.947049808531961 -0.17193754525990573 -0.008624395658263435 -0.012993055067996797 0.028533390529691758 0.00037806699814399143 0.016681022402235176 0.020848277870311627
 -0.005992630986638571 -0.014777526222359389 0.9558219911105806 -0.17076027919581385 0.012134234174544118 0.03842761692335422 0.01847731659468236 0.002951620039755893
2879590000.0 0.0329232218430879 0.002162331149434351 0.009063700198115254 0.030852960935135006 0.9465036383232368 -0.1770943577040509 -0.007899378580953607 -0.01574030218172446
 0.008803936128514163 0.030737127843805986 0.023003662104523016 0.005855000647917218 -0.007768055458386512 -0.01626494860552827 0.955150624516405 -0.17901662129179902
 0.9477435216076313 -0.1753182130952713 -0.0064780292868766316 -0.01627426927478585 0.03805417512939798 0.008613734052016533 0.0019343052790099919 0.035538341489699664
 -0.005467056779062949 -0.01575598304686435 0.9562836855699575 -0.176926668353207 0.015091884610094931 0.03257974945794768 0.034195891660180555 0.003408342421337604
2949580000.0 0.03364270624610672 0.002392124387296776 0.009145524593714729 0.031476723463606124 0.9439874669660168 -0.17965744320639987 -0.0076261151870401 -0.016175238701524933
 0.00923549301187544 0.031552134401857924 0.02458929943104138 0.005376050449213878 -0.00864565112383843 -0.016084817621901285 0.9557691824243091 -0.1828746251395625
 0.9488322567938376 -0.17938045236693148 -0.008015486765100133 -0.016859231613961873 0.03327014399978007 0.01085479221420392 0.008640506692240616 0.027352757011765857
 -0.006731683440325396 -0.01697778645365128 0.9569473329599117 -0.17910217369054124 0.009374806000578658 0.026051822447823246 0.03314781840418072 0.0071431069495639776
3019570000.0 0.03322643436736718 0.003119156954658051 0.00960221963233181 0.032240133369140195 0.9430136845910916 -0.18241201445287833 -0.0077902325677481985 -0.016116449293375083
 0.009452003653244266 0.03213490697215088 0.02520170431172597 0.005422047938311193 -0.007143793161929562 -0.016018428980682464 0.9527432476249673 -0.18675795645071913
 0.9471117214430297 -0.18234416966254693 -0.008305581537188099 -0.015342797708841728 0.030652437870767036 0.012080706926970134 0.008796998282189853 0.03258772447970588
 -0.008301897426754721 -0.015467995630146357 0.9528926973710089 -0.183244162443491 0.011888215610773257 0.04177779334219946 0.024916908731087435 -0.0004436775023388567
3089560000.0 0.033151910378860915 0.002291430717136539 0.009634528832388082 0.03284080724952853 0.9427211400677648 -0.1874696330154853 -0.007065472793414812 -0.01650797442671193
 0.009706127525552537 0.032810062544594405 0.02599452734193776 0.005942063804145854 -0.007910523231761701 -0.017396908013709217 0.9513570462287874 -0.1901658583294933
 0.9473325691232496 -0.18606016360809433 -0.008138904142185063 -0.017331371030509107 0.036631094357988246 -0.0026117896336889804 0.014608114358423272 0.03070817681177964
 -0.007804762958007567 -0.016639002237993986 0.9520735231127148 -0.18636941266529627 0.012903232316261169 0.0336912745464643 0.03377123147017686 0.016468229320052468
3159550000.0 0.0337749822672021 0.002080477394865796 0.010123540523688794 0.033488405356214425 0.9403944174926844 -0.1919237135893076 -0.008247921675500938 -0.01622945037810306
 0.010065387950607909 0.03334023424796028 0.026188331844317403 0.007595741548680443 -0.008473639082496133 -0.01842140354349865 0.9494287458729871 -0.19555934017602566
 0.9440024116611684 -0.18951078809279367 -0.008177831082460408 -0.016721904505734863 0.026219322198018136 0.006254308169985151 0.013135636404921935 0.03798404681906868
 -0.00788220026931344 -0.01756090091355157 0.9532133461456461 -0.19007466089526995 0.009369398435287137 0.03513548349557459 0.03357937819111395 0.008342081801145982
3229540000.0 0.033737253945577333 0.002593305031258275 0.010533199800421375 0.034063761614945946 0.9394073001765934 -0.19361993511839456 -0.0077212904628023785 -0.01776377168197568
 0.010457088940218543 0.03407900325172859 0.02478004729302641 0.0077577218525321165 -0.008283684582371593 -0.017450744057386145 0.9479008906610712 -0.20012850716792036
 0.9414138306325396 -0.1930674605460789 -0.008496554050102315 -0.01692367604536599 0.042216771021536835 0.0017864481280192152 0.008565259293594979 0.03725545179186898
 -0.009114428466233511 -0.018270652290309577 0.9503152962486556 -0.19653170375286802 0.011193472708949177 0.036193428231562186 0.026309000560740925 0.012803422384698027
3299530000.0 0.032870773015558456 0.0020483400444003537 0.010713454581262657 0.0348406822488164 0.9391894336903359 -0.19812233432202864 -0.008626408120913162 -0.017723328493682806
 0.01046440104442336 0.03475381386069484 0.024355432234657463 0.007237056204075041 -0.008288384132146834 -0.018644558164471907 0.9476074557566468 -0.20048450074748078
 0.9424693707023668 -0.19700661703122624 -0.00794977472362682 -0.016862112604684978 0.032561438962736756 0.014094088106581184 0.011770593294482231 0.031340830500608145
 -0.008817804246062506 -0.017980866120055762 0.9507809084513685 -0.19935267712703944 0.009003159694257606 0.031746900428490786 0.01967297853272007 0.01240559747471377
3369520000.0 0.03362266367042119 0.0017197967405851783 0.010687747760136928 0.0354179811326608 0.9372537658678703 -0.20063518240617303 -0.008788354216984592 -0.01836145762153268
 0.010789273939135919 0.0354376214318499 0.024731426711374755 0.007328979874419423 -0.008676218742710231 -0.01763426931216859 0.9470275682192129 -0.2052098528087166
 0.941079500248414 -0.20200887802666856 -0.009087446462457148 -0.017667844774436454 0.04229890596440126 0.009151127629644217 0.012809958401539309 0.03903108047349929
 -0.008602436418750388 -0.017349563532396826 0.9501408913841443 -0.2019203768712078 0.012657693565927025 0.03250041344575196 0.01625631131347803 0.008757576342758
3439510000.0 0.03429743134911392 0.002602180670603837 0.011012807425198556 0.03597787565817182 0.9360889616771939 -0.20586149180841293 -0.00829523649623261 -0.018608413633759646
 0.011216935757503153 0.036027585909125276 0.024044017093198457 0.006775392778173787 -0.010084551357120424 -0.01773500781721705 0.9453986719041048 -0.2096999421192013
 0.9394233825893428 -0.20526080108145392 -0.007358477248878676 -0.017839481248959094 0.03018901567198456 0.0019466874525577943 0.012753679722529289 0.03647463940494411
 -0.008600486520326084 -0.01739946845148997 0.9466116914020277 -0.20411965623873513 0.010484905974663923 0.023867680394307103 0.024106494018339863 0.005057918657521275
3509500000.0 0.03339738529496819 0.00240004415779557 0.011504907212288576 0.03684690644735434 0.9339865550896844 -0.21095971371586192 -0.00971036596724547 -0.019066797033306944
 0.011533492027998348 0.03683610638089687 0.024331481512814293 0.005971360133119146 -0.009441893883263061 -0.01879059724932645 0.9445550266028597 -0.2138250838207121
 0.9388502335222247 -0.2084470363264242 -0.008570759114842934 -0.01950706324229724 0.03292603316114186 0.004728904275828031 0.014582387723216765 0.03743041726760292
 -0.00886890321648677 -0.01788439075707406 0.9474262036742187 -0.21055758962132104 0.009635656336523057 0.03550791840650133 0.02115125169642878 -0.006132634774802681
3579490000.0 0.03358168493914286 0.0016710444041479649 0.011943273506789883 0.03738449349122137 0.9328886410846897 -0.21450225225143388 -0.009428204354419146 -0.018640979348667694
 0.01174575381347067 0.03726365681649824 0.02574589612535751 0.006230747281418618 -0.009557081797908627 -0.01971380975205494 0.942696626343466 -0.21699667988053403
 0.937752240297315 -0.21218994778005268 -0.008027052300887535 -0.01936553774155465 0.033112862264244265 0.00995324245285826 0.003989427745517129 0.03848146576683207
 -0.009531586966892259 -0.019293923432914035 0.9448763091747999 -0.21168646534237873 0.011195625016809459 0.030027012185865697 0.02462883455068635 0.00319620549143216
3649480000.0 0.0343841896819314 0.002166272692873603 0.011930708792335012 0.03796345048559811 0.931351727190257 -0.2172999373946206 -0.00955531018179565 -0.018978893056250994
 0.011950222558957583 0.0379083461793319 0.025915185067452568 0.007188353823827326 -0.010231996615493849 -0.019672497086548193 0.9395749129786937 -0.22033586080271764
 0.934679980354765 -0.21656313086577217 -0.008252111204689319 -0.018511759057520283 0.03818523502395274 0.009511149083175071 0.008486360140394826 0.040270908725649146
 -0.010950688497664764 -0.018882724675451466 0.944661381100252 -0.21845333856133423 0.02093418628544635 0.04485760888001771 0.023256948734849615 0.012059572991173348
3719470000.0 0.03328108933007923 0.0026558783978312002 0.0121464848211444 0.038665171851503324 0.9292089927676139 -0.21963532053057624 -0.010485754078040746 -0.01996606772349822
 0.01215581546454505 0.038718080725161974 0.025961298936206897 0.007048877528201715 -0.009512162079986909 -0.020657935835751366 0.9371671620287209 -0.223676306810284
 0.9356957763780679 -0.22155384160350977 -0.008555272217918374 -0.019946714238066023 0.03216085174019888 0.011990796145150355 0.021568058135788888 0.04220711823887376
 -0.009958130080093832 -0.019331671579208988 0.9459576880705421 -0.22228609849572373 0.017374833101563625 0.03222138453045888 0.04100264834557892 0.009410504808104372
3789460000.0 0.03361836250621165 0.0014243500410431105 0.01236192456141311 0.039190415161987575 0.9271808283671509 -0.22007846031104614 -0.010632718550379656 -0.02006891932099891
 0.012240364421852916 0.03918253240682788 0.02694460969482329 0.007162230950598104 -0.009518693748006655 -0.01945636585831507 0.9381734695325369 -0.22098691627931946
 0.9341814756653914 -0.22297214904516743 -0.008364474584447099 -0.020093568786471935 0.025189907060820037 0.005844952132181434 0.01298641060963954 0.036304514024747415
 -0.010309769155117172 -0.0195613335088484 0.9416046733970306 -0.22440315334119781 0.010996552866050197 0.03828479238526615 0.028697811550610654 0.00852338655939692
3859450000.0 0.03432532614009691 0.002297111425956719 0.012560874153587741 0.04029557488819462 0.9358902780371349 -0.22105503457701306 -0.009929763149498944 -0.02108634330767594
 0.012579901105586393 0.04038365303151747 0.026810866436435817 0.008634638804897463 -0.010249811105820815 -0.019960082243161637 0.944121586259922 -0.22419809277055883
 0.933992263642347 -0.22647268071404433 -0.00913028359045605 -0.020044034177323793 0.04645645086349809 -0.003107573736448505 0.007597347073396437 0.034308578407455895
 -0.009209472640059614 -0.020365059683139928 0.9416971308025361 -0.22998087201681447 0.013692869282235553 0.03866669790240226 0.017717052210700343 0.0031945721995382684
3929440000.0 0.0344383522890162 0.0026610308426574295 0.01321061916301432 0.04102826122027897 0.9331481485830984 -0.23285700904618947 -0.010296021073878244 -0.022136652700441965
 0.013321120952281296 0.040977387141336294 0.026244041319962004 0.008062456327332438 -0.011154303266206037 -0.021272782671561564 0.9413309879724399 -0.23647097762848973
 0.9333249319002883 -0.23194219706383487 -0.009465629039432415 -0.019924874635980607 0.03324264854775797 0.005985381651596369 0.013589435215084333 0.04630401572722394
 -0.010844458547007631 -0.0216694844985412 0.9427926582102997 -0.23318016888733137 0.020954483700353316 0.040388868590718545 0.03216602005329247 0.011541449050682278
3999430000.0 0.03389823925264198 0.0022200189216021564 0.01338945559093087 0.041581111862191836 0.9288018397932535 -0.23737453749244916 -0.009981559743456995 -0.020534224879622656
 0.01367098691837333 0.04150582020428293 0.026326747374062442 0.007298183295042664 -0.010779960172976392 -0.021827990510458962 0.9417001812150413 -0.24165997490597443
 0.9305358038168559 -0.23666608144375498 -0.009906641140435444 -0.021668848429284127 0.030438388701569265 0.0056090515776271175 0.00782915814294375 0.040026309381894255
 -0.009957145297388888 -0.020781141525133204 0.9418832024321457 -0.23797052417367515 0.014859864073662138 0.039229152955919035 0.030508866209815824 -0.0070349853596298716
4069420000.0 0.03448751246866493 0.0010314010034740415 0.01392705473781275 0.04196612041724862 0.9291543379729649 -0.2409232761440953 -0.011259102162568925 -0.021256309986879704
 0.013910023102624154 0.04185980364356287 0.02647255497041983 0.007322450844548908 -0.010826345400958668 -0.021075379483526748 0.9363283022868492 -0.24559117744560208
 0.9270073293342583 -0.2401876927848538 -0.01062563111424607 -0.02084318227310474 0.041848206361468195 0.0022497076977430037 0.013202548886403575 0.03692057068392379
 -0.011707206135454552 -0.021289695482663802 0.9357050244059685 -0.2386577986740456 0.01072325396725929 0.03689086393411455 0.02881297106230444 0.0042878071056016405
4139410000.0 0.035160596386777106 0.0019336677794604925 0.014433035002418753 0.042630985165919816 0.9270337705155915 -0.24484166975344093 -0.011248008953813837 -0.021370801257401234
 0.014431349691755656 0.042491309712321415 0.024594012126466905 0.007636455498461337 -0.010947255533303153 -0.021914445295315794 0.9349058369111841 -0.2482513545561278
 0.9260859562561953 -0.24367204389254396 -0.010446461463672636 -0.0230913086042405 0.0348324058976414 0.001211504380005049 0.019367225525508926 0.04399439150689819
 -0.011684485748592538 -0.02195599669923478 0.9354247627822077 -0.2461919437937748 0.011032124431365014 0.038258905788403554 0.02907335902996996 0.004484875474980533
4209400000.0 0.03433891139104237 0.0018017174822660268 0.014477270883993804 0.0432472058814931 0.9235273816752306 -0.24762288958577416 -0.011523384291376807 -0.022210174667105054
 0.014533492345229757 0.04294315322445361 0.025762028302829188 0.00679871411220645 -0.011363753818730506 -0.021636502962670487 0.9340326367236699 -0.250862552083378
 0.9243469199451124 -0.2467467688087714 -0.011025500211653631 -0.021639042640453802 0.03866134734524958 0.0004430473041799235 0.013926456824457128 0.040339876368884364
 -0.010050388571794206 -0.022354988878153736 0.93388902701359 -0.24853857431813284 0.01062547067524489 0.042052183498836444 0.022635209790715594 0.023484584276329743
4279390000.0 0.034181800529349715 0.001136846433914903 0.014843046172395688 0.0437026469997774 0.9210573709034909 -0.251356216290488 -0.01201148746008244 -0.02309707575248702
 0.014636759292803435 0.04368802009401838 0.026540250817316376 0.005611444503830127 -0.012297271896156892 -0.024010098993840944 0.9306734529606528 -0.2556420259423828
 0.9238381184197673 -0.2507367188521928 -0.013556865456686605 -0.022202303661817246 0.03898372969790861 0.00574758839685273 0.008235485044711178 0.0503608268643327
 -0.012459552590506575 -0.02156988306027518 0.9318743095763629 -0.25401983103527154 0.009116277024052663 0.03438412082968574 0.01555675119106614 0.004747959287972138
4349380000.0 0.03495612785299165 0.000810409173390135 0.01521574542775193 0.04433825078872983 0.92073745610596 -0.25591981816405523 -0.01189979321386213 -0.02292910595532774
 0.015119328586133032 0.044121821761319874 0.02678244841812852 0.006827417615130944 -0.012403902630876441 -0.022278459945764866 0.9322482679409824 -0.2576939313801917
 0.9221088755738912 -0.2560484204085797 -0.012174816406846558 -0.022306195326916908 0.026914646583415 -0.005041315139703298 0.011565179081450855 0.04902932673761968
 -0.0118493715584593 -0.021426016662319376 0.9340066379474126 -0.25618737467213315 0.023334670121788345 0.051871164247677175 0.025790530199989222 -0.0006716673823582176
4419370000.0 0.034400276337448285 0.001676389567673207 0.015533330402512372 0.04481242578151383 0.9190943580224316 -0.25814483089522877 -0.011474692689971505 -0.022507434912762716
 0.0157171570009068 0.044680090181371236 0.02783012105366838 0.005945434090058716 -0.011290614338729058 -0.023562585968300253 0.928008371549412 -0.26143747290455405
 0.9198930252085902 -0.2595812212840653 -0.011681848071404124 -0.023187335857652685 0.02803355285069982 0.007428060468765571 0.01803559094558006 0.037672504091833155
 -0.011894277442208437 -0.02224693043068373 0.9300698940127349 -0.2606067751952478 0.015535750004894804 0.0529209977076997 0.02364988885487665 0.01248572993292833
4489360000.0 0.033923220264059986 0.0006109800334675816 0.015887953193708275 0.04538692711068817 0.9168559959543496 -0.26392316541935673 -0.01153859212254221 -0.02347246922266614
 0.01583513581617606 0.04514756109937062 0.028522706062665697 0.006392235080782141 -0.012194612840708703 -0.02365153990617859 0.9259890327661041 -0.2643512677811083
 0.9189684558464202 -0.2632272288409274 -0.010229192233446597 -0.02312738789334923 0.03458982549216422 0.003933861587934351 0.022311587841383915 0.045247744537100766
 -0.012898191178492537 -0.023058557228524918 0.928536981120285 -0.26398777532380885 0.017389465456919717 0.043644572835671566 0.021920106800371306 0.0008820666567094326
4559350000.0 0.03458131937441567 4.929224353429458e-05 0.016367560400055665 0.046189408541110186 0.9154283656459768 -0.2682060335188855 -0.011592921946105459 -0.022967114301116524
 0.016413846980832345 0.04603882928368223 0.028261161325101945 0.008506149788967219 -0.011909750743792517 -0.023193878957422042 0.9254605791746062 -0.27132632386956623
 0.9171316347377352 -0.2675023766919964 -0.011357269189699227 -0.023298235913979413 0.024104256234211894 0.002869972623718099 0.02513876918502539 0.04934623519500495
 -0.01010313604222981 -0.025296639498204907 0.9268514906129461 -0.26841625566741595 0.01725152606472195 0.03590017365650426 0.027624858197732357 0.006600116007896148
4629340000.0 0.0350137856365779 0.0015266660380467772 0.016725329178042838 0.04648553442700151 0.9177162639776922 -0.2691749997908844 -0.013462379483094165 -0.022491324411072326
 0.01675196688498374 0.04644982898321444 0.027332277678286807 0.009151474723858306 -0.013756407540304983 -0.02415358316756899 0.9243459853888312 -0.27129863275280686
 0.9173215254597143 -0.2687572224874742 -0.012782752694878002 -0.023433158840037424 0.03593791974148876 -0.0016214149878601785 0.021552869052179152 0.04893382158460972
 -0.01176071045882565 -0.02264216683740853 0.9254088032016963 -0.271296761694123 0.02646627198057042 0.0418400660590729 0.02629067522884079 0.0029271606438781455
4699330000.0 0.03465439008615626 0.0011637406866028966 0.017319948088417563 0.04695107939802392 0.9139232716570347 -0.2723188015362394 -0.013235013613237628 -0.024261330551781885
 0.01696465185978053 0.04703868691616566 0.025760295182883905 0.00858566164055017 -0.01178009013344816 -0.023522758236409473 0.9234757520829981 -0.27362434943258107
 0.9161289839627889 -0.27509954677522247 -0.014459766029031753 -0.021538615730582533 0.0320921494133858 0.020352141922374094 0.01315748279241526 0.04616269970659676
 -0.012646127104705496 -0.025960594721556898 0.9252794236939181 -0.27560356873874875 0.014707977469308032 0.056124930480783944 0.022080555394234726 0.02170552482907183
4769320000.0 0.033969128295963526 0.00024825557795710347 0.017419467035856603 0.04749069429648117 0.9107817592607111 -0.2772110691546335 -0.013264672315813231 -0.025089232014703967
 0.017547281059042876 0.0474086683415835 0.025707342333595947 0.007958120520892484 -0.01128878963075884 -0.02531982500303697 0.9225433090684598 -0.2799965749321378
 0.9112315823204062 -0.27591532569057997 -0.012241233267220538 -0.02656511563450995 0.0230938243987937 -0.006260964323515171 0.016125708545888302 0.04220405660312487
 -0.013327001816917974 -0.024843924080290094 0.9219260619330019 -0.28041859965454813 0.024931120180366986 0.04503691911214475 0.01328268325740125 0.006522425200645447
4839310000.0 0.035094458400786274 0.00038369757594795817 0.01807869395863449 0.048694952909451174 0.9107165819701437 -0.28169842734229406 -0.013667540387688804 -0.02482615285998201
 0.017978058901369005 0.048475200317826476 0.02501441917947762 0.0063166296167839545 -0.012575540329620835 -0.024927220866936193 0.9203850716127356 -0.28507541792798996
 0.9128133422110489 -0.28062779870891236 -0.011598553774608784 -0.025413785695617 0.030356884959579406 0.006019238698749867 0.018633918443736634 0.04691816724086729
 -0.013432408196841938 -0.025846685907797252 0.9219481553522918 -0.28302723371739213 0.015548068145361424 0.04231825308904186 0.027716488923684605 0.0019509929544704054
4909300000.0 0.034876857675609135 0.0002662118332402341 0.018060343149509134 0.04880536146437916 0.909737958639986 -0.28416180005416014 -0.014307878214939859 -0.025105451734520452
 0.018325901821742565 0.04904417917362482 0.024841744314509397 0.004770700435618229 -0.014077291304830349 -0.025711952868939823 0.9197102351408298 -0.28857514463905115
 0.908425830126827 -0.2842587740998141 -0.013881019755510577 -0.02293338404195628 0.032146858697010186 0.004911455061785021 0.024623611848529056 0.054657831378882485
 -0.014401877188947755 -0.024160332475429036 0.9187274741469185 -0.2880554387321519 0.017170768530932846 0.053045211523730915 0.030055764118303435 -0.00622851678502746
4979290000.0 0.0341848806751469 -4.820002808763318e-05 0.018423897036372427 0.049771129872991204 0.9095652580686183 -0.2881518161683205 -0.01293958399825345 -0.025513038199478262
 0.018353928695599046 0.049709057440815094 0.02651155039608114 0.004057801438076868 -0.014421609295498537 -0.024014498354685655 0.9171760089566728 -0.292111087173352
 0.9079358684943475 -0.2882209129731545 -0.013702353866688917 -0.026197154723336193 0.030464456999182866 0.009625460716601919 0.0176044548772602 0.04485397256535618
 -0.014455035212638252 -0.02525647042489565 0.9204514798817617 -0.2881768077672471 0.02161218730400488 0.049379353008039716 0.02126319752304043 0.006718576055339224
5049280000.0 0.03550705564088149 0.00021334380392907832 0.0188373320969924 0.050001936191640284 0.9082911068402068 -0.2912773177316304 -0.013252877175373764 -0.0247239712399636
 0.01863136347308439 0.05002701867297709 0.02789598913833491 0.005056067249263298 -0.015246663705663703 -0.025162050522592648 0.9166309366390677 -0.2957236685631703
 0.9104561039158384 -0.2902174937660741 -0.016447476709351535 -0.023626961151920367 0.03492396129036678 0.010684318591089554 0.03671815101490981 0.04137146647847961
 -0.012662974184861642 -0.025020773708669373 0.9175291018434877 -0.2929497016847944 0.026120794866991825 0.05607731051527716 0.02412807981520269 0.008906562538593536
5119270000.0 0.03515399415021564 0.0005662027223133556 0.018844806230903476 0.05068190365780533 0.9062633500897046 -0.29459257256135307 -0.013745919995706964 -0.026676998421544126
 0.019097212556497926 0.05079853445617517 0.029126244909542003 0.006480427652520624 -0.013099908123046471 -0.02708627527831158 0.9164377227669893 -0.29742794310747467
 0.9078193282418849 -0.2928359077159029 -0.01383161804256805 -0.02448527806126561 0.02737626353786572 -0.007301745809592733 0.019228487474414736 0.04828314028956717
 -0.014076833627848314 -0.02628931004696083 0.9200918399401697 -0.29704590823866295 0.02023628764516821 0.06023571178796342 0.02502128539392184 0.01970692123802235
5189260000.0 0.034180979190889825 7.208959475097897e-07 0.0195345543537943 0.051218778725980144 0.9053408004479455 -0.3003206128365765 -0.014330628103278484 -0.026364208359232706
 0.019481874646313936 0.051235936199069895 0.030602559612135205 0.0068940871820227755 -0.015485834784111871 -0.026018702268633138 0.9146764260799269 -0.30350941015167565
 0.9079605368263562 -0.2981094570893711 -0.01379962362451221 -0.026038332383180818 0.04528221724344241 0.01204803169768911 0.02710097130304426 0.05050251746680754
 -0.014274888807725494 -0.025639962518507777 0.9163652292122145 -0.30385107078702184 0.018361183235278848 0.046422581733400026 0.029690344956918756 -0.0003810076041475492
5259250000.0 0.034433815629412896 -0.0008518351757193996 0.020002391748620087 0.0517267935897705 0.9025071005334797 -0.30186255863542744 -0.014211550997220134 -0.025628188846239602
 0.019942093620832817 0.05135329873308566 0.0292015650508654 0.00934131991585418 -0.014536025254075262 -0.02647331895118094 0.91256339803283 -0.3047676821497574
 0.9040959376139691 -0.303141394026135 -0.013689184808225459 -0.025819599186507777 0.03473743395399033 0.003975249643902253 0.023478964132610223 0.05988664013957409
 -0.0147905151817516 -0.02772415938274575 0.9130069778316784 -0.30310068890215275 0.022913455606978904 0.047614067985435535 0.031303991396471366 0.019437514366844988
5329240000.0 0.03482241867653246 1.9369074500908162e-05 0.020052730807127193 0.05225504165885688 0.9025825204652225 -0.30384166894001713 -0.0159287101076309 -0.02690460466551505
 0.02029017356511203 0.052056905599033525 0.027685495728572027 0.00950401142280764 -0.0157789110750104 -0.026141420615618166 0.9109017813292295 -0.3099570028053345
 0.9029609467212338 -0.3028260523352557 -0.014988290699449175 -0.025466204343078513 0.043546575332392735 0.010891340994283155 0.023336882068531926 0.053321442004002184
 -0.016218254669472115 -0.027067950252274913 0.9096825072031376 -0.3049801182701326 0.017603469218620365 0.05823959219743331 0.03166149543520052 -0.0003907778333900547
5399230000.0 0.03478554567395488 -6.153700954250878e-05 0.020901073007673236 0.05305134133504087 0.9006341227125294 -0.30913733156219414 -0.014919512104358225 -0.02749514313625069
 0.020589405292731656 0.052886781728631864 0.02546986069042794 0.007613040479316067 -0.015250820800085066 -0.02557323926293832 0.9079908371142509 -0.3124766866583735
 0.9005735934114841 -0.30783399236673853 -0.01507785601338792 -0.028235705577367903 0.03303442975481916 0.003963209004882765 0.01969934463164458 0.057411229813838054
 -0.015390783913879012 -0.025052619189524096 0.9072435891133882 -0.308548793642948 0.025000788353469992 0.05479612912945942 0.02197794515907373 0.016169199404434502
5469220000.0 0.03543898060083446 -0.0006238463266128698 0.021190005293761676 0.053511821566438085 0.8995561183017056 -0.31160842830285895 -0.015562661674761618 -0.027151737841247647
 0.02094421307507025 0.053054513689883835 0.024769653533564598 0.006994516186364335 -0.015556909658840845 -0.027459271658756258 0.907966423204478 -0.31825764540018947
 0.9000603536211965 -0.3104033239092212 -0.01597512342910596 -0.027081669358976893 0.016692024675243267 0.007813304481137855 0.023508967714776115 0.04840597084543701
 -0.014960531874460057 -0.02627568267672565 0.9061158068755628 -0.3164431130112007 0.02343386599778641 0.05144595570329842 0.01802842431702422 0.012590027169762033
5539210000.0 0.03513697037018913 -0.00046902100813459296 0.02165023486362691 0.054140245723964274 0.8965729161671259 -0.31694818272245245 -0.015881728731722864 -0.028210850028007366
 0.021780381919684146 0.05392955476937456 0.025170137395450414 0.005731927660285569 -0.01579487664711559 -0.028017668118171673 0.9057512051647014 -0.3211659151657859
 0.8972767611659948 -0.31693646021698174 -0.016020684107871334 -0.026620570651023284 0.034236646627484546 -0.0023518535299417256 0.021071646956037554 0.04749160508094289
 -0.015313928505716501 -0.027530318361569533 0.9099260025704564 -0.3180925495488836 0.027099332754409622 0.053964413462466436 0.020172689762717376 -0.0037443082029845836
5609200000.0 0.03460803645870373 -0.0006455459694201897 0.02234977937992153 0.054744119927787355 0.8962162267807233 -0.32016657503119483 -0.01701299787405109 -0.02767273566399469
 0.022186886757754966 0.054104239788714634 0.026262610010569894 0.0033431770084594225 -0.016581144984501528 -0.02864475146268979 0.9042580692423471 -0.32497881600979
 0.8964467342407577 -0.31874215352437374 -0.015667369513358974 -0.02682589023152075 0.03749961133241078 0.018823378235287517 0.016382056882182087 0.056932806095598316
 -0.015990797419827982 -0.027131391970749746 0.906309984244687 -0.3238028176799512 0.027196123387087403 0.05763563648942993 0.03511882621786693 0.009773182972726146
5679190000.0 0.03549317015368283 -0.0007374030743289144 0.02238443593989712 0.05495159139737205 0.8945197841223624 -0.3214721253412527 -0.01676655890398648 -0.027866989379165746
 0.022526754210783376 0.05483929648066162 0.029301838530918688 0.005222285882155275 -0.016017950422944648 -0.027778714703689686 0.902020849006859 -0.32599219118893785
 0.8948259338360147 -0.32406661334973763 -0.015357302985223436 -0.029178925840434525 0.015990744450676022 0.0009094933144723471 0.029398267802892446 0.056779340635146
 -0.0171009980588353 -0.027120429970314285 0.9061676940313577 -0.3255747504622688 0.023989204442785565 0.0616277248578565 0.03610437455561106 0.009157290004884164
5749180000.0 0.035423332468650794 -0.0012861826990859606 0.02279656996826417 0.05565409947727594 0.8917149887426031 -0.32822347759392906 -0.01634262401205247 -0.02796861798731547
 0.022857857539808332 0.055117701709953955 0.03224912182799029 0.006100256484392594 -0.016797408928483703 -0.025962257610947 0.9014903619221959 -0.33113537831389905
 0.8932374962097896 -0.3275654544637769 -0.017698326436547195 -0.026509146228530966 0.04028935953832007 -0.000313369663414452 0.022140903976439894 0.05751490564581306
 -0.01690579489373423 -0.028385072580531325 0.9033236243393536 -0.3272370203601391 0.029189341070055556 0.06595500017555812 0.023469785180858623 0.008560650025449357
5819170000.0 0.03483112993096467 -0.0005093827532833146 0.023350968406070517 0.05626833701588262 0.8895886737572817 -0.32918640177900604 -0.01655045488105042 -0.029190389480648577
 0.023481780519817384 0.055656679267373034 0.03183505264610841 0.007312951289766163 -0.01737125640062776 -0.02792829551735018 0.9004431723401274 -0.33362352762398584
 0.8933401818953208 -0.32968095410198145 -0.016255684831071822 -0.028391608868854286 0.03481933810448867 0.010132120295642266 0.021610041162357468 0.0489779533841617
 -0.01691511942729601 -0.027048415060900454 0.9023852536242057 -0.334665178071938 0.03195719796660312 0.053306138590888216 0.023310760261386555 0.0018446633572559933
5889160000.0 0.035702924458582634 -0.00045786053432243887 0.0239003394539258 0.05655637156209295 0.8898256302285609 -0.33207612551803756 -0.017924761960663727 -0.028072298833619475
 0.023872636042236745 0.056458274664288884 0.029956912324994686 0.009118650483274059 -0.017283242696435216 -0.029015587456514346 0.8968396437954395 -0.3390595529072382
 0.88855639096749 -0.3328519894855325 -0.018392347004720973 -0.027905114349124262 0.04021105110694917 -0.0007746527936016489 0.02864951619250108 0.04960873970918727
 -0.016152735237501138 -0.029109145637466215 0.8987577099600799 -0.33652296426543116 0.02308792382620651 0.06312642407281568 0.03175641845354038 -0.01036058954816212
5959150000.0 0.0349229992025566 -0.0008978019671758011 0.024331334949744276 0.05697161990374707 0.8889951268829536 -0.3383587438334749 -0.017720234154071104 -0.028892678690075953
 0.024315615542370557 0.05702533667213769 0.028814462911338275 0.009545342136216587 -0.018714772836658976 -0.02865983205682236 0.8974049163697879 -0.34008246267599757
 0.8868203805905259 -0.33732618905898787 -0.017122434241400458 -0.028116224187709645 0.037603851441945134 0.009096196702477298 0.02484531147650548 0.054990358762227486
 -0.017072138400948275 -0.026698346559199056 0.8999276704435036 -0.34057873187849025 0.020267820059386207 0.06193116964234887 0.035417484631245215 0.007725044945497081
6029140000.0 0.03497076931356283 -0.0012330903649143505 0.025004437478846817 0.05772873518544028 0.8866748583662426 -0.3397111140695751 -0.01908631407952001 -0.029441280512495817
 0.02463068267746339 0.0571413960226343 0.025576476457450616 0.00754126649819963 -0.01820923216047309 -0.02989811996620275 0.8950495968114037 -0.3460336830102569
 0.8849434701290256 -0.3399092229971971 -0.015614105380917903 -0.028429801895361737 0.02981526676967028 0.01342306212909614 0.017846585242700892 0.05171045094795509
 -0.017397728052050362 -0.026938027620535765 0.8970067895932115 -0.34257484424387824 0.02635308185494616 0.06367068062716082 0.026412574557619202 0.009843958903463417
6099130000.0 0.036065186202037885 -0.0010623187242991185 0.02484383437523995 0.0578805372158657 0.884692326872193 -0.3445433174266396 -0.017612734958794524 -0.029999063020926076
 0.025122030811775498 0.05785868645290364 0.02436860648491084 0.005794734059164391 -0.01852102223692346 -0.030372932180581614 0.8936886612920595 -0.3503956065495493
 0.8855756500269486 -0.3450170993995249 -0.017659672394875366 -0.028187326140167727 0.0327083854218472 0.01078141173890775 0.020958365955539838 0.05757719664115233
 -0.017696650499962024 -0.029141269175976897 0.8973734437434497 -0.3513523537823517 0.027192156722948307 0.05752870067596634 0.040033613561399166 0.016599290407672374
6169120000.0 0.035067639201425076 -0.0014588310060617208 0.02546447437960126 0.058018440740592266 0.8841930304375409 -0.3476839050414897 -0.017524933145787736 -0.03015586843326796
 0.02563119962861355 0.05846068052448942 0.027855100941581917 0.0039548558912832115 -0.018689998224161796 -0.03102559905170175 0.8900495035875738 -0.35281266519022286
 0.8865562323113647 -0.3472460744396504 -0.0172309430193336 -0.029113894546058543 0.034252965914298245 0.011855067373928808 0.029994266442103217 0.05612908624576548
 -0.01752299086146684 -0.030386340883753967 0.8933981129637425 -0.3511804036343467 0.027665587794703093 0.051570878476424525 0.017027056259308428 0.00896056852828823
6239110000.0 0.03547502916580962 -0.0012506972914625113 0.026149370630949735 0.0590537302087935 0.8819483222328189 -0.35075252775098603 -0.018028175670544728 -0.030862405800556034
 0.02588473442615711 0.058753720098585586 0.029970920720920204 0.003737509046590792 -0.017945863167076952 -0.029394505719179162 0.8918684354483085 -0.35613865788459437
 0.8837280193208543 -0.35086059929833974 -0.01913061635681317 -0.028821713362944958 0.03332663843042528 0.0006193758731151262 0.0340272193498626 0.06065037529987878
 -0.01824865317849036 -0.031270910830872786 0.8940481371979744 -0.3554892886030441 0.030575863304142345 0.055194526892228445 0.025118132058066327 -0.0009145221245870381
6309100000.0 0.03615415044471321 -0.0010290267929799243 0.0262585201967475 0.05915874174200177 0.8793128437081532 -0.3558079123218066 -0.019471509879769984 -0.029968836325669636
 0.026228216276854392 0.058929051480160886 0.03194498034274957 0.0054472243252285165 -0.020395905698792273 -0.030511716817227568 0.8895035990146533 -0.3590518035366778
 0.881567824137157 -0.35501029418610475 -0.01866601394150245 -0.03034603808920953 0.03062353617462886 0.013328205055330958 0.03222354679880157 0.05426791949263367
 -0.01779992929537831 -0.030364859811003408 0.8914997326704576 -0.35769793726859284 0.0342021338475092 0.05786885774954388 0.021672809613731615 0.011743774287522577
6379090000.0 0.03510253831073938 -0.0015231755755832162 0.026867251259863265 0.05943614585156734 0.8778594284575302 -0.35782552469598694 -0.01883365831232736 -0.030323796397792466
 0.02647852031824071 0.059358189243905755 0.03372458707191264 0.006658064167415724 -0.019008372062180878 -0.030510563361242374 0.8861050628465035 -0.3625653433288535
 0.8789512316655714 -0.3580219182438678 -0.019521812073399827 -0.03145039530503401 0.04145424388810952 0.005913533545387549 0.025493397407018312 0.06713058309916296
 -0.018226977990144732 -0.02961675725642346 0.8885722902659874 -0.36235480586874075 0.02787383564418911 0.06257294441168632 0.02599251822444034 0.011929268096614806
6449080000.0 0.03522440054252062 -0.0026891083126659113 0.02700433947579556 0.0603280487802682 0.8770638456101266 -0.36591953020027823 -0.018172518446141216 -0.030902098574941424
 0.0270892871087671 0.060020474329640604 0.031375265831126924 0.009036099962864507 -0.01966883574176158 -0.030449749287202156 0.8853953765595431 -0.364705512555935
 0.8793650394599756 -0.3655540985453061 -0.021529991937291073 -0.02944751097202745 0.05405895522870052 -0.012704590046812183 0.035530056574224256 0.061008706599889044
 -0.019647042831441544 -0.030618223151317476 0.8872907191585155 -0.3631990917829819 0.0255674885947832 0.06053146759387756 0.026936025595276244 0.004720975936051109
6519070000.0 0.036443301224171575 -0.00178751241730897 0.027477067589945253 0.06069637682105646 0.8766026892128822 -0.3673331458131962 -0.01893093283738112 -0.031475743777106116
 0.027507035383209474 0.06031239561074392 0.028186464208552774 0.009931224545833665 -0.020653286413871926 -0.029992144082457012 0.8827597580206098 -0.3703697335939461
 0.8760811793108839 -0.36418899021977247 -0.01948456218610856 -0.030442689369456582 0.03216250237575199 -0.0014454812777841234 0.03238316182556948 0.055763392762879005
 -0.020576160275676245 -0.03129670566013688 0.8854529531671439 -0.3712879734302193 0.027536604045505505 0.05617658896001659 0.03550163645032182 0.014949374763381025
6589060000.0 0.03501181610282564 -0.0018329895605662854 0.02804828826045738 0.060389810152483965 0.8729749735318334 -0.36835855645648763 -0.020928439675750084 -0.03249438166502829
 0.028249613516794347 0.06052932687857484 0.02807793052546895 0.007536943250319413 -0.02059195071719437 -0.03158557852086315 0.8819574833415358 -0.3721605831012249
 0.8756092502163715 -0.3683608929258973 -0.02094924374127393 -0.02892238719974277 0.02897413636946829 0.008634206424964742 0.02969477349806277 0.0711342023955527
 -0.019666512102129236 -0.03080328580545344 0.881638683346821 -0.37182033003079173 0.03601101692078761 0.05718452442350782 0.023836024157609943 0.004326913746690486
6659050000.0 0.03559707434642464 -0.0014842544968195902 0.02819258029228535 0.06159415304487008 0.8703371394742987 -0.3725953359788385 -0.020462067756884767 -0.030836638479222255
 0.02838824363183657 0.0615935912099628 0.026745094701381908 0.005331761720218442 -0.020928658447343082 -0.03185296204337284 0.8780534603583263 -0.3760672010983038
 0.8714108290021082 -0.3734358513254965 -0.02147535017316706 -0.03251200324380222 0.04356455999946085 0.00046902158002952194 0.024665011536443425 0.0599865017523709
 -0.019685058204347322 -0.03011299833207323 0.8797680292323621 -0.3739200483224958 0.026160797494290164 0.06048044669684647 0.021460460251430884 0.008982346989068482
6729040000.0 0.03643070136880414 -0.0016939333231477027 0.029106695512800568 0.06200253298451989 0.8698622782830088 -0.37497919247936273 -0.01954911200632395 -0.03170244060716978
 0.028578839907538605 0.06165781910242734 0.02789803615518973 0.0034776778652755172 -0.02182710462254757 -0.032271488665954716 0.8787547857492772 -0.3800695933761731
 0.8718840779255713 -0.3765440583973825 -0.019720047781173887 -0.03123976335759836 0.038096552742359 -9.395387465365813e-05 0.037454356654991264 0.06322930582300011
 -0.020104822708777538 -0.030351013154474416 0.8803197489815658 -0.3806755083255473 0.03441257109705582 0.07069625161534637 0.013327725877491866 0.00860827024352912
6799030000.0 0.03542714839636138 -0.0024372389747059128 0.029283331663258694 0.062053471566877155 0.8664103051105335 -0.37992450753765544 -0.0214188551998048 -0.03140864024421139
 0.029213401586050056 0.06190517276126002 0.031231061332506464 0.0024766269726594183 -0.021099497567527582 -0.03248603236479795 0.8750873856810244 -0.38304203345634263
 0.867410022107006 -0.3796322609571587 -0.022360490244405395 -0.03157010293217125 0.0358422550022847 0.017439692823938816 0.03544283217161272 0.06835618055348133
 -0.021984498858338315 -0.031836594548136726 0.8777613469405285 -0.3836151370117724 0.030851777617395812 0.06331291788395058 0.027939971200757342 0.0034548495134932205
6869020000.0 0.0361618497599601 -0.002180874909861112 0.029965450045617605 0.06268166144059871 0.8665494059948273 -0.3828734934500447 -0.02191700940833012 -0.03206045385848449
 0.029931082269376155 0.06244676407909424 0.03259281263536549 0.004423900626469686 -0.021045314808199784 -0.03175059099859251 0.8757988547972478 -0.3868659736386741
 0.866051171932578 -0.3822774563019575 -0.02195691603237987 -0.03250447443324695 0.038526229256141124 0.004077203101057388 0.031121687329279994 0.05066218462703453
 -0.020316779249862214 -0.03314669804510587 0.8745050959933359 -0.38623228173794855 0.026836481187898113 0.06826436002294838 0.021231688428674667 0.0023423378869390065
6939010000.0 0.036206587668756264 -0.002216678704861449 0.030443309730695166 0.0630475872801864 0.8648693478389577 -0.38564610551460793 -0.02165948041339863 -0.031798918313254064
 0.03046483680444627 0.06291747446829885 0.032902903339407735 0.006473847983756568 -0.02193251159674706 -0.03251310300177149 0.8719980559980486 -0.3906765170361462
 0.8653297755771656 -0.385363201886624 -0.021440614396642202 -0.02958576822336768 0.0394692367451948 0.0020783454164182585 0.03085800463258215 0.0632642499040546
 -0.02123846393507416 -0.031903239995153335 0.8751916411893944 -0.38950467631258306 0.03075687425764109 0.0641711508189239 0.027038824173717602 0.014874645802051945
7009000000.0 0.035779111658027676 -0.002375929146957691 0.03102525704630663 0.06350719568570531 0.8603660476274994 -0.390083456682255 -0.021720774934508316 -0.03179519251524546
 0.030978133537921473 0.06336754620132874 0.03193497939411809 0.008672645659779925 -0.0221546155085287 -0.03236884444080106 0.8703623856896718 -0.3916872715192769
 0.8634660429093404 -0.38961789337625613 -0.020884160230102356 -0.033947912797214756 0.03080830838869732 0.008839034411649039 0.03608072404861625 0.06841694410442108
 -0.020374367377667936 -0.031805650555772384 0.8713784514917361 -0.38854633345936346 0.03648070949569311 0.060535565866181945 0.019443517862552964 0.010571820762028651
7078990000.0 0.035772598287063126 -0.0022951201218592713 0.03097601184300181 0.06375236241535928 0.8607304614574609 -0.39233330867234767 -0.023634568151969258 -0.03283459526662662
 0.031206458403142835 0.06401564084840419 0.030553402808066753 0.009042157964682364 -0.023731783039951385 -0.034110741332307654 0.8681264821288471 -0.39583701843506214
 0.862175166475444 -0.39137328511393993 -0.02189105362350725 -0.03267751271720873 0.03422647192531004 0.000909757960791532 0.03770226356173846 0.05948718982878316
 -0.02225641571164032 -0.03227118657695466 0.87395846970872 -0.39501199027311673 0.029969434574724764 0.05997673513135116 0.025022428395994264 0.014864893016732815
7148980000.0 0.0351798665745433 -0.002620815707659561 0.03177080917095659 0.06383229994347868 0.858185788980397 -0.39546036059635736 -0.02381209768971093 -0.03397122252368189
 0.031622166631089195 0.06436179218673241 0.027938659076747068 0.005742570439161024 -0.02286393698770118 -0.03192741428723665 0.8659579622402257 -0.39855034900914266
 0.8598211969117923 -0.39469802897713174 -0.020154675467376624 -0.03221229813279657 0.033329664548078466 0.007060420559032352 0.03869901183023631 0.055574958649845525
 -0.02165463917684408 -0.03285196224387954 0.8673409392150074 -0.396509854856935 0.03873967289334629 0.06674924298808484 0.03225064933432067 0.00584821463052151
7218970000.0 0.035318713170251606 -0.0028145438568973734 0.03230642683876565 0.06439624299167443 0.8554730746192274 -0.3968868840261632 -0.023576112078926063 -0.03276580587775463
 0.03203382593902995 0.06411859321981296 0.026501333736751974 0.004780648981306974 -0.02480483366878008 -0.03380972122304919 0.864886957632513 -0.40357763666824287
 0.8577897139548726 -0.3964206247984508 -0.022582007265046992 -0.03417701817019895 0.041713361075709145 0.015107157269203473 0.03543142589142857 0.0680423161588592
 -0.023090879877510084 -0.031626872716969005 0.8701268131047586 -0.4023248646408508 0.04132826035665158 0.06291777103484882 0.0309556190444479 0.00880854234493739
7288960000.0 0.03751739883162854 -0.0023485821834274014 0.03273051596341332 0.06527497295587523 0.8530359433143013 -0.40450402861426865 -0.02388322696504642 -0.03327573952920059
 0.032220962432243684 0.06488538961961077 0.028333087449384037 0.003022439982139547 -0.02409721956479432 -0.033045899793443745 0.8640485863073598 -0.4050287550169528
 0.8531736258565681 -0.4048535170449886 -0.025053526863681737 -0.034200107955902975 0.03724004072993052 0.015796951643269448 0.04057157073835992 0.06272864660745503
 -0.022487095271597052 -0.03173029779364891 0.8602653495009276 -0.40662481059591205 0.03427907086791134 0.053544792479279034 0.02904659410458031 -0.0031327290092177367
7358950000.0 0.03536855148522648 -0.002680014353051993 0.03293069797867815 0.06538889422846526 0.8537584521379711 -0.4046374951569536 -0.0226935273361237 -0.033514293739979134
 0.03246524330508047 0.06512115303406987 0.030449383887672585 0.0014714322705901594 -0.02309633721307994 -0.03354802342011865 0.8601630290833714 -0.4087440053162401
 0.8554295727565819 -0.4056933863386214 -0.02468746983605368 -0.032960946440534496 0.03550372038692749 0.011904954111893335 0.03100633618662775 0.0725412030862593
 -0.021833066434327256 -0.03381992353136861 0.8618504353835935 -0.4088197837797309 0.03992404620012863 0.0689641931020992 0.03165348664755229 0.01198293894757444
7428940000.0 0.035915127217649244 -0.0031372258890790174 0.03357009969764765 0.06598131166622585 0.8531867648690714 -0.40832755897633616 -0.023847674789135354 -0.03446881542882306
 0.03315575726896565 0.06573254189863198 0.03219039115188414 0.004878127885451819 -0.024247822594693557 -0.033275969706741175 0.8590034196126562 -0.4125659798071416
 0.8534978602345243 -0.408109425524636 -0.024537615790088344 -0.03189048295526753 0.04245404603054691 0.0072807207500107515 0.03758536708499304 0.06334483601387805
 -0.02454982257051969 -0.033355332685612686 0.8612379639530933 -0.40985361904413714 0.031148088970670885 0.06338287999174483 0.028521716020706328 -0.0046226114465312326
7498930000.0 0.03575890408700567 -0.003386441877196362 0.03367649940510452 0.06582021606490562 0.8496848686775123 -0.4114938342964686 -0.02415302273742567 -0.03315717937778018
 0.033745908957748594 0.06554660129896979 0.033341241305561625 0.006633860569123284 -0.02472487722527329 -0.03273143379510059 0.858239718871841 -0.415717306476401
 0.8518671917579371 -0.4113848798876319 -0.024211780247864433 -0.03368929420577463 0.03951292528961053 0.003984357224735773 0.034652641274061105 0.06435384444980004
 -0.02420661762236821 -0.03403119253232149 0.8567498142258865 -0.4149385764005563 0.036359311241056104 0.07002425822412403 0.03080418026519128 0.007976719201171762
7568920000.0 0.0350728071553651 -0.003050468191200297 0.03436694743369117 0.06658231723304472 0.8481237889417803 -0.4149546203814679 -0.023403860486636115 -0.03397972398194028
 0.03456404775092065 0.06578199319434479 0.031813624078181814 0.007339835443136409 -0.02502860877138553 -0.03434444191205786 0.8554671594500282 -0.4187328853574061
 0.8479004193825181 -0.41476647028184216 -0.027857980970293704 -0.03168541740152821 0.040749912224360384 0.0029399334020449755 0.039857765898152576 0.07710799394094933
 -0.02537085966696282 -0.03389727396792717 0.8557536272709394 -0.4177779906939516 0.03448449649755641 0.06361976854961648 0.03430397184563635 0.00974093279137954
7638910000.0 0.03590657855683887 -0.004043545528596995 0.034630062469545135 0.06657890352200395 0.8465871272279097 -0.42052523377002904 -0.02442004418160394 -0.0342728249641351
 0.03511426665545951 0.06655065767441631 0.029964470766970102 0.009072035734449037 -0.02439398729589294 -0.03366630238030471 0.8511508454847695 -0.4241400389137655
 0.8477904490772739 -0.4193405606613369 -0.026520354853251712 -0.03378997882082512 0.038067341147763306 -0.0046564157310291605 0.041649460924301336 0.06145659955922222
 -0.026683091185694684 -0.035661016637718375 0.8535426455307891 -0.42284122339725966 0.03235325516685106 0.058394359282065454 0.03486308089241451 0.021617340127973183
7708900000.0 0.03581481626316119 -0.003347944067836745 0.03535560121433688 0.0676677695322381 0.8448169324912418 -0.42145414749224297 -0.025959816583707242 -0.034689715156495486
 0.035293487908876084 0.06709035461230457 0.02863906037205802 0.0066990823491773445 -0.025317299922823912 -0.03454360980319441 0.8512730123365331 -0.42704795612364876
 0.8449507774410223 -0.4201725247970987 -0.02373088837769045 -0.03513802266183387 0.046833398064269366 0.006410936604985224 0.04323851670498708 0.06689728099791056
 -0.025051240119053537 -0.035656213514987094 0.853719584502548 -0.4244798783254391 0.0374174250964213 0.06810320119600394 0.029608404416608974 0.007910550454373052
7778890000.0 0.03486094725132375 -0.0033536079328844596 0.03597722603338017 0.06758123482542701 0.8425891096602248 -0.42515623126019153 -0.025191289517956652 -0.03403997343412644
 0.035812346087252894 0.06769528202744715 0.02764547110527347 0.0036278063136059753 -0.026153586310613933 -0.03564641511400494 0.8500112447277282 -0.4291749569592641
 0.8440313362960212 -0.4259260936505989 -0.026848952124402227 -0.03478338074981553 0.04000033856443635 0.01099536893352794 0.03390542900250681 0.06603064719584287
 -0.024715789835147235 -0.03273995317522959 0.8512386902644166 -0.4268492584673959 0.03500540691305293 0.06231201699798692 0.02975927863094976 0.01790145906801811
7848880000.0 0.03635305816425779 -0.004527001170809593 0.03594911418413742 0.06767828422264535 0.8423890384409293 -0.42812805796387443 -0.024581912609196545 -0.03521088404302052
 0.03611170074413944 0.06785062410640202 0.02876719165124925 0.0028133799168733953 -0.02562358469596393 -0.034539072258871685 0.8475418854718278 -0.43424401204847457
 0.8438264686746222 -0.42816112031016534 -0.02695039214608366 -0.034607712782201386 0.0496874566066894 0.007709453355644986 0.055283872082530494 0.07221599667599705
 -0.02640399541776147 -0.03508551209426208 0.8504973719149646 -0.43311411700915825 0.03911723602451107 0.06539738090901347 0.023580022530698394 0.017818665620999236
7918870000.0 0.035006533891366085 -0.004955786212036875 0.03647709910349856 0.06825390976660858 0.8380657561382515 -0.43093438111334764 -0.025683505521354046 -0.03551376718868946
 0.036434242645928094 0.0678943369352028 0.03196710856295518 0.0017260380871460806 -0.025776393196922088 -0.03559430162270358 0.847080025383875 -0.4354741970348682
 0.8384324764638325 -0.43101360502565905 -0.02606222018775857 -0.034675303752383604 0.0440310426325111 0.011922345424820636 0.03638257026292695 0.06269216659973907
 -0.024884140180249235 -0.0341180440577189 0.8465449024623349 -0.43493499704414595 0.04508854954261018 0.06674463128060847 0.02433213823183305 0.012013408694478521
7988860000.0 0.03503654976211697 -0.0039565754823679055 0.036846500846971525 0.06842099313499271 0.8383758301744899 -0.4343771080512287 -0.026216399756182028 -0.03566998842509035
 0.03682546181865939 0.06798860916915832 0.03272964999205126 0.0029038712972863285 -0.027166995711176242 -0.03580248238369537 0.8435933659157204 -0.43900245305168484
 0.8378686530915409 -0.4321429610893601 -0.026816931436907162 -0.035458467993842835 0.03558368750216875 0.001442485137504659 0.041310624846161666 0.06459505247492278
 -0.027009748837161406 -0.036315663291808666 0.8459183745303943 -0.43582903456246447 0.03946329602695967 0.06300863270449225 0.04060577422185223 0.011794547235466822
8058850000.0 0.03592648819954971 -0.005008470148961458 0.03730767273062825 0.06851930429982006 0.8332124976947508 -0.43516902080754555 -0.026774435212731665 -0.034617590064393765
 0.03723445331264714 0.06845041263730223 0.03346593457105 0.007202857596530171 -0.026556183669392493 -0.034413281026859935 0.8434037601042328 -0.44091989323959363
 0.8356043473598225 -0.43533051123000993 -0.02409746599533737 -0.03617035965222809 0.027222693960308353 0.007835396942154245 0.030921311912671064 0.06377845759853122
 -0.025823334606937906 -0.03488651703524726 0.843162078466981 -0.43974213764037456 0.03754527816964958 0.06101373055133539 0.03506331257182892 0.0015828358212760408
8128840000.0 0.0342703173324033 -0.004481454325357331 0.03758487101147933 0.06896909352202402 0.8312198752001034 -0.4401678953520849 -0.025952270704384786 -0.035305191254524776
 0.037884509434446094 0.06882178624342583 0.03302916381623495 0.008240128764353946 -0.02607932059010676 -0.03440422288329516 0.840762597890916 -0.4456603839011608
 0.8333139696769308 -0.44120344160917346 -0.027799825243027907 -0.03596474900703422 0.03495054276031888 0.008089326069154542 0.05161555857243766 0.06540104665893608
 -0.02707342516322446 -0.03569210364884688 0.84086336595613 -0.44475736264857346 0.032199496095667114 0.06830430811920961 0.03596084149036882 0.002617774917397804
8198830000.0 0.03539436922282932 -0.004257098131878154 0.038537389100224854 0.06944503425092667 0.8309078664410002 -0.4425654539752209 -0.027249505009040227 -0.035233730192241006
 0.0384168217446219 0.06943284718365786 0.029114418911397405 0.007094310280618404 -0.027933438705432443 -0.036291173698087334 0.8369240215673971 -0.4494141140155798
 0.8319056123374737 -0.44297312965799046 -0.028119576259616856 -0.037093740864393536 0.04757000609458023 0.00791290703239566 0.0417317927246144 0.06473035193699427
 -0.025996418256292127 -0.03419321814877139 0.8402171341010066 -0.4488969082939195 0.04291535507879485 0.066869226165795 0.02998094911983904 -0.004360796489467479
8268820000.0 0.035818544097624576 -0.005547672337614815 0.038558994885651135 0.069894153246497 0.8284255597225159 -0.4445734378038264 -0.02950356034363167 -0.035929088225612395
 0.038628864252543166 0.06980736837524212 0.027403532709592723 0.006494704362343078 -0.02833220608143342 -0.03578636254968329 0.8377772467776543 -0.45352808613585405
 0.8290387499198544 -0.44847539750810334 -0.02758087022991501 -0.03537464063409435 0.038643845052036184 0.003162734065178103 0.04100270411691083 0.06369994336117966
 -0.02847976448497962 -0.03475053057460873 0.8380459402632953 -0.44845257661801136 0.0466919070491868 0.06028832496557185 0.03264172562987983 0.016265353432407658
8338810000.0 0.03461470425062107 -0.004543197566324339 0.038850064493330505 0.07000827906380797 0.8258719077823424 -0.4487011862295354 -0.02791412045546939 -0.03575892354670961
 0.039060987652223565 0.06990739402712437 0.02815322199480369 0.003561413970475554 -0.02768491854508443 -0.037071093091293104 0.8339692846313311 -0.4543476296791345
 0.8254911299649366 -0.44979056457645117 -0.028847972879595982 -0.03550425902297629 0.028097263347025184 0.013668153284571246 0.04204035749222766 0.07151519729546374
 -0.028726154265832523 -0.03507888602953932 0.8351348633189604 -0.4524695686938069 0.03784114330607616 0.07304683313459667 0.03245553681084247 0.004388720826842176
8408800000.0 0.036251901351070266 -0.00460184538881675 0.039759789823573026 0.07054187650027158 0.823791652569693 -0.4540264592463491 -0.028739420755759124 -0.03542621289951126
 0.039351791319577584 0.07033014652055924 0.0287806974906168 0.002058660234426709 -0.02868575396742934 -0.03611931807554371 0.8322967530649634 -0.4573605967261306
 0.8234343551063618 -0.45432957274104496 -0.028432764593317075 -0.037730045883356614 0.03736382945208824 0.006641666102104867 0.05373383424381647 0.06937284253260476
 -0.028944929033157367 -0.03587056271335895 0.8327311929089131 -0.4572988821419062 0.04243257352469173 0.07017524594806303 0.024999138943884905 -0.0004519168502120557
8478790000.0 0.03538722648504826 -0.00504163003068114 0.039917341128021186 0.07088458739398233 0.8224445373938861 -0.4566489142856199 -0.029192672326984512 -0.03566545995017759
 0.03953111980268467 0.07069612817523342 0.03125165260663144 0.0029405316753138774 -0.028324986568600493 -0.03660531821041383 0.8317657943826735 -0.46067051949109633
 0.8237243296726385 -0.4564693089346958 -0.02978759741553867 -0.0385179953128705 0.03628097210607585 0.004075258850656956 0.03887977809782729 0.07240748647833435
 -0.027940830576264945 -0.03449063392795217 0.8322681574644333 -0.46205695066506175 0.0453290760602298 0.0658617037425316 0.04083211406038405 0.00035196998147481385
8548780000.0 0.03420769074263316 -0.004424529412794246 0.04088752858759599 0.07118843024116292 0.821392035756884 -0.46016267116195103 -0.029110563226375043 -0.038010787004645205
 0.04089337458933083 0.07044807761313267 0.0351331044678542 0.003737369332488863 -0.02811163201465069 -0.035874137979817144 0.8286058980915302 -0.4662550598112011
 0.8210373244352349 -0.4625212614739431 -0.02866778188204608 -0.0342642805062504 0.04026182899970358 -0.0003509675214404255 0.045978236873514246 0.06440452737728813
 -0.030920923081086415 -0.03625932906577253 0.8319434664260225 -0.46401164969992814 0.04197934100035993 0.0662800567174095 0.02577723710806113 0.009263832418708564
8618770000.0 0.03552626982612207 -0.004944089360878418 0.04143227976640653 0.07127325456098355 0.8186425268628953 -0.4620839917015907 -0.029308977174330456 -0.0350353704638957
 0.04127342896229347 0.07089455684782298 0.03345528118823668 0.006344932581157217 -0.029103345753594002 -0.03656538362508435 0.8260104859935175 -0.4683024775555576
 0.8213058959974263 -0.46364233942802824 -0.028317832815140484 -0.03543760378646912 0.03917956932558302 0.006424099803831826 0.03962343222684918 0.06769083998034907
 -0.029436631553571107 -0.035529966741402574 0.8261749512345092 -0.470110035310254 0.04817835954181629 0.07144091018798374 0.03821532830509026 0.00510907718696064
8688760000.0 0.03502963821123794 -0.0050024396015549595 0.041765962559044315 0.0715120673496225 0.8170381230796555 -0.46579618259930555 -0.02904040451415868 -0.036899398100784166
 0.04175856493069051 0.07121230978542203 0.03297829099926787 0.006943845187154361 -0.030628261822423127 -0.03434718848346537 0.8246843417459456 -0.47363361247509933
 0.8207618459822831 -0.4652800330296476 -0.031651827531317664 -0.03424207295865761 0.038118298140529465 -0.007780020227104969 0.03963529342271696 0.07302499267143701
 -0.02955002122500269 -0.03629782388285334 0.8271532541527435 -0.47329651858604366 0.03943603828990123 0.07096568214357761 0.029966811657856345 -0.0062988305734564135
8758750000.0 0.03506547457645046 -0.0042273734848569154 0.04187301699520029 0.07200692461808299 0.8121355714096634 -0.4679699581091967 -0.030197094028790478 -0.03600357180980467
 0.04219395571927805 0.07172615808821152 0.03195734988655537 0.007338789868048072 -0.03143479276339719 -0.0381521715066199 0.8225272643240181 -0.47375405196591064
 0.814618623958315 -0.46837445893616714 -0.03267157305802183 -0.037538141111665 0.0381605018716902 -0.007214516428451518 0.03827323091823647 0.07259323873728174
 -0.030943397973251165 -0.03623300922318432 0.823750100831246 -0.47421619852385827 0.03973049450870254 0.06467955345055897 0.0237574113650702 0.011230284895891533
8828740000.0 0.035706374224051825 -0.005605196387523229 0.04231662885188894 0.07215383611204254 0.8153154443826657 -0.47259122402552 -0.030502627121500803 -0.03590224832792699
 0.04312569939971089 0.07206955303974377 0.028390292106092712 0.005982596966128035 -0.029410934400764296 -0.03715809658824792 0.8208991234813187 -0.47963936560110465
 0.8134700332726338 -0.471400917463442 -0.03262217796283507 -0.03692990175140488 0.04313168244759236 0.004832228456141402 0.05001516276643486 0.07651491956639693
 -0.03299600197548705 -0.03627103390039103 0.8223391241860418 -0.47875441934834356 0.04334334534899237 0.0603971358562806 0.02996006100901228 0.01053783289735243
8898730000.0 0.034513152605210394 -0.005479855145921809 0.04305744961234945 0.07250153009519635 0.8114220966257646 -0.47616151091191694 -0.031841196127158085 -0.036799084104828204
 0.042927429664614936 0.0724804935108609 0.028847617553695245 0.004837521311147822 -0.031449473715036834 -0.03756822332920121 0.8184371695791404 -0.4800515470730499
 0.8108766116409971 -0.4727506338259744 -0.029028708462659546 -0.03882664022396611 0.03169833310920542 -0.0019752706430347868 0.051340972887090934 0.07224785276751974
 -0.03172654021183165 -0.03765579756234834 0.8188833987458887 -0.4791852233325281 0.046787244303615534 0.06677482360914487 0.03583331804896014 0.013615679608370559
8968720000.0 0.03467463532293837 -0.004788417672006112 0.04328639194993141 0.07254561320655409 0.8082789231228934 -0.478859683424744 -0.03216846128960668 -0.03801492887509327
 0.043260999637578186 0.07241057163278784 0.030407434761508166 0.0015782712832570498 -0.03070030117633196 -0.03605385892622465 0.8151077672537768 -0.4844193963892423
 0.8075339235236427 -0.4775930646023483 -0.03202053623250908 -0.03550018326307649 0.03630815609242759 0.003245653096833213 0.05252772247923996 0.062342140361669615
 -0.03288740380033393 -0.03898484137700071 0.8169719415666811 -0.48350312030502 0.055304877169977944 0.06560759856904504 0.028229169141304352 0.011950551555326547
9038710000.0 0.03495246551631628 -0.006079771321850008 0.04380142270557824 0.0725096067421068 0.8067790131694602 -0.48135257501668893 -0.030721346151725764 -0.03674466349890221
 0.04368259254436971 0.07286540876203354 0.031393746507634164 0.0015093447216104222 -0.03106069720070746 -0.03795929844881959 0.8129165524101754 -0.48757943948034166
 0.8060780586321712 -0.47997968299916943 -0.031353574091900094 -0.03954418534406768 0.029222040687726814 0.012301024541347473 0.04819271641415168 0.06813360049021658
 -0.03252559232225478 -0.037153684802424806 0.8178578413286164 -0.4851787823862489 0.04048517123071791 0.06942176569769834 0.024730046073488565 0.0041112900452525475
9108700000.0 0.03438868968457124 -0.005316152804588434 0.043714161472452114 0.07321867107659036 0.8058521510199399 -0.4857371358712497 -0.03180370344142429 -0.040143700037090134
 0.04391995093021758 0.07316357856325702 0.03434477284660217 0.002008474884535898 -0.031034448705247335 -0.03741956229362997 0.8133377421709422 -0.49039355073222934
 0.8027816892794871 -0.48732490122123046 -0.030970524737944347 -0.03731490980409124 0.02189297927472316 0.0031366196636884824 0.039018684146050614 0.07422499728659213
 -0.030423108444895135 -0.03896404745393149 0.8140474026090151 -0.4883040792960133 0.032114577764938174 0.06753288404805356 0.03555185062431736 0.017578547993889297
9178690000.0 0.035060931570358306 -0.00487291477115699 0.04422438164769563 0.07295285750700645 0.8018766728905715 -0.48738381958348187 -0.034088574561022905 -0.03545062805754888
 0.04408944414649462 0.07312882059634553 0.03439126959588272 0.0035292321374943585 -0.031486619702408306 -0.03972166965066837 0.8074944051344475 -0.4927879802692512
 0.8017282335846948 -0.48493131817331014 -0.02992797049012427 -0.04086743568251171 0.02945858665751155 -0.00034099299727295403 0.03857174143896281 0.05503693134187981
 -0.030778367025221843 -0.036989889383033846 0.8105594914139065 -0.4922924803803531 0.0348966641800639 0.07074883483912799 0.031015173110836392 0.01767802459416463
9248680000.0 0.03491696628992596 -0.005569161176608658 0.04476835645916055 0.07310448358514113 0.7975302282241565 -0.48973330028062184 -0.03319981243738305 -0.03898358636408225
 0.04482482184919946 0.07341156492652377 0.03228971701782361 0.006205390143978259 -0.032955950696475694 -0.03816771394302862 0.8095430574772605 -0.4941287690013058
 0.8014531561017543 -0.48902210917351496 -0.03328375394947472 -0.04052203552946411 0.039237232002674045 0.008189859415828924 0.04842526375459236 0.07229570838397878
 -0.03273405444614472 -0.03973472769710368 0.8097067651713066 -0.4952680026894344 0.04523186583423967 0.06835090557781444 0.029782078717488593 -0.0056121051498983915
9318670000.0 0.03370364746659679 -0.005990359001500051 0.04555036535909769 0.07404323386634347 0.7967368093445809 -0.49407264268465756 -0.0325173787025923 -0.03723415909825643
 0.04565127344722727 0.07340673386087038 0.03126202901759525 0.006374703018750346 -0.033546750703142066 -0.03931667227165409 0.8050880283622581 -0.4999242107280241
 0.7982075172088003 -0.4953116608463399 -0.032491576957080666 -0.03578411240673001 0.03574401899976587 -0.003330068099694366 0.05307989132367729 0.07229367756261693
 -0.03307886094803831 -0.037715095218744756 0.8053281535007707 -0.5004091345404629 0.052362495114985086 0.07255286805110517 0.038653218035653775 0.017442730344363746
9388660000.0 0.03481903533077295 -0.0058192954907881666 0.04587579232439481 0.0739034464628084 0.7963386397632253 -0.49557417918210084 -0.03292006707109523 -0.03870899995660416
 0.04623435656293237 0.07379958407404417 0.02873835273458288 0.00642422002347524 -0.03699813477279715 -0.03803950745245154 0.8007013720226864 -0.5048638688019521
 0.7981694337574049 -0.49478322710507255 -0.034175815852243954 -0.036531934823965884 0.03212521765312829 -0.001999900086193433 0.057330887927635264 0.06814774698791691
 -0.030870507944056907 -0.038254141186810156 0.8049454252303584 -0.5002943972863463 0.030986971320628016 0.06719915486138425 0.024953189132117377 -0.01381635376864364
9458650000.0 0.03456424218817997 -0.005800989598564963 0.04609344740291033 0.07428804318421822 0.7924530222305087 -0.49881065325531065 -0.03421936847519489 -0.03909645455412305
 0.046474590538539765 0.0741509983287596 0.028529142881160954 0.003683346682992866 -0.03488072556422476 -0.038410246509445654 0.7998027292343326 -0.5066768187747029
 0.7927475294953417 -0.49966720241601137 -0.03324352517404465 -0.03824931157743796 0.0380754843437681 0.007670255362202622 0.05915439004714197 0.06657571020739547
 -0.0324206999200043 -0.03690214953680305 0.8044937092121293 -0.5051762177166407 0.04319428138954448 0.07478580955205932 0.0376493836307781 0.004272546714309345
9528640000.0 0.033578518854120665 -0.0057288476161367315 0.046869483019305276 0.07447468508399417 0.7915291728465624 -0.5028135933407916 -0.03340140175904326 -0.03860916912956397
 0.04699856741359438 0.07472914776460705 0.030054008724676874 0.0016013252439641883 -0.03315965553119528 -0.038789859861661447 0.7967185533981007 -0.5075193667617596
 0.7906367358959832 -0.5036015293329216 -0.032266817089030425 -0.037783995228830775 0.033578195677009356 -0.0009442365426321189 0.04897267162777241 0.07136580178122676
 -0.034449168128293864 -0.038159777562827 0.7979209387722646 -0.506009038100707 0.05503496085751873 0.07437029590415818 0.029280657545978257 -0.008816953253200787
9598630000.0 0.03532986063358334 -0.006775939186698538 0.04683252378333269 0.07491918730834513 0.7888135755400932 -0.5050257866527762 -0.035236577098276614 -0.03964552368862089
 0.04735801443199814 0.07464211313084089 0.03078217372835252 0.0010047217930239838 -0.03548060884480516 -0.038149490234428235 0.7953531329019002 -0.5095659761249524
 0.7880069495656922 -0.5054245036208267 -0.031336083958683085 -0.037218728497246195 0.04229780016130902 0.0024456139330521704 0.060667258774968605 0.0751569533511684
 -0.034370167953306045 -0.037261728073471306 0.795842339346988 -0.508733654062464 0.047864949000996346 0.07755338362836743 0.02503705280974667 0.005561704160656103
9668620000.0 0.03447188930433489 -0.0059821665704185 0.04801938651242629 0.07448571875449575 0.7875707030055021 -0.5072759433002368 -0.03480238200265239 -0.038818136251170574
 0.04784909506516384 0.07474559962138534 0.034980883064575086 0.0004791131746622895 -0.034903319694358954 -0.04007250669119584 0.7933342888304286 -0.5144186971773148
 0.7860993225900835 -0.5108787380536614 -0.03532773314776454 -0.0377711941771231 0.046946670147847126 0.020378532142969585 0.050654125556776966 0.07979134697737586
 -0.034427218653687655 -0.037532428181233715 0.7946629227752893 -0.5140548906114145 0.04343276902334429 0.07124950555975226 0.03100583775954254 0.02046661781091101
9738610000.0 0.034156102083615233 -0.005949168765485766 0.04841534716665627 0.07501048086148909 0.7849389937435798 -0.5113560730784658 -0.034746469617839566 -0.03863092827123729
 0.048424593548048886 0.07475497424983941 0.03654889390476767 0.0030660193130322157 -0.034207431637337145 -0.038515486613609796 0.7892092750275909 -0.5177046415873414
 0.7843438649548979 -0.5113994102931875 -0.033295742630644644 -0.03871110194839367 0.039854163055620805 0.006660556122707304 0.04754428653410481 0.07161743449137896
 -0.03404094119956206 -0.03876245084432367 0.7912202143148148 -0.5133468700411016 0.04326482823612769 0.07273432027177015 0.041424150056430374 0.0025148988156206945
9808600000.0 0.03490919520966652 -0.0073353719915234174 0.04901334814498422 0.0751100782881382 0.7822395224174288 -0.5145202124605538 -0.03425372469081871 -0.03854023457759806
 0.049237916667777694 0.07491698155403366 0.03291302973795707 0.006950293318559187 -0.036244068404880474 -0.037132377978164426 0.7857738605139984 -0.5196897343369
 0.7824549534153634 -0.5135462809230663 -0.03658668386977162 -0.03911489449838173 0.041982790962813196 0.007406740868803542 0.053821752836127876 0.07048293104616142
 -0.03632809698840903 -0.03951245989946167 0.7880959097923225 -0.5199503756246989 0.04200655327230196 0.07360114574691728 0.01471449670160966 -0.011488104256901686
9878590000.0 0.03505960019007245 -0.0063472274303987015 0.049215185602195295 0.07581715303060116 0.7788315772058586 -0.5165555971955756 -0.03612039941608089 -0.037535304178905195
 0.04975805331326679 0.07547133504614073 0.03279170406809693 0.006349463712635979 -0.036457930479125635 -0.03735969897341112 0.7869851695688841 -0.5244062846147407
 0.7796816958583019 -0.5181862197699777 -0.0349719271060171 -0.04001443356754223 0.051165385914782514 0.0006564926109490832 0.053905450977194694 0.06342261127564895
 -0.0352197169868608 -0.03963616594762219 0.7854224268110701 -0.5240041738315189 0.04243825112900659 0.08202015158440573 0.01812624263325674 0.013197638429872753
9948580000.0 0.03409257417258834 -0.006380972402485801 0.04977893065195898 0.07594956616082683 0.7792107205523122 -0.5190904956280676 -0.03613849407830404 -0.038699452811867256
 0.05042123777808647 0.07615446893169406 0.029898557757841723 0.005925279984639659 -0.03704563424419887 -0.03749525977726277 0.7861256377741009 -0.524994160149278
 0.7767726406210068 -0.5188528831060278 -0.03575460282915115 -0.038187623158666924 0.02986747131096927 0.0019081988742356386 0.052338973738743896 0.07394862042792719
 -0.03585361176494131 -0.03931898059267914 0.7870926861034517 -0.526711923050007 0.053870532211718725 0.07082084482582086 0.03174132302961709 0.0020928530639762947
10018570000.0 0.03499652218207603 -0.007744086435165989 0.049957315800556026 0.07638161747837609 0.7771779906970585 -0.5231798648991733 -0.03641486815065191 -0.038822273299223255
 0.050180482926754276 0.07632616135725848 0.02870290923414266 0.003773008063274718 -0.03554286680403327 -0.03954355632943261 0.7810778375321241 -0.5298089846678684
 0.7788527451678615 -0.522704010569134 -0.03494393276954606 -0.03793129209036383 0.04279314981630619 -0.0009944991484548405 0.051074788029448655 0.07916859604231552
 -0.034843135006589886 -0.03872806715242157 0.7866561076761056 -0.5240163298169295 0.0578611813109938 0.07976376008786171 0.037523021515686775 -0.01061800141542778
10088560000.0 0.03484629564916317 -0.006486981071271548 0.050841997502655494 0.07598740046954953 0.7723407874353457 -0.5249997110904752 -0.03562117087477859 -0.03989262763101406
 0.050253584749581685 0.07650801970877279 0.030027014660247583 0.0002759885738141518 -0.032391945747451724 -0.0390652341726544 0.7813635204418792 -0.5336355654013198
 0.7759745712185026 -0.5260374062177571 -0.036227432530722595 -0.039576888278269745 0.041994003790453316 0.0036543946798976304 0.047116169037746965 0.07047241257262042
 -0.037264966633433906 -0.037222195108001115 0.786359583489274 -0.5277605162524803 0.0785397945883516 0.06705139968710527 0.03721071631356572 0.004957822253675694
10158550000.0 0.03412361739844689 -0.0067383214852851665 0.05062766685960856 0.07560709334387365 0.7721180704568062 -0.5270253702591301 -0.03851510910617412 -0.03973451691504833
 0.05047443786654576 0.075554292966098 0.03269262927307153 -0.0020445842705417022 -0.03316930786186302 -0.03800032700919285 0.7741947735629313 -0.5375497144824106
 0.7737771929090448 -0.5301436689853402 -0.03775324574611925 -0.04152622444824276 0.03151603317173182 0.025536840213607824 0.06176290543156454 0.07660774351978293
 -0.0380999274044581 -0.03842783428751001 0.774674791490692 -0.5350633328047455 0.05475689385196202 0.060175985651878525 0.038426241991027406 0.02744549487274285
10228540000.0 0.034200913834527336 -0.008185310813166584 0.051708651241546146 0.07628453510446896 0.7712171167473588 -0.5333553689535567 -0.03640690636293329 -0.03924781219848335
 0.05115657127200204 0.07623306472872189 0.03285296871125614 0.0019367844328314946 -0.0390660605747563 -0.03645914844268891 0.7746165261970098 -0.5385321260126016
 0.7730775341523423 -0.5316258736060617 -0.03591593547326009 -0.03975062699473407 0.044617687829946275 -0.005666459767670528 0.05653487259444902 0.07733790758515893
 -0.036557150963967576 -0.04201833499322347 0.7769236046764609 -0.5401581882578117 0.057109775672331366 0.05432939404071642 0.028498623532648308 -0.0037309066824461577
10298530000.0 0.034434255334030425 -0.007855851469003926 0.05257795048154391 0.07728996954716273 0.7675849217423916 -0.5314130012088203 -0.03561958814893341 -0.03999583283877046
 0.052153710089927426 0.07610994210720717 0.034835014911748015 0.0021321746501112345 -0.038014124545806126 -0.040038231070587404 0.7741939892180156 -0.5436327532043725
 0.7653336305413202 -0.5310849785659791 -0.03703649727886985 -0.04274343780983307 0.05426819377215294 -0.010196774323289358 0.05430678058925328 0.06586002237849871
 -0.03665295889010383 -0.039501171447285204 0.7786941637595752 -0.5425144741073267 0.05825241349670168 0.06780640911888422 0.02696740073441651 -0.01662359540910837
10368520000.0 0.03423243998590146 -0.007183753938531658 0.053107961566404974 0.07749808025103021 0.7630511940148149 -0.5375288039004749 -0.037392007431395265 -0.04089024155427598
 0.052551665357824684 0.07681184550056266 0.03542008068796819 0.0049200815510577174 -0.035865917599298414 -0.04065657187260803 0.7717004513374128 -0.5451715247367421
 0.7657118817801628 -0.5382018378267068 -0.03901636708548827 -0.041938733263547585 0.03275816715311107 -0.0039837405870344735 0.044017136088600785 0.07901119251560733
 -0.03844425499503042 -0.04158482917944327 0.774500269254927 -0.5468885119218292 0.05621192366763726 0.07060142769259849 0.021347246113270615 0.00936966609366388
10438510000.0 0.033552870388889315 -0.008075674110752898 0.05325753176409929 0.07696776332346056 0.7622830621009479 -0.5420514234373403 -0.04034564286304968 -0.04141538241614533
 0.05299863218976729 0.0763312276776452 0.03240701023300999 0.006389562504486397 -0.0379896528098112 -0.040741195892515125 0.7675161550545919 -0.5432776921735171
 0.7648552273320421 -0.5398383480607952 -0.03632149838001379 -0.0385763388132023 0.05104900313656675 0.006439168639785908 0.0491514435866023 0.06979294782593541
 -0.03778297391318636 -0.04082176112894749 0.7718266104302477 -0.5466343857812527 0.05285609430283702 0.0761859813838966 0.02670359873711458 0.0035746386057026467
10508500000.0 0.03420271399955868 -0.00784455685088025 0.053260921141393705 0.07772693116894311 0.7608956038242729 -0.5439314282556306 -0.039724723838892195 -0.042378507985413524
 0.05363834651908205 0.07719926979003178 0.02890891458598063 0.00573437071999054 -0.03958745121380327 -0.04002836250188503 0.7684673312439391 -0.549890893790789
 0.7622088693754102 -0.5427661689650941 -0.03827569430423808 -0.04047328933842771 0.02892576145872083 0.00393317313366683 0.0554006060707994 0.06809997624077237
 -0.04085292212539903 -0.03988061949960326 0.7713137815996891 -0.5495295671838225 0.06295798974176893 0.07453966149877247 0.040305820689540424 0.009956214458978523
10578490000.0 0.034420829017267326 -0.007520550351075684 0.054042348333558865 0.07726844176947568 0.7563862355971662 -0.5463588402913454 -0.04066591927117243 -0.04246785605372271
 0.054636014282234684 0.07768939763233611 0.027383900209142487 0.0029810238438663698 -0.04335413513599683 -0.04264193489245298 0.7646874339357845 -0.550205255808982
 0.7568750992277541 -0.5460265632702697 -0.039962666600982355 -0.03795259339720297 0.05095010068238106 0.00919383942672056 0.06549429152911936 0.08044151864219187
 -0.038668475451079 -0.041088409622858604 0.7690094713384276 -0.5487288200671648 0.05077891976456554 0.08862790036001764 0.03529224580991002 0.008389757349604749
10648480000.0 0.03291737296807447 -0.0072635818726640485 0.05439340377340402 0.0776248103236597 0.7545657388846576 -0.5485324199126801 -0.041170175050784436 -0.04042308649513458
 0.05452568536206406 0.07809844146012616 0.028515559748601108 -0.0005196433075105904 -0.04091772934584896 -0.040653634138063964 0.7625220332207453 -0.5541047332760455
 0.758160681170506 -0.5472260686928256 -0.039185858092766854 -0.041563542658984376 0.02563794543725167 0.01202263119593054 0.05760767281614195 0.08005781565909739
 -0.04061354233344737 -0.040492369861263346 0.7634224169115262 -0.553119867492778 0.06287174853237254 0.07143520590549937 0.041210368284021734 0.0025762961630685067
10718470000.0 0.033835419280773264 -0.008753817778376341 0.05445471943567208 0.07771023597513232 0.756340140023591 -0.5512551432436399 -0.03979654569186642 -0.04328599912476718
 0.05498748929148406 0.07716599637856336 0.030449749939589123 -0.0006157195626027606 -0.03954388508924936 -0.04112017766290298 0.7617185392307632 -0.5584204999289732
 0.7528872470192227 -0.5544591809254246 -0.040479747478638674 -0.03883699524102739 0.026881396776586335 -0.014730229880112876 0.05741630038116699 0.066357784722751
 -0.03918755680183754 -0.040732424686125875 0.7590442018477735 -0.5577539257288712 0.05934564247993109 0.0760444952230443 0.02769000136235935 0.008018020593673474
10788460000.0 0.03288920228363487 -0.007792699578516091 0.05546295288512165 0.0775648921894645 0.7493653538361168 -0.5533467362227015 -0.04070148740599557 -0.0420580700631114
 0.05530038303319065 0.07776997240025177 0.03465947584334246 -0.001169297744502768 -0.039043897648567874 -0.03901447033572449 0.7611387190226326 -0.5597536250898102
 0.7532239194127286 -0.5531864613392315 -0.04045178319192965 -0.041662610018543815 0.03934360052795023 -0.0146590942997568 0.058332723177543254 0.07499522791470324
 -0.04038517692956398 -0.04216082474207393 0.7620838298566868 -0.560657540754834 0.06211537150116689 0.07670645150246855 0.04263099913702522 -0.0012173337495499789
10858450000.0 0.03355854658471288 -0.007082294808922754 0.05569847951845275 0.07782994704604376 0.7481080644730671 -0.5587246178170306 -0.04102549310896707 -0.040617813097579954
 0.05551749321615462 0.0776584969231054 0.03603950162900951 0.0026005607111364007 -0.04222434347657803 -0.04072035152225098 0.7560713732287891 -0.5659755487288386
 0.7490067880341792 -0.556957949961509 -0.04112078576087355 -0.04099724124627194 0.040601755864838496 -0.007701245453725067 0.055726744195284575 0.07423899871993862
 -0.03847537136428724 -0.040978414841260115 0.7591356093364633 -0.5662642562232348 0.06767171411257454 0.07733301498907211 0.02615874954040897 0.010274751046661909
10928440000.0 0.032645876758015814 -0.009265114085561904 0.05704583863868551 0.07798174323337598 0.7465197655716331 -0.5594303204385536 -0.04106676962736482 -0.039706643685689366
 0.05674566336988649 0.07792558052917753 0.035188577122836344 0.006029551181562991 -0.04211143166743519 -0.03937644916480809 0.7517324530406497 -0.5660866676570799
 0.7440436984615264 -0.5624223353712888 -0.03886426582630882 -0.04062652192839352 0.03189552646191118 0.003224992772785733 0.06874218161138848 0.06945643559741838
 -0.04226179475156967 -0.04359480003987345 0.7531685410913036 -0.5665021951209784 0.05815826057244768 0.0674174469332019 0.022041978871222966 0.010789463690357519
10998430000.0 0.03315121807412552 -0.008254994116087343 0.05661387652184266 0.07751905595659753 0.7424106435614425 -0.5650089820454677 -0.04280194577058291 -0.04163164994098796
 0.0570249825229602 0.0777298081201392 0.03222336803997139 0.005825505417860921 -0.03999977527267505 -0.0408438587205591 0.7522307897312823 -0.5701058285478904
 0.7451389198030872 -0.5642798521848588 -0.0417252706549082 -0.04015564997303353 0.015492092682169202 0.0023631928183567093 0.07417350413514831 0.08291266906730718
 -0.04002313642594218 -0.04087028128209601 0.7545449431037105 -0.5695756903068632 0.06106789786546719 0.058121419856598175 0.03514841356618134 -0.0009430779401990643
11068420000.0 0.03313434143040156 -0.007715059240210496 0.05736431604458054 0.07800128049421146 0.7427032753950202 -0.56581900498267 -0.04177452261161258 -0.04129375858621732
 0.057375023459467864 0.07822142632301214 0.028906148967131975 0.004787909363284939 -0.044816987895093904 -0.039717146864380874 0.7481888010286392 -0.5717306661576169
 0.7407886244482075 -0.5634661008254377 -0.04262492425978365 -0.0409867965894886 0.042419236566315285 0.0016991987213473055 0.062151894780800236 0.07967695793318136
 -0.03912122227517377 -0.041004881066377126 0.7482514916973707 -0.5704033943746474 0.06065914514801446 0.06813766882639316 0.04220400521821789 0.007415402311215106
11138410000.0 0.032774514952731267 -0.00953054929321569 0.05819511646157303 0.07786321227728864 0.739906295778575 -0.5698887015323386 -0.04174356332917962 -0.041639944722717634
 0.0580555096157179 0.0783000694787921 0.027584586804313267 0.003753811624735935 -0.04218799541892647 -0.04202044773445547 0.7448434663760244 -0.5736990597014862
 0.7410334437229467 -0.5702336351681392 -0.040646364978418933 -0.04170936552051043 0.04635294924219068 0.014233227063373424 0.059723305449485634 0.07374158687195102
 -0.03981980779543192 -0.041558544209324734 0.7486774081160992 -0.5738557398228651 0.061710332447028296 0.07629553135017703 0.019318024943686687 -0.004231864223559984
11208400000.0 0.03218377711040843 -0.008471503490847727 0.057310584973172804 0.07848024844613057 0.7362183757273527 -0.5697062346030292 -0.04505084191079619 -0.04112755619128487
 0.057049703941446706 0.07799076907256154 0.029439873373025064 -0.0002492319655223193 -0.04367842722506773 -0.04163541638641703 0.7454764965246503 -0.5779664380736118
 0.7378877865808194 -0.5653206544484581 -0.04305439682107002 -0.03970108068647265 0.05852840102643689 0.009544175222597838 0.05937628027476445 0.07935992021481178
 -0.043363580702947116 -0.041201306617760954 0.7484066729363155 -0.578160919429424 0.05438634525849873 0.07124877284742989 0.04283085868338478 0.0052686849983072815
11278390000.0 0.03395834668564829 -0.008430917667153048 0.05863376673562817 0.07798784809490356 0.7336199000769676 -0.5745965736370141 -0.04333844740238495 -0.04015503111123084
 0.05853895753990876 0.07737508936929219 0.03146850916563377 -0.0016811044686567552 -0.042020714252401704 -0.04057964073656474 0.7401738379615669 -0.5786149140836918
 0.7326384148256284 -0.5752258665680333 -0.04207937463208747 -0.04132372155900803 0.04569977748606715 -0.0030828308976000307 0.06406636664769527 0.06444900393854093
 -0.045610629153282456 -0.04037289044827315 0.744513544999116 -0.5747513795254199 0.06383212623702116 0.06429296528917743 0.04018359401624833 0.009698156430654253
11348380000.0 0.032245399418690326 -0.008363495086573396 0.05972081902839702 0.07781199788487507 0.7308863243018041 -0.5775502986301236 -0.046326660011922316 -0.04081644230322865
 0.0589653225469829 0.07700340553162205 0.035660859566879956 -0.00032641783687905755 -0.04355857909445262 -0.040695994093625586 0.7379912651157152 -0.585013175338729
 0.7294156483686265 -0.5771978107745452 -0.03926453059658294 -0.03627860561637875 0.03241727899798992 -0.006387419876856906 0.04943256482834488 0.06067575424876974
 -0.04288433347774848 -0.0404934838710306 0.7413158601581771 -0.5816098611001208 0.06891696343825647 0.08003445787490297 0.02532694875976865 0.010696110270367884
11418370000.0 0.032729540902613624 -0.007689259344602809 0.05966845704333047 0.07853432528286908 0.732389726252364 -0.5793835132926872 -0.04368220640889166 -0.03816889194140367
 0.05862080628542714 0.07799463955767186 0.0381008367675297 0.001407152463453465 -0.04593496405989769 -0.039178537753581155 0.738563751742095 -0.5872528684674236
 0.733679555010033 -0.5821978862768611 -0.04241700381284451 -0.039412311696701834 0.055057520232393006 -0.014970612712351871 0.07835740212400209 0.07021940227145335
 -0.043130216563661165 -0.0400133296245068 0.738629968539283 -0.5845284474935383 0.06461496598202406 0.07025092127320194 0.05288933977424316 0.005893144855227428
11488360000.0 0.034078635823941966 -0.008693459063075218 0.06021538446959422 0.07828628196617948 0.7254393577228715 -0.5821352583501689 -0.04449544830187069 -0.04020867267836871
 0.06019925249682691 0.07820905650003432 0.03437156141374888 0.004247007134328622 -0.04335748568859935 -0.04128848702761229 0.7358196402925739 -0.5903043611343087
 0.7299125537580448 -0.579589510239702 -0.042493880539797066 -0.040192473876211866 0.0495546652454397 0.0012446925813302018 0.0695782265044505 0.07542502327149807
 -0.041632669453718144 -0.03798042213917599 0.7313086695127782 -0.5869855280531483 0.07185091487893491 0.06709017628829031 0.027989339200208962 -0.00787538718960745
11558350000.0 0.03244574345353244 -0.009385248674956407 0.06029299351966004 0.07856882832942198 0.7253497720163918 -0.5853493283319499 -0.045086308561548195 -0.04102006230143183
 0.061145079932161256 0.07786275705990699 0.03283687808256655 0.007293579234899694 -0.04425208908400285 -0.03892282443324076 0.7316559404825611 -0.5926789023352984
 0.7270723631489175 -0.5839592513128983 -0.04635747069682182 -0.04208188469473832 0.03701957793881432 0.014232580293919715 0.06304413708205944 0.07496294481100535
 -0.04619454477464209 -0.04046305877364019 0.7347277346774753 -0.5892987812110684 0.05705458898011436 0.06517681085727292 0.03435177969706318 0.0024876147920107746
11628340000.0 0.03312177164538074 -0.009608241156067166 0.06115528370627173 0.07802190041500674 0.7217050197406669 -0.5893198471924075 -0.0471089703783943 -0.041673366329364143
 0.06098971901648901 0.07843773424584541 0.029975790638145573 0.005658219304869397 -0.04821045804887864 -0.04160490129558499 0.7282848465515586 -0.5936868261050169
 0.7259261934347211 -0.5905941378985324 -0.04651169141889791 -0.04262145688766683 0.038659873314486184 0.004903140431686584 0.07321752608330007 0.08068961665351325
 -0.04754494331500367 -0.04246829454604879 0.7299623423126403 -0.5947769662428355 0.06340863818398429 0.06415899122840928 0.03754523075715415 0.016840701222306582
11698330000.0 0.03377588616343516 -0.01006845128287143 0.06188788798067229 0.07793024051835763 0.7181058800024004 -0.5896919707624504 -0.045139813897514924 -0.04297209469650429
 0.06176228352080681 0.07894459507367649 0.027105453135765626 0.0012561030326905974 -0.04515496281665105 -0.0424779931297933 0.7272075414839309 -0.5959888305380826
 0.7211801522742214 -0.5923547555905213 -0.04742738140364551 -0.04274384225441569 0.030450778700828792 0.012416584772564604 0.06301311426957623 0.07731511769804288
 -0.045063451031758135 -0.039808801922900275 0.7261363954139629 -0.5946810145373749 0.0695103973515244 0.0674611615772832 0.027113226073791033 0.01737361542278261
11768320000.0 0.03194946722439806 -0.009288890724702898 0.0612890773223907 0.0784436478200742 0.7165590381830255 -0.5951320479736315 -0.04526382530997069 -0.042166092715966046
 0.061673147044810056 0.0779582803851161 0.030332663140305565 -0.00012104392456947573 -0.04444430393161039 -0.041363699885074635 0.7224652659265987 -0.6003428132463954
 0.718640343976155 -0.5952150601637674 -0.04496658741301492 -0.04252918090324818 0.0429667598748556 -0.001203841712473344 0.06733658700592762 0.0840486873756876
 -0.04754044301261398 -0.038471945017827025 0.7207277425024738 -0.5994457061933387 0.06507604030326174 0.0724545710575946 0.03771854779017214 0.01261831942556121
11838310000.0 0.032419013374121584 -0.00930750335572111 0.06259630455037801 0.07809010424833669 0.7151804377192668 -0.5963610975789835 -0.04853433253504349 -0.041046500380757966
 0.061905541137518526 0.07844136192660663 0.03412360229397539 -0.0024600179652546975 -0.04716876842596426 -0.04314367541092318 0.7193101594680047 -0.6022705338201899
 0.714548749241989 -0.5979071902798118 -0.046796872580628375 -0.043701897229701074 0.03196893186781564 0.0036513257162526956 0.07292483817665284 0.07466276822221568
 -0.04950263857942183 -0.04514875593652904 0.7241211839337922 -0.6026271834399576 0.07079480485683036 0.06875479584425738 0.04131717803173552 0.008906221742070258
11908300000.0 0.03344386963455123 -0.009737607536651871 0.06267858523220045 0.0779396950136037 0.7137338254048609 -0.59933312671376 -0.04866800378684976 -0.04062656633362617
 0.0622555267604837 0.07797802835128685 0.035403604314266236 -0.0031833228612804295 -0.04864829584932942 -0.041116965012864035 0.7174590990450737 -0.6053192527927667
 0.7129244227348831 -0.5976664984289136 -0.047851246157556704 -0.041947871726975394 0.0317422745770081 0.011198193741326277 0.07055460775008593 0.07223234338576352
 -0.04541760735206508 -0.04249688231343506 0.7192133058603754 -0.6057529172916664 0.0740540735484345 0.062458237451089 0.030593682646176134 -0.00452795895124968
11978290000.0 0.032406025707873605 -0.01001208706868167 0.06291698581651275 0.07832522986050286 0.7110669404480803 -0.6014097428583738 -0.047877292451805886 -0.041730573495398
 0.06225912884473266 0.07810262777867442 0.03657951704886166 0.0010342803204440813 -0.045147557115977004 -0.04050858621595832 0.7147098646568436 -0.6063301702487799
 0.7116251295551377 -0.5972712846018525 -0.04804256757090264 -0.042460097252802184 0.02337153583685818 0.0013541426455114913 0.06665240618160446 0.08804982180545066
 -0.04605768872575819 -0.04064933824461528 0.7154934921253451 -0.6062728984631468 0.05916184323441483 0.0711958829997312 0.032555080406189596 0.0031088256581750773
12048280000.0 0.032439366437905334 -0.009107073321048301 0.06300765451830924 0.07851792516572606 0.7048931375145638 -0.602974758561851 -0.04727395215520954 -0.042210665732888175
 0.06338507519700536 0.07818491973229531 0.03504313433484583 0.004023278047224969 -0.04903299510870281 -0.0395765098098784 0.7137470188475943 -0.6109688400642715
 0.7069394605599977 -0.6024994727735299 -0.04909166704106054 -0.03928301864227457 0.023634578120535942 0.009094303865118732 0.06974574605407655 0.07703791734084074
 -0.050163652593470456 -0.041656133132509265 0.7153989227556486 -0.6142621549391504 0.07051363080212936 0.06536900190743233 0.037782891168846484 0.0007175847800485423
12118270000.0 0.03215188623236208 -0.010464117807636097 0.06367297691201508 0.07832052983007459 0.7064018252318561 -0.6064380406240025 -0.04802586665804706 -0.04260564532650714
 0.06350494033626682 0.07774466264510003 0.030665688833940677 0.00527508299902102 -0.04956461837760482 -0.04301407952942599 0.7094524625365576 -0.6120439890327534
 0.7073846854969972 -0.6040660243118238 -0.04907295493089788 -0.04227829246465012 0.038515874243790105 -0.006009362567727558 0.06738686368628811 0.06151474187082453
 -0.04754795687638023 -0.04206495549498862 0.7180684146543688 -0.6150728591385146 0.05957598723151267 0.068217947092769 0.04291393881504502 0.01426817243448532
12188260000.0 0.03193168166316173 -0.009778006278110998 0.06480070680711995 0.0787771693659152 0.7039111169555666 -0.6093773784678562 -0.048724441417018274 -0.04406670836463651
 0.06401953452659145 0.07831221781886807 0.029025344108513682 0.00528617673485297 -0.04873963537754192 -0.04352639996102281 0.7091001991824865 -0.6165698155791469
 0.7025489190846248 -0.6078972232544329 -0.049071412525513745 -0.04436229782041174 0.020840670826847735 -0.002241855909125964 0.0693388149533206 0.08053072840657512
 -0.04909735074320593 -0.04223098023839156 0.7122435457000489 -0.6224967285608713 0.07248355571071328 0.07119252263939947 0.020665260952941834 0.011595475701230757
12258250000.0 0.032526474848073576 -0.010425721353944302 0.06463574594170696 0.0785792008598079 0.7001044735860998 -0.6123072252923651 -0.0486273143058735 -0.04205030539843854
 0.06452276198834614 0.07831583186757075 0.028292920162884216 0.0016454558605943541 -0.05026396846617666 -0.04285383256696663 0.7057812828372677 -0.6187306759206724
 0.7007838798406384 -0.6123923842190276 -0.04995456301052996 -0.0405945111103642 0.04068291137831813 0.008268484271073281 0.07030625556874548 0.08774531568259347
 -0.04632848800733572 -0.04162893135626945 0.709646566557633 -0.6207665811180054 0.08059822685935818 0.08037386060866371 0.026273910711381982 0.0024606376263944887
12328240000.0 0.031261653907414096 -0.010236239454714347 0.06525716239452972 0.07829726037877958 0.6982378273304632 -0.6134693905463925 -0.049327165518966105 -0.04029121862725851
 0.06510328337426234 0.07832308534964635 0.029440741554718496 -0.002446422860249247 -0.04855437247643072 -0.04123293385944165 0.7028121298218086 -0.620728867298709
 0.6982975212476696 -0.6132664080124293 -0.04882531515102571 -0.03800221776147847 0.03581153251443092 0.006871669702018718 0.06668260303561455 0.06744233390831968
 -0.05037860187148917 -0.04053280421343982 0.703089553691809 -0.6205862746741041 0.06448355228983864 0.07612043998111685 0.047743605534764644 -0.017270485427169663
12398230000.0 0.03198256922491968 -0.010420544985772013 0.06506845849501229 0.07805597237944437 0.6949428731989082 -0.6176994384952675 -0.049772146056216236 -0.04324705364019627
 0.06511453178261942 0.07825792535038496 0.03138478411293068 -0.002617667474894299 -0.04849808242467332 -0.0411386792411876 0.7013896432297693 -0.6234934149001878
 0.6946537427374242 -0.617033253909356 -0.05003112370657917 -0.041542539810472866 0.04971564768074282 0.003632855566576989 0.07051013884227246 0.07316897758063405
 -0.0492997445616097 -0.041337494492658285 0.7010569560822192 -0.6229985909987696 0.07177741203396158 0.06830566153860668 0.0127474401148941 0.0002447281887117236
12468220000.0 0.032356646435488925 -0.010436607482747095 0.06556081960568161 0.07779036980299721 0.689488758535278 -0.6203949980356934 -0.05203671709766526 -0.041331111309307014
 0.06556285841628226 0.07739745142973357 0.035751863028976844 -0.0024644048404413596 -0.050527069513082765 -0.04065225591763946 0.6971900042310688 -0.626547627187939
 0.6898608889223768 -0.6192639335990773 -0.04819150605458509 -0.04155876477857201 0.04095631174809494 -0.011109455198084017 0.07423629261665618 0.0645222979768095
 -0.05130570586660015 -0.04204664461807498 0.6988379431488695 -0.625451111166549 0.07223809675838468 0.06782543593145977 0.02547091035960357 0.015113348035954283
12538210000.0 0.03092908515976206 -0.009901311399421913 0.06608447865437381 0.07791926264541056 0.6878926431259877 -0.6223953295437048 -0.04986710926158282 -0.04220680977232414
 0.06626910758308888 0.07716132453741506 0.036737702108755474 -0.00043904903042220886 -0.051575070402894094 -0.04180552216898344 0.6944118477700117 -0.6309223520858691
 0.6899020513624798 -0.6201176256067005 -0.04952867370249535 -0.044244717740362954 0.033955800349048534 0.011508182532995454 0.07698845115571919 0.08525636354737458
 -0.051060981875946064 -0.04190063822483466 0.6983172265599288 -0.6272461002992521 0.08057612239555464 0.06549507235049472 0.046313591148412325 0.011869357717080843
12608200000.0 0.031096514081530552 -0.011192374760800225 0.06665806237736913 0.0777721199494632 0.6840988592531859 -0.6223389059830174 -0.0508383724670998 -0.04122145953898612
 0.06712931755219016 0.07779759206671293 0.03317099521721827 0.0027906527783134335 -0.05236512379516167 -0.04088975149637207 0.6919994602043676 -0.6330871275639467
 0.6888701297445163 -0.6199780572787704 -0.04991547015866191 -0.039553436741690685 0.043225544399206464 0.016240310995761606 0.06731408673540851 0.08792130317831366
 -0.0491753420613243 -0.038495648914829275 0.6889737025858794 -0.6353479723607913 0.07367394178506932 0.07662054423067861 0.012514350976580756 -0.00670952308843184
12678190000.0 0.032637521598527654 -0.011424253960271184 0.06690294389136298 0.07796990622540993 0.6825272762152563 -0.629548794422266 -0.050764016735355945 -0.04117673785463846
 0.06706619967846345 0.0776634193359436 0.03352003484468604 0.004102800888043237 -0.051721052608555994 -0.037883900652874336 0.6884090050269592 -0.6362825390748084
 0.6848378637251179 -0.6311055473733365 -0.051892975190934096 -0.03963744466422843 0.04781382314788948 0.006523561269813132 0.06479027784670617 0.08378514392282757
 -0.05105946994093177 -0.03751678891843051 0.6905630916589418 -0.6308276279618009 0.08330191565027266 0.06510340656608538 0.03343790276266337 0.007096027817582753
12748180000.0 0.03136434853632132 -0.00956138417566261 0.06744361726281765 0.07826181202670776 0.6846772828041062 -0.6294913730354442 -0.05129163505629891 -0.04290898020927073
 0.06820713900898266 0.07766807830888212 0.030801713475523854 0.0033966034573484918 -0.052271957325437685 -0.042217933920143835 0.6890245741500951 -0.638852628368486
 0.6832165725203919 -0.6320002144321311 -0.05389563210306532 -0.042741662267779694 0.03830315257169888 0.0063570838469144365 0.08093786034932371 0.07667072982421651
 -0.05383515082397261 -0.03944525564224421 0.6847533764798569 -0.6411275270705163 0.062240209167293295 0.06576751612880746 0.041887528034721906 0.01721788284301892
12818170000.0 0.03134306972911358 -0.011791587724148735 0.06733037090379711 0.07732086270913716 0.6793235037325693 -0.6321810263603334 -0.050136611375180114 -0.04155360841836988
 0.06778206891796092 0.07791827537988405 0.026621027628525494 0.0005003085635034635 -0.052493585729431996 -0.0421977814984232 0.686741108476919 -0.6390675504832704
 0.6813106237992582 -0.6327520211776583 -0.05479143506538478 -0.039246055630233354 0.04275230747042875 -0.009816514394979907 0.07775660924752348 0.08263932735236965
 -0.04998720659230328 -0.04309803886618281 0.6892387382262664 -0.636551303873448 0.07813533217861639 0.07334435134477987 0.027416957044921413 -0.0018488759291724296
12888160000.0 0.031452718763080666 -0.011020323312153444 0.0675537229309291 0.07750267864232996 0.6771489321888345 -0.6339971402225901 -0.054154212815057536 -0.044015271174185557
 0.06785648002581761 0.07729005330979738 0.029764365366241084 -0.0036882135283114546 -0.053661796065550264 -0.04060854278449631 0.6833828372844882 -0.6431679804948894
 0.6768592481515145 -0.6340685168628378 -0.050985360631411354 -0.040824043360329444 0.03949198873698143 -0.0028896576257605583 0.078990419210492 0.07522200653568761
 -0.05656733111101981 -0.04333117907230616 0.6878664190423911 -0.638942318367011 0.08104563837252551 0.07660408227323189 0.02464510708194731 0.011845518981564784
12958150000.0 0.030683937718675097 -0.009809803539993287 0.06850724837046177 0.07738887497418287 0.672254922399536 -0.6376778966602306 -0.054245721275011025 -0.040636532506006136
 0.06759327665336562 0.07803728948368856 0.031700185634908035 -0.0051848560405536115 -0.051052276797257885 -0.040866510996387585 0.6816246033609473 -0.6429810909444204
 0.6783295226768888 -0.6386864762819249 -0.04855013576471875 -0.042189858262713986 0.0537510256554204 0.004503845363087785 0.07349073354985736 0.07678256630294462
 -0.051192929136280436 -0.042054984900242676 0.681428736136804 -0.6455917723281228 0.07111785620157608 0.07230835874952748 0.03761391144425062 -0.00689218041869519
13028140000.0 0.029497722647458844 -0.012603488838823465 0.06796346422502135 0.07791187961830988 0.6707736517963956 -0.6378807660064006 -0.05546792172678989 -0.0452367598569174
 0.067606449797213 0.07740830031053729 0.03165139848906368 -0.0032676050216934585 -0.05619004770581172 -0.041529144296121756 0.6764047235444051 -0.6478067597406958
 0.6709245845423486 -0.6370364912895098 -0.05407440561074941 -0.04230975301695977 0.04108921576545401 0.016505722714335355 0.07280749593155314 0.05835096179868857
 -0.05356542063213647 -0.04285247717296133 0.6830824648666902 -0.6451811931248816 0.07658065615646424 0.06182877903994959 0.039747196292087505 0.004635836163106965
13098130000.0 0.030813835258680738 -0.012571856883305534 0.06875395752435626 0.07724293042895569 0.6698487391354174 -0.6394377101898381 -0.05486297750682039 -0.0426821421318204
 0.06853159632385085 0.07719740697865007 0.03500571857192414 -0.0022778467810454185 -0.05404271460218085 -0.0427879811216925 0.6735644526085633 -0.6469061035828438
 0.6687231437084535 -0.6423288803894472 -0.053003539898276435 -0.03980327218090419 0.027856875605809857 8.652913497207674e-05 0.0717739878220408 0.07558687930556669
 -0.054558459948605205 -0.04411313006196057 0.6721811556896283 -0.646284746347762 0.07011065709834603 0.08384878803876523 0.03901602749351204 0.014715402354979246
13168120000.0 0.030014397779598467 -0.00996121131082339 0.06981439160846607 0.07748499411036618 0.6655107762955732 -0.6462877327296 -0.05411028668245665 -0.04052888373217538
 0.06973760764667478 0.07694507732676859 0.034882526956329 0.001558554982206257 -0.05453943423334846 -0.03987942222071722 0.6738154897694147 -0.6511348367563935
 0.6666673441272082 -0.6484498898137202 -0.053798526082209155 -0.03869248641115308 0.05534425119676739 -0.011192996871990473 0.0755127291742129 0.0590720739930953
 -0.054560969130997665 -0.040933527901296105 0.672606622015729 -0.652242461053153 0.07305289651101522 0.047832451326289764 0.04792888736158883 0.005122293036235224
13238110000.0 0.02855144929417566 -0.012756547364107078 0.06924673590669989 0.07800909110582467 0.6614277153737328 -0.648686033424475 -0.05475052609942111 -0.04252260836763225
 0.06997198217379183 0.07710698581416017 0.03101738910863712 0.003503404057015249 -0.05503409539835455 -0.040985450626312946 0.6717285110244066 -0.652462565789804
 0.6629057261330527 -0.6500391111378806 -0.05498895344434044 -0.039863167069551404 0.018484396859429278 -0.0016702134617228306 0.07356093497294976 0.06238231135139168
 -0.05380774800093039 -0.040355080770544734 0.6696154944761715 -0.6477412229645131 0.07216938159874776 0.06507766466160064 0.008540579229473924 -0.010814776759975482
13308100000.0 0.029545460043515 -0.01308054475694387 0.07026657035944381 0.0773774570533465 0.6627855863319151 -0.650002768485037 -0.05404796007115072 -0.03981847908050446
 0.07015317309860944 0.07678515464725769 0.02906805240542689 0.002500208791475752 -0.05730807014467427 -0.04145288372548671 0.6675066613293353 -0.6562430603038797
 0.6623156158430037 -0.6476964382570529 -0.05576879028586233 -0.04178144436420618 0.03841236642886077 0.002304165794944255 0.07536735781984791 0.06253486383741617
 -0.05582069701863858 -0.03925371600977379 0.6736379411853174 -0.6539245602080286 0.07251289010654006 0.08230765819051686 0.04825843257655353 -0.0022410653634267297
13378090000.0 0.029996493294917694 -0.010727507668607568 0.0703184976839215 0.07721984057621105 0.6596918042274283 -0.652690247896751 -0.0543696423599386 -0.042677234357354835
 0.07099602113153151 0.07675593648508738 0.028791022459014857 -0.0017528745485996154 -0.05529232684812493 -0.04015409415009472 0.6620699078412078 -0.6600487386827477
 0.6601859069744482 -0.6530879066455604 -0.054954617377147554 -0.04356274003839838 0.050404687312498885 0.0015245983004407348 0.07644657629700392 0.07928682967503697
 -0.05548839118719175 -0.04260036301742872 0.6691510241767533 -0.6620049326870736 0.07475611850897591 0.07214562037678504 0.04566027294648325 0.01561681211478747
13448080000.0 0.030353092517045762 -0.012359443807929336 0.07090263286370302 0.07660311057854308 0.654694276829457 -0.6529307917845438 -0.054994080714890585 -0.04228329359910669
 0.07064040875285171 0.07652804732586624 0.026390236202397672 -0.003708243557504087 -0.056951513706623706 -0.040893074361197344 0.6603430901262128 -0.6623781085280621
 0.6580188570762677 -0.6536976420242177 -0.05462320404344516 -0.040707318567916755 0.03458527552594474 0.01406145930088784 0.08403480842355988 0.07506664571015108
 -0.054996960241222644 -0.042410273632231855 0.6615511354410515 -0.6604288691342516 0.07286576500858954 0.06626065612485128 0.013853630123052105 -0.005879629659963412
13518070000.0 0.02946579877110787 -0.012991413920070638 0.07072223696167938 0.07696839509638964 0.657044538789405 -0.6584648430888532 -0.05580837766041969 -0.04076498992812587
 0.07108595867657957 0.07592357016617038 0.030762993123804983 -0.005215254279681095 -0.056027510315378885 -0.04122227665787472 0.6562037652714091 -0.6649861890681453
 0.6567870418727427 -0.6581766919377156 -0.05492289859958315 -0.03755934432404172 0.04399422474107371 -0.017418217163275566 0.0825812654232986 0.0674665566259625
 -0.05705644696868953 -0.04207440281030748 0.6611008038524625 -0.6625789068438277 0.073078240894113 0.06021652920708021 0.02826812138018496 0.010079091685618324
13588060000.0 0.029976625356122954 -0.011607404596104839 0.07125231326013262 0.0769938698022778 0.6506416761140839 -0.6598815844090226 -0.05411957599193296 -0.042238599390576566
 0.07171710174208025 0.07626824519625305 0.03415184460965224 -0.00587338374446084 -0.058152953113156915 -0.039624504634334354 0.6552642731661081 -0.6689065690392373
 0.6492469690891525 -0.6587167589844503 -0.05535591279649594 -0.0393344558923789 0.044502581668528295 -0.005275106930552774 0.07133978166411194 0.06519708367792539
 -0.057533479802870394 -0.0417716837249657 0.6606480718896763 -0.6655291559592476 0.0807677157007715 0.06772160995137697 0.01948201723139208 0.0005509211963377458
13658050000.0 0.030117980845091846 -0.012251313497917058 0.07213620182629586 0.07690814817319953 0.6483401166889479 -0.6608938494882253 -0.057321769172981374 -0.04053983086925906
 0.071849430514117 0.07642882888834508 0.03370571653242665 -0.0024399436945858975 -0.057974408353995095 -0.03991700404158424 0.6528363877435401 -0.6713718702859449
 0.6483688100886836 -0.6597362938704884 -0.050935028989945993 -0.03928320750864522 0.022344577796210505 0.004437559042723424 0.07950984192732857 0.07459663405374478
 -0.05597754117098394 -0.04068424674234699 0.6583878974644547 -0.6636730979931404 0.07871520972061187 0.060183475909919 0.023811324151270553 0.00036832958811685283
13728040000.0 0.028673617860920157 -0.013778114018211038 0.07258152532593215 0.07652232714764158 0.6432783492081334 -0.6633262641336084 -0.057357473257220966 -0.04216269800807345
 0.0721920631660569 0.07611259717983591 0.033660742130195286 0.0015259698083418085 -0.05968448097172958 -0.03976021812312013 0.6513757182778781 -0.6717874196100405
 0.6472572433474036 -0.6657568296654718 -0.05378052320017426 -0.04174081054529954 0.028935977081778332 0.00562082115289088 0.0771858708735738 0.07148733764288583
 -0.056874377450530596 -0.0440265286510167 0.6501765378967159 -0.6741135798965049 0.06361689290895707 0.06377891771784575 0.02957300108253052 -0.008191826036660568
13798030000.0 0.029760443613320912 -0.012507559372988803 0.07210443695003614 0.07661387228941863 0.6413601509947416 -0.6649535610253634 -0.05787521587558404 -0.04238804499406288
 0.07268700636140427 0.07633165040481452 0.03277389018429439 5.3638165149820235e-06 -0.059880208989771005 -0.039963528341758495 0.6453671562092432 -0.6747588442781678
 0.6425945219606538 -0.6677076246815018 -0.05453406236365648 -0.04254708538783268 0.04275367948539244 0.001975239368883437 0.07804346558371418 0.06309620649787855
 -0.057055740380833296 -0.04349394734982227 0.6494382547091847 -0.6721966739149847 0.07108425400157282 0.08372735344302565 0.027986322025792935 0.009985971167365154
13868020000.0 0.029981428970192674 -0.012620633768302667 0.07264116705329113 0.07572209625580648 0.6385823400468553 -0.6677007244560929 -0.059236301310745414 -0.04268737292422827
 0.07295501182532182 0.07606663038395389 0.028343274303630518 -4.214582492423328e-05 -0.05871632244673725 -0.03947417937480462 0.644655105506672 -0.6752014783223227
 0.6425671409437914 -0.6665061377728092 -0.0566844156781141 -0.03842427847501573 0.04682311401987922 0.006964841267219441 0.06874894796169377 0.06670100655000726
 -0.058122306435153814 -0.04269523482466173 0.6449098783744098 -0.6749584517259416 0.07177697894256457 0.06467091756073735 0.027055892050091703 0.011445999563607492
13938010000.0 0.026753389156441452 -0.01368599981121464 0.07275658754300225 0.07622726037407533 0.637019102422614 -0.6705492193396669 -0.05865364955263425 -0.03972210711248374
 0.07262755124119463 0.07664527179940069 0.027621949483874683 0.00014118832858364054 -0.059584002870782804 -0.04129008340787633 0.6425056041282043 -0.6788342115109052
 0.6377972772511126 -0.6750610612949561 -0.05603166666984611 -0.04159534148713053 0.039574027913060625 0.0012577862004665632 0.07174210691338542 0.07095375204446239
 -0.05965339146638101 -0.04002438890732526 0.643106795185402 -0.6773007616863854 0.07615883697169815 0.05818381991404925 0.03681866849883013 -0.01313340927210807
14008000000.0 0.028827602427945808 -0.012759992604963508 0.07310050943319207 0.07629557020060597 0.634530060973001 -0.6729806789598283 -0.05824369167478826 -0.040815100295905585
 0.07286560980896477 0.07600214029478886 0.02814664687684662 -0.00503595497249422 -0.05902557025926824 -0.04120637387093973 0.6418001084244376 -0.681295879846483
 0.6337499162327693 -0.6743411769394992 -0.05956275213814103 -0.03900023571237226 0.014823734198479028 0.0011103375613817777 0.0835225303986636 0.061377079044204856
 -0.056757614615280484 -0.04403412851961398 0.6440565795654078 -0.6841008843655665 0.08211546029014351 0.06750218728718385 0.02194854265227351 0.0002322423111389375
14077990000.0 0.028755695294488612 -0.013317497228955262 0.07323211107274669 0.07653701191010381 0.6330890864162715 -0.6758506004084024 -0.05873896328212797 -0.041897167257055
 0.0730056775026337 0.07646036012216909 0.029144483627218942 -0.005857261167070795 -0.061543993365685265 -0.04083076723532099 0.6369203719040049 -0.6835459500582935
 0.6334104281830443 -0.6771582819384135 -0.06165279434439146 -0.0392956200216146 0.03916324810263389 0.011384661493183654 0.08793256675770164 0.06497433421632283
 -0.058627157074287437 -0.04509945484150946 0.6385728201718929 -0.678244388299064 0.09052745365783454 0.0733943196155047 0.026256343065330135 0.005866442755563435
14147980000.0 0.02726746854415045 -0.012772383061273708 0.07365869935995879 0.07602881071741975 0.6294241315234115 -0.6773154315249216 -0.0602956643909747 -0.04040070982841346
 0.07327546595060296 0.07580288940079426 0.0328389934100205 -0.004141560315263119 -0.05977203252046542 -0.04153429076572686 0.6377137109108012 -0.6861171033801319
 0.6301197326225393 -0.6799211485814433 -0.05843117141679584 -0.03781427507527839 0.04764719140534494 0.007810678379444377 0.06225187615182086 0.07444079089809257
 -0.058414021339018456 -0.0407668603715793 0.6365395279363111 -0.6805199267728915 0.08537226305161585 0.07543388433735966 0.0199045987342406 0.017248728023447586
14217970000.0 0.02850740383201179 -0.012820312146227445 0.07398985477091444 0.07566329006705613 0.626121543548374 -0.6794411819328123 -0.06006141707039736 -0.041471822016771666
 0.07349273617900359 0.07498592326341352 0.034370164078851594 -0.0038619182272593847 -0.05846360011385714 -0.041445570222362546 0.6322943955110125 -0.6871928888370289
 0.625042606228233 -0.6796151619516237 -0.05617715274428878 -0.04591713732244844 0.04497686266625273 0.006786432573025538 0.08291004302199065 0.06726292676425591
 -0.05935136227225716 -0.04099056232969286 0.6391964465605595 -0.6897048568160181 0.08660108797382379 0.06489000520603593 0.04010670581144078 -0.0013056474826535773
14287960000.0 0.0279389404427457 -0.013340559415201424 0.07388479075203544 0.07568760619457345 0.6240354412751183 -0.6820868183208629 -0.05891409022122258 -0.039085835343862715
 0.07412094518485958 0.07498764414872504 0.03296937333828699 -0.0008931644259142862 -0.059503539584703814 -0.04080885658266819 0.6294013554810827 -0.689391648368987
 0.6245623291963237 -0.6833803651192829 -0.056424091501805135 -0.039498741973466554 0.039146757360387446 -0.00020067209040766228 0.08202962198491676 0.059106409943216885
 -0.05865262062047676 -0.04021293614917627 0.6332675252469879 -0.6867051522788761 0.0763236749602973 0.06164909686428745 0.03635378731328176 -0.018879132259815995
14357950000.0 0.027504767829776785 -0.012412562797484351 0.07468393412123052 0.07501077910951633 0.6206211511916706 -0.6853112311574118 -0.059695443109161944 -0.04141853023336767
 0.07479650573404384 0.07505697733483677 0.032155315513794816 0.002149552144899558 -0.06085133753767539 -0.04140671352306028 0.628319283859164 -0.6935431425860333
 0.6217134030642263 -0.6880293352549431 -0.059276794046771074 -0.039324827861026625 0.04196840042640999 0.023040884347312423 0.08724152018738973 0.06847833371222019
 -0.05971853612540131 -0.03916555869402224 0.6256678986531345 -0.6878715659602482 0.07500758057997357 0.07050660727199229 0.03248688736684371 0.0028530896215024867
14427940000.0 0.027902187777914134 -0.01382462100405355 0.07498320485769815 0.07515292628288701 0.6174462419285472 -0.6874096341833978 -0.06038889743187644 -0.04223012254275542
 0.07536618344376578 0.07510083748488709 0.028438270794676805 0.0018073652750778299 -0.06101874525401566 -0.04134992742662185 0.6236123052357551 -0.6942207581110525
 0.615989917345337 -0.6905442822054436 -0.06071779238262416 -0.04461291131098214 0.013166762875438293 0.0015568749219206039 0.0818149158494022 0.06378105116839469
 -0.06052562387047047 -0.040890095444923294 0.6232658064688285 -0.6898995675314197 0.08742077914382862 0.06019732306162717 0.03436861494644547 0.010453018432224572
14497930000.0 0.028735914725603575 -0.012540319514488986 0.07496407541051667 0.07518150132417684 0.6149503686928885 -0.6894624835051861 -0.06341442366400446 -0.04298775695295937
 0.07575919630328276 0.07546129863110956 0.026878465739856666 -0.0011883246813363855 -0.06221780179580989 -0.04090895162383429 0.6216691685133712 -0.6964208911255934
 0.6184190014975015 -0.6921009914502805 -0.06265901704331255 -0.03850016202378423 0.03898428926889391 0.0008909136979886204 0.07756016486825218 0.06660042797186377
 -0.06294039151767418 -0.04470048132658167 0.6226918772591928 -0.6981329369908507 0.08564250624471695 0.06386414270493525 0.03296839187171437 0.006958828685250283
14567920000.0 0.028016021391978414 -0.012506355202617538 0.07562123320390411 0.07487222395837244 0.6099467831896018 -0.6940596380887295 -0.06293602666570033 -0.04223276410999206
 0.07573091889110514 0.07481359562875489 0.026540598264663394 -0.0032014496467528243 -0.06204142679494459 -0.041393229863261514 0.6177404255460714 -0.6972480578515389
 0.6120398786161987 -0.692737976475635 -0.06044402133701884 -0.040091430630158575 0.03688820046708262 -0.008324467734235744 0.09353959619911358 0.06382075503654491
 -0.061529357462640155 -0.04167150722099854 0.6220160438055566 -0.6985355041283735 0.07864807980793999 0.06215096692734277 0.028685641964777162 -0.0019697081500370727
14637910000.0 0.02775956502725881 -0.013103172003888771 0.07578789757327702 0.07508222641011929 0.6082005591646702 -0.6947749319178373 -0.06292880482521547 -0.04236807686915811
 0.07554713147093323 0.07503953886923412 0.030210927473234356 -0.004582007198377346 -0.062300568125995985 -0.040182301991505597 0.6157636293303436 -0.700436744971901
 0.6102351756455328 -0.6955603859455044 -0.06279466792638204 -0.04178658566940867 0.019989485238758528 0.009576327090579661 0.0829959740350022 0.06309718074746763
 -0.061638010865438894 -0.04443511400333441 0.6151760406978658 -0.7023811352496968 0.08276237407073492 0.06065075140841838 0.006835980560583518 0.015444398660809629
14707900000.0 0.02806093854969898 -0.012830219413822345 0.07590309712680308 0.07509265940644748 0.6066655309242898 -0.6966642511831795 -0.06126110110177127 -0.04229529746659233
 0.07554744265332405 0.07481655629714827 0.0324032610803856 -0.006283144970556787 -0.061934055525233796 -0.04018418659048653 0.613354107514404 -0.7034873308374513
 0.6102162453103787 -0.6993849897016583 -0.06084210121382362 -0.03919803625566078 0.031719730963846976 -0.008758020935963153 0.08236729954074681 0.0651116060277264
 -0.062372071654858495 -0.04149076434204607 0.6115670921462316 -0.7014236235648583 0.08391086658198835 0.06583835697700276 0.02147648371941391 0.004165064216563921
14777890000.0 0.02858623696730199 -0.012619966087800394 0.07588718754345733 0.07461121475532355 0.6038892781483681 -0.6997284971444339 -0.06399835710581837 -0.04126768591842182
 0.07582309796607313 0.0741603422576659 0.03398526476199067 -0.002878617012344916 -0.06105865002039405 -0.04040372485176432 0.6072599058942376 -0.7092156935752817
 0.6041809735056058 -0.7018677294361227 -0.06061314185935022 -0.04233560497522197 0.027476240186190964 -0.0025840632030520497 0.09045268114971006 0.06784430221673075
 -0.06291347990395195 -0.0401077903375907 0.6121694521907539 -0.7061048888050174 0.08470268385345912 0.06683228870300892 0.028985144231092677 0.01630470067471169
14847880000.0 0.027885876432689846 -0.013573273966250058 0.07649605578765802 0.07419725387907924 0.6010022156407756 -0.7033455511971566 -0.06588989953138015 -0.04007460397512392
 0.07629352546994682 0.07398933634019436 0.035223717756794774 0.00034064045271598765 -0.06424583930569924 -0.039757307037048065 0.6038600775829022 -0.7108558660714114
 0.6003812156407788 -0.7036948882684613 -0.06227562415639239 -0.04029407555366164 0.047676540185982635 -0.002364106906613872 0.08025474882359601 0.05853002164892035
 -0.065185507962307 -0.04163819523737601 0.6076605538557094 -0.7078316036939168 0.09710706435538126 0.06390303890689002 0.03796419289899426 0.022301453717454126
14917870000.0 0.028458552248099844 -0.012492105217988636 0.07675651940735143 0.07420613738076656 0.5963305503599531 -0.7036828249436108 -0.06407484891456154 -0.042485201857648536
 0.07670669986958117 0.07377072467933946 0.03249254446736662 0.0002393034576194249 -0.06374944508700688 -0.04061944560180402 0.6029948115541829 -0.7135583575113014
 0.5983730658867458 -0.7041552429986002 -0.06536250703557282 -0.04392741228199261 0.022988556989390924 0.004219849182003319 0.07766813811567176 0.06922923959174139
 -0.06320780905039579 -0.04218625304362781 0.6023838274946209 -0.7067130690293005 0.08807795083965225 0.06306668805815939 0.019721170167703205 0.0036204691344109982
14987860000.0 0.028495223477991063 -0.014082746326009993 0.0767221742811334 0.07363741102693191 0.5951099216838576 -0.703672250108101 -0.06301287956703734 -0.04018616342881019
 0.07692724239591643 0.07373042867442768 0.02816401041297606 0.0015349125227275165 -0.06539653700897889 -0.04128528435201775 0.6006295010740682 -0.7131648576985998
 0.5949840967835761 -0.7076753831399762 -0.06303673734798113 -0.04006299986591805 0.029641678552855044 0.0008300401207880124 0.07696867608026513 0.05635102063551083
 -0.06468589664645778 -0.03790896477296948 0.5991077661466885 -0.7120606851902775 0.08810124784027534 0.0647709344221195 0.03253816086262887 0.001579359647809131
15057850000.0 0.026622188085160783 -0.012564541871526882 0.07685558948213395 0.07389721145765246 0.5919635151568017 -0.708446643384973 -0.06372637547173905 -0.04051410480137708
 0.07686338930730761 0.0740231754040955 0.028450110762548497 -0.00019819864460841449 -0.06495702502707569 -0.04086494233393083 0.5969417151172932 -0.7167377275168865
 0.5934173582342113 -0.7075535435333696 -0.06371807069554 -0.040701474592432174 0.02959233418230954 0.008203582601665177 0.08268055063983278 0.07308484541877935
 -0.06403374260466878 -0.04128433266071652 0.5984392032058664 -0.7171548258345691 0.08437075506804917 0.0612068804995781 0.01699713457152975 0.008489884020277214
15127840000.0 0.02814891512658339 -0.012774234200085041 0.07717517725357688 0.07370908298566722 0.590105669687513 -0.7100622147168267 -0.06468350857693211 -0.04191260935616286
 0.0766366790409216 0.07353035390426249 0.028644292907637973 -0.004781885394328122 -0.06454441257731466 -0.04150378089540937 0.591048555204329 -0.7199705095816784
 0.587052878319421 -0.7100521092534042 -0.06637201199284845 -0.03755514782419707 0.03024521332879485 -0.0066199642082041925 0.08369433168548243 0.05802242587824446
 -0.06344023518627964 -0.04091422300734315 0.59510920185669 -0.7187724596762557 0.07994911023408352 0.05782396996667411 0.03120535473911289 0.0029728255479011885
15197830000.0 0.027179102100565556 -0.015435499618797815 0.07720569036063886 0.07298858362662292 0.5853017299724622 -0.7131231842031407 -0.06509836662752634 -0.040593345476435366
 0.07702453383619481 0.0725736655254544 0.02831100986962139 -0.007018150282987597 -0.06481242687674452 -0.040617676660714745 0.5915865686274479 -0.7208156857889916
 0.587184958741588 -0.714301471329941 -0.06475417931277473 -0.0421383544562503 0.03267414081965585 0.0006225789583781987 0.08391727715662718 0.06590597471751482
 -0.06493785263493795 -0.04018006050707589 0.5908107317183163 -0.723709989718466 0.08264116940631704 0.05996815618110643 0.047024677922573754 0.00517566055842692
15267820000.0 0.026893608169935454 -0.012362950848590064 0.07747086444531687 0.07360563239496422 0.5828457614451205 -0.7159363642500158 -0.06901307142162853 -0.04133079621530954
 0.0774054586192344 0.07244485845430557 0.033576646577024756 -0.005863308190304416 -0.06519106823504262 -0.03976250664588538 0.5893819970264074 -0.7230192482185525
 0.5815361099560993 -0.7154881662218789 -0.0634248484159185 -0.04252033923777197 0.05132148318984854 -0.007785666693284163 0.07919757208658923 0.06519112467559936
 -0.06888457588649034 -0.03993195573500555 0.5928935765874394 -0.7227852378622758 0.09270051579626169 0.05956855107721442 0.0338105642770452 0.00869238160467911
15337810000.0 0.02802989493540823 -0.013581590599795737 0.07798950328381885 0.07300638778587287 0.5814377255014457 -0.7164663178469367 -0.06727295306930497 -0.04032568669586974
 0.07764040050954049 0.07244912172458107 0.034925283733352894 -0.00512350038284952 -0.06528261039278103 -0.03955337496785465 0.5851114035778029 -0.7247673355782688
 0.581863116719213 -0.7173588983467968 -0.06609618249129255 -0.03788750455179567 0.03559822913654002 0.0008596890468788742 0.08908695079174404 0.05707977087619383
 -0.06769717953899487 -0.041224966874428476 0.5868207835295487 -0.7243517771865801 0.09561460457545601 0.061162223032092705 0.03123462609442422 0.0008886254682574038
15407800000.0 0.026139129502793332 -0.015168272518701393 0.07808440865708272 0.07340252664807757 0.5769156695907656 -0.7193473280452153 -0.06477150953799225 -0.03910444163707605
 0.07832251674474001 0.07230803811079342 0.03197937271873202 -0.0012743744510926105 -0.06474633640942802 -0.03947729522269457 0.5804145149778673 -0.7283558870629422
 0.5792753298851568 -0.7198856256575143 -0.06725440322775918 -0.04239039955524681 0.03136029929595277 0.008208818704436464 0.08719694601881495 0.06654845980086
 -0.06665350932132094 -0.039860340519868476 0.5872950015122422 -0.7291995080017152 0.08139283695420754 0.06099827722175304 0.027436902188158974 -0.0025257355439449467
15477790000.0 0.02627600707695197 -0.012389850615122076 0.07824668638974032 0.07229972762744925 0.5746184306771728 -0.7205801597844311 -0.06836941768280144 -0.04063224231318799
 0.07854216676711734 0.07208627160704303 0.03324558462388149 0.0014611224967591245 -0.06757336943807908 -0.038221987811671965 0.5783856188520246 -0.7328256593386976
 0.5737035355187285 -0.721074717079644 -0.06541252574948578 -0.03903904292360625 0.04311532558917616 -0.010354941906245405 0.08250882876383085 0.054777105395395514
 -0.06707391554507437 -0.042562131740048574 0.5798283397605904 -0.7304928876500092 0.09409882501428944 0.06175186522965669 0.021583829628033218 0.024711145110076577
15547780000.0 0.027070961861468925 -0.013669848085015231 0.07746738295312863 0.07249966926445295 0.5717114600906805 -0.723577007253923 -0.06756809334272254 -0.040994549042402774
 0.07915493596452604 0.07269490849943758 0.028963319862192072 0.00037376654026795184 -0.0675720445866384 -0.040335069491804314 0.5751011482356456 -0.7297504289643968
 0.5741896373014468 -0.7231663290705029 -0.06671864498036917 -0.0413545778900806 0.04873204590961688 0.009076297538012153 0.07974267289101392 0.06262759761533007
 -0.06828619720608518 -0.04280563013838808 0.581098784289976 -0.7282512447665345 0.08235996396409881 0.06544617315866402 0.030042306901280676 -0.013641997233400932
15617770000.0 0.025192820925255117 -0.015571578620235928 0.0788562366982485 0.07255267809071857 0.5690545307875907 -0.7247996275515641 -0.06803649975297518 -0.04216732184273433
 0.07902387133414727 0.07321208998756412 0.025891343332974846 -0.0018525993105895284 -0.06764238611018938 -0.04040700672279054 0.5722898075853174 -0.7356264059071608
 0.5702152296977687 -0.724616125423204 -0.06662690797636804 -0.04086470000118255 0.028981019412127496 -0.0007715271074662714 0.08677271653391433 0.05818074901241303
 -0.06795289023846506 -0.040913876100384855 0.581117973641458 -0.7375718905521864 0.09988862089116027 0.06496099507838951 0.013566554535629258 -0.005888325451535721
15687760000.0 0.026158917801634988 -0.013549157470716491 0.07815366658231687 0.07240405907274121 0.5632229650562351 -0.725557588337707 -0.06844770341594504 -0.04207045394313218
 0.07911243155111133 0.0724189985971247 0.029461073442933257 -0.005199299377324932 -0.06861493212510006 -0.04092722160513507 0.5704584906611091 -0.733737098516542
 0.569547152648082 -0.7300580872012696 -0.0660468937885584 -0.038955694924978065 0.042500546509369526 0.006348229050674558 0.08451285356661563 0.06586974260860583
 -0.07021049102641845 -0.04096246426829039 0.5733069732214762 -0.734953944190057 0.08538499438554245 0.06630211905838451 0.037496674212398606 0.010054463696369675
15757750000.0 0.026375036177324833 -0.014803316545385548 0.07897004742643954 0.07188470651858897 0.5640736277811422 -0.7298246755281145 -0.06899187171365147 -0.03984612374179273
 0.07847547806228705 0.07220655469209646 0.02947588515487983 -0.008627986208814498 -0.06766415530021723 -0.0412647793804134 0.5667550903335017 -0.7365983655140654
 0.5641984466827586 -0.727498938975998 -0.06524589500595807 -0.03501944419345132 0.021207964461219603 -0.007747945451010288 0.08474123812250214 0.05099423710193481
 -0.06722836010573702 -0.04104780196023001 0.5700126267384646 -0.7335699019079658 0.07282134856188607 0.06873895316825869 0.018642991784598224 -0.005207700207288822
15827740000.0 0.024315345927798205 -0.015281081036725765 0.07887068787997105 0.07274051028459068 0.5615019273573812 -0.7317447833826779 -0.06904366506177335 -0.040026432743107174
 0.07864714837302296 0.07245972352494195 0.029860717633262104 -0.006965762981604804 -0.06805478243180271 -0.039412218211613205 0.5651070347935486 -0.7383667759296815
 0.5639266326284778 -0.7313221261466863 -0.0712229433853471 -0.04245924871330084 0.029685604688493593 0.00840254656089349 0.08178510544901321 0.06022456790944101
 -0.06870641358801544 -0.04076877465616927 0.5728782361061806 -0.7394518260939383 0.07822837335358832 0.06934538508398896 0.03649734170077335 0.008983291540344725
15897730000.0 0.024913037704615275 -0.014496259243013605 0.07900548963096238 0.07176753560370269 0.5558303638110385 -0.7325842094951144 -0.06988585982532362 -0.04001898807051761
 0.07878005957709658 0.07124430988271889 0.033774554920472044 -0.003987845044855668 -0.06920133160235012 -0.03979397701490065 0.56089029224411 -0.7413262354358661
 0.5572834528931697 -0.7323711088916574 -0.06702033130677242 -0.04120587189920765 0.035531527979354764 -0.000385926535361101 0.08008517119429466 0.06437303374962472
 -0.07045434464552121 -0.04165463405787071 0.5651578747241797 -0.7433350349239858 0.08367009129954761 0.05559286486379528 0.037440909798329806 0.006744360447756239
15967720000.0 0.026442064330407317 -0.015423660966889198 0.07925758873910776 0.07215269724889843 0.5542744664968169 -0.7350469964842914 -0.0698527226348469 -0.039859449232189266
 0.07953482253247747 0.07159658658897369 0.03300894122902232 -0.003649604068692238 -0.0695197633238743 -0.03986205295596309 0.5590424800303717 -0.7442088691718748
 0.556176741809921 -0.7350814247316327 -0.0668963378076354 -0.03983882767814821 0.03685557082455032 -0.010543637186025951 0.07770301525878204 0.05111805874079275
 -0.07051702881509218 -0.03903852676113993 0.564128152726962 -0.742410620115573 0.08808718822915741 0.07499766323139606 0.04995226500973983 -0.011347253383059246
16037710000.0 0.023994824745628845 -0.014736239384245906 0.07983062113503553 0.07139536812881175 0.5524976378096531 -0.7363552315744163 -0.07122743605863634 -0.04103272756150441
 0.0796747526657749 0.07070737798151833 0.030280456997843343 1.7757230921100448e-05 -0.0707427644074776 -0.038867853172707294 0.5560184477314797 -0.7454825740616634
 0.5527274946175134 -0.7375887364802046 -0.06852416535891619 -0.039899470484793906 0.029962306719092766 0.005102008063918459 0.09538759654215875 0.06554293138905985
 -0.07169004401087528 -0.04148391097798909 0.5599648727497006 -0.7493913479815033 0.08929085062989088 0.05946290319158208 0.019795371699199628 0.012430192271995674
16107700000.0 0.024468368109583638 -0.01495668936838432 0.08014955751194125 0.07118565194349302 0.5463093479890703 -0.7387319891548348 -0.07164035633906292 -0.04010377534331388
 0.08023971819073818 0.07100955700486244 0.029092070385879545 -0.00014467777923126264 -0.0697996979494586 -0.041443039189126084 0.5510774067421496 -0.7469824320454532
 0.5509531028639656 -0.741140434604182 -0.06908113523578797 -0.04122524637974756 0.025290523008331182 0.006027501388376781 0.08230636955928043 0.05791308338227141
 -0.06847210267796472 -0.040843809434402634 0.554450044348778 -0.7458390720554744 0.08714805164387159 0.058394450347181284 0.0317502437313673 -0.00280890632967975
16177690000.0 0.024806295295863093 -0.015086739828508966 0.0798006495910305 0.07110080961616047 0.5425139812904765 -0.7423099162180493 -0.07121274600877393 -0.039338795995796864
 0.07964976586406997 0.07074272669790332 0.02588601074989049 -0.0048372856904393595 -0.06965894079248149 -0.03946571898723732 0.5485856886941144 -0.7519673344444479
 0.5470259043472139 -0.7421251585526137 -0.07115291447014355 -0.0390935232741826 0.040655750512757764 -0.0007352967072784367 0.08656728906624646 0.05755932427148665
 -0.07060037568273111 -0.03920694557077824 0.5510162711012961 -0.7478958557018015 0.07494846801313425 0.052401873631739794 0.02227049832363105 0.0006019159795801225
16247680000.0 0.023277597175048462 -0.014960870497918857 0.08052556873521168 0.0709297682970189 0.5421089605395879 -0.7430295130071825 -0.06953571831079315 -0.03995736252082915
 0.08023992009857471 0.07053726761688647 0.025430815793507085 -0.005708615277474249 -0.07063183798803661 -0.04064365572976611 0.5449493840998746 -0.7513400270511614
 0.5400602789520067 -0.7463209415899466 -0.07068678744890347 -0.039493368093789706 0.02203038086053073 -0.007951314978483484 0.0850152463141936 0.055109691426497485
 -0.07215365190244002 -0.03942035272847127 0.5490740025856835 -0.759195614345653 0.0827244010515605 0.06077460525306921 0.02913357826665816 -0.010051144613956842
16317670000.0 0.023037481612052782 -0.014669960766820188 0.08034551043942852 0.07092414022547129 0.5402488274188059 -0.7452912796020129 -0.07163920101459206 -0.03924000779194327
 0.07953383971843299 0.07027599026375592 0.02706113064902668 -0.007240743019124502 -0.07201081711156436 -0.04200911107016029 0.54367705653179 -0.7530816214014012
 0.5460784797757166 -0.7392385694283176 -0.07209582897229383 -0.03948897835641077 0.054168799757389245 -0.005831084429159915 0.09092085399791881 0.059243654079638455
 -0.07061994819956688 -0.03977037623310495 0.5479568073379759 -0.7543024875972968 0.08870731192675078 0.053274899414874975 0.03391447744401234 -0.0053443177800989415
16387660000.0 0.02425168837671671 -0.015758939039282733 0.08088706481316531 0.07049938531264222 0.5356066594145916 -0.747387532814856 -0.07277082961185087 -0.04032208979298789
 0.08040795475210585 0.07042467069531275 0.029671299811776776 -0.008594393345566312 -0.07118729636703952 -0.04079228675985562 0.5390888695054301 -0.7525730902053681
 0.5412219120688657 -0.748640195447504 -0.07504960456380352 -0.03999687154196586 0.018788641656035644 -0.001215300026121865 0.09119220140380375 0.05405703304320276
 -0.07079316472551118 -0.04108442251566725 0.5472888861085488 -0.7571956566214255 0.07813182129157195 0.06051584007840349 0.03344047529940074 -0.005112498838957775
16457650000.0 0.02340085231719501 -0.015320258610518679 0.08086397676907113 0.07043357928258051 0.5330665036825372 -0.7486954385891781 -0.07249227929149613 -0.03705626874868415
 0.08096594352418063 0.07009090937326812 0.03157714203298718 -0.005014068394701001 -0.07169772074989322 -0.039469621948904195 0.5382242015552829 -0.7579311488639727
 0.5352979005663521 -0.7521339187698335 -0.07203294905444438 -0.039392289806509585 0.028427844519086743 -0.013436536166162338 0.0827532114851635 0.05861214411162267
 -0.07367726108326458 -0.037716515118972394 0.5432539631676593 -0.7578306343555974 0.07782159423349938 0.0497590157445552 0.05812922893600436 -0.010116582805733769
16527640000.0 0.022191738380661356 -0.015795285102064172 0.08093190589408743 0.07014263440102711 0.5300962936399545 -0.7518922652316071 -0.073217965267782 -0.04082242162895276
 0.0813309507776204 0.06975496556310119 0.030804862937417965 -0.0030153582081673754 -0.07399107525203343 -0.04040962135062838 0.532057414102869 -0.7616108883088466
 0.5299591158691525 -0.7494670358457435 -0.07099228819290161 -0.04146526512259933 0.027781751434591936 -0.006298378420071937 0.08482845457888509 0.050828422776183824
 -0.07179493337201412 -0.04186738467731166 0.5374200157586082 -0.7623867984937337 0.08430679131614217 0.056470744482566004 0.02211603046176604 -0.006254374622633358
16597630000.0 0.024185165248409454 -0.016125798615248998 0.08113282052739253 0.06955451706436745 0.5240811675787785 -0.7531501642761959 -0.07356977398672879 -0.040609346568078554
 0.08129319993480484 0.06948298909784682 0.029318200430374874 -0.002344501656230071 -0.07290604638420309 -0.0387945433885714 0.5293956464213602 -0.7617773926225616
 0.5304378399548706 -0.7558774842801398 -0.07428367693879254 -0.0395808548424843 0.04328171589265175 0.0011454287325656522 0.07988278547311396 0.06519188970610873
 -0.07326242549131043 -0.03926946929730816 0.5393129262789376 -0.7571728999402103 0.08571678799287745 0.055072518785181684 0.017213971760424152 -0.001358089789809549
16667620000.0 0.023224552634436072 -0.015338139261698783 0.08090718188137815 0.06946700826228532 0.5236405382573538 -0.7558929791911915 -0.07443576033554158 -0.0395725301130903
 0.08159724668643004 0.06972354442219979 0.02632945945572104 -0.0019755434369621797 -0.07472765865922812 -0.039713494736368204 0.5252538412226528 -0.7629578186956765
 0.5259861725733874 -0.7565883647187746 -0.07275736907403282 -0.03781490818484821 0.028564686357223416 -0.002784399085746574 0.09668343853989793 0.05524807918361498
 -0.07412077740086324 -0.03991042728224747 0.528760652666779 -0.7665514669768326 0.07635053811730734 0.052067557007726945 0.03574516658124375 0.003872046417142297
16737610000.0 0.021566572040167202 -0.015547122330505833 0.08073768291176243 0.06989409670305699 0.5208432703174879 -0.7571166520234409 -0.07571131743203635 -0.04152857153874165
 0.08128561784283794 0.07019558352048046 0.024317562997426177 -0.003976747278383563 -0.07519103739173395 -0.0404823089300019 0.5267590514827812 -0.7649283886785733
 0.5241400129180726 -0.7579852815654451 -0.07682060185302392 -0.03864900185556131 0.031510626571833816 -0.012175559473329137 0.08282560361560964 0.045753711438963736
 -0.0753436003662782 -0.04223556564658772 0.5271500243842787 -0.7676754997801738 0.08629346078025243 0.04833554375975554 0.027502950368015824 0.002085257667706127
16807600000.0 0.023328620318691737 -0.015483399074190982 0.08198777747919214 0.06936173080687294 0.5180567638744528 -0.7586805574584081 -0.07520959848741908 -0.038785826025202946
 0.08110556118467666 0.06983035760824109 0.027071922346633078 -0.006909977105730163 -0.07563400023873972 -0.03849688513409536 0.5201735557744953 -0.7698217396534935
 0.518061019200714 -0.758339436465975 -0.07431354352526358 -0.03692384207850994 0.03617715879258625 0.009410425364623769 0.09442776654975914 0.05446134915071859
 -0.07562713185935734 -0.040272462208558846 0.528911674735493 -0.7671444669702548 0.09153344549135874 0.04714609681956077 0.024165165730306196 0.009268894633599114
16877590000.0 0.023431950763926627 -0.015690754183296428 0.08145086308507325 0.06871287535686983 0.5141475681863857 -0.758534396022574 -0.07644998373534374 -0.0391222750351664
 0.081237785185625 0.0689997312154305 0.026489387723547007 -0.008254425876142602 -0.07627683082149839 -0.03897203377452403 0.5161910349403194 -0.7696900297339577
 0.5178460130263994 -0.7668375044876725 -0.07564238289110047 -0.03539549497734599 0.044043101234479964 -0.01677396889104009 0.09322042381965936 0.0468847033400512
 -0.07454823435220187 -0.03833232769120149 0.524721895851276 -0.7697138217144815 0.08146419581889915 0.05885748924977383 0.022569322668270192 0.009809407016776763
16947580000.0 0.020162700336905117 -0.015613195476296651 0.08094439031521995 0.06886773911844642 0.5109363545351879 -0.7620028540952495 -0.07745833666377208 -0.040150588128078514
 0.08158009300989137 0.06873060077382225 0.0264436289396324 -0.007218960926647945 -0.075991822057199 -0.04034077286195581 0.515543816843068 -0.770738550409474
 0.5149610960884383 -0.7628016793685273 -0.0784047164782433 -0.03825679852029065 0.037022443859401885 0.005205139320690477 0.08407664942712352 0.06020113728023497
 -0.0718911393459029 -0.039752205720738315 0.5167111631646665 -0.7632190818818041 0.09323264153044104 0.04789454225517895 0.03113369642547956 0.018860480532061456
17017570000.0 0.02350399432238983 -0.0150429593678914 0.08122363031461341 0.06929355748647924 0.5084500494901252 -0.7635764416209683 -0.0757406177571352 -0.038674731835525555
 0.08130968466316875 0.06811481721907696 0.03132223585203854 -0.006346858153612823 -0.07625599872483858 -0.039784364305637226 0.5132661955051235 -0.7718194040570503
 0.5129934884257447 -0.7629901916382745 -0.07358836632684115 -0.03750194044295627 0.04939012423173347 -0.007113117325458929 0.09970211251027918 0.044849137735622296
 -0.07468073292755302 -0.04025801626079493 0.5189101205924389 -0.7661409959498311 0.09052418614030612 0.05983486717604538 0.0270409280111866 -0.0010052832564215802
17087560000.0 0.02299769296805474 -0.01730596454412917 0.08195334423748775 0.06847384919643956 0.5048586679986875 -0.7659468876647494 -0.07619403918201796 -0.038664472168433495
 0.08177612024793408 0.0675552717403637 0.02916073339622675 -0.005665451937551998 -0.0764580527361885 -0.03685809859832012 0.5091341215466761 -0.7750605149254322
 0.5096729700355412 -0.7714768314192271 -0.07555251708608936 -0.036089645973900644 0.03287048051788672 -0.003919960252228328 0.08331560873576148 0.051482846637841154
 -0.07466607094194151 -0.03912578776373079 0.5144460011720939 -0.7739549820972984 0.08028893778309816 0.04666084832433008 0.023596155645313064 -0.020087626823644823
17157550000.0 0.019394877017522745 -0.015818583021739753 0.0820674619011337 0.06826324468935378 0.5036881511420361 -0.7682561988242882 -0.07627198084907569 -0.039470978232520576
 0.08163346531327932 0.06759100444446196 0.02556456614371803 -0.0029598912980568046 -0.07733060189135416 -0.03901473721276109 0.5072460959606931 -0.7764821418110454
 0.505829348094146 -0.7682188215188311 -0.07402371431024217 -0.03706621418592065 0.027197928363876373 0.011754425945812693 0.09177325078586274 0.05767966345718969
 -0.0777439680814057 -0.041478810730789316 0.5137327964033928 -0.7773341269897487 0.0972419447490824 0.053249748587470905 0.022533155687376936 0.016381074150049905
17227540000.0 0.02232169072654398 -0.015502570836573741 0.08183259282916702 0.06793838974383884 0.5001548800027532 -0.7714496536904012 -0.07769193382792258 -0.03741782824007146
 0.08207497599132874 0.06792904616143221 0.027086866327056196 -0.001921264899341298 -0.07810371766646766 -0.03917214523578599 0.5027404012050998 -0.777980586055623
 0.501977106771765 -0.7734571203050269 -0.07802866906275695 -0.03810315833071472 0.029827564872695313 -0.010032955860895696 0.09347387048322155 0.04437702003532268
 -0.07588902312057891 -0.038230456195415055 0.5102657617123988 -0.7786793638665523 0.07698185286177257 0.04654572743779667 0.040844282940186744 -0.0059280713110689155
17297530000.0 0.02083146626479008 -0.01769075978116405 0.08182330098971739 0.06770953558175516 0.49580173959037355 -0.771831210997799 -0.07961279024143836 -0.03886433109220379
 0.08247125141365941 0.06711726664088212 0.02424097325388433 -0.006583850596852863 -0.07756983278542556 -0.03911301665879729 0.5003659153564228 -0.7811193219649141
 0.4986230107049336 -0.7738909112779212 -0.07813918758658092 -0.040978073750629465 0.038304167155294166 -0.0052817452039445245 0.09685117041681311 0.03539535085919105
 -0.07749556013056814 -0.03887153117388338 0.5024569415118957 -0.7801081083651861 0.09676903485042829 0.0431848673699196 0.0300126439373652 0.02293780115789515
17367520000.0 0.018546536457409342 -0.015155892761903857 0.08167271374982815 0.06752500164789618 0.4941169650759434 -0.7731074047407898 -0.08026132070298017 -0.03965105831109419
 0.08213973721295291 0.06715572042312927 0.02282108831510297 -0.0044533955042416135 -0.0788775503624468 -0.03718676428784899 0.4948369475647565 -0.7856256499730918
 0.4964186062276259 -0.777572659885698 -0.07787098357109237 -0.03872124172243844 0.02473857070345938 -0.010766397835287603 0.0909240060354625 0.0458292927638238
 -0.08237166286274666 -0.039340457356978505 0.502180546812697 -0.7866515396720277 0.10295248008942866 0.06495466032638195 0.03343181305462986 0.0025640786371050055
17437510000.0 0.022758971175624868 -0.01577459588067376 0.08217129885900172 0.06758753614118063 0.49061666205321813 -0.7747372614594996 -0.0777853391294169 -0.04014250576747635
 0.08181799499564385 0.06734044855888374 0.028973231136829085 -0.006477802971059011 -0.07872370991576119 -0.03731730716021476 0.4950329750988782 -0.7846155860949318
 0.4928664659485721 -0.7757399727049168 -0.07682190003154649 -0.03677458042218739 0.030344627988132505 2.7811133718406457e-05 0.09106065237732071 0.050387189929246526
 -0.07427769704575715 -0.03852460103790107 0.4955493529326551 -0.7820417678281237 0.08627542909623907 0.03748626889785661 0.020110912615406658 -0.018568184340340733
17507500000.0 0.02008334194007313 -0.0186983941279974 0.08213929658466579 0.0667704601607821 0.48632446896897796 -0.7771368736490698 -0.08004948096479964 -0.03633362027867471
 0.08250527954129401 0.06656445280126279 0.02625641032365885 -0.009064392898979218 -0.0791139056025765 -0.03869400048387432 0.4902709296068679 -0.7843772326368609
 0.490892324116998 -0.7774392416752388 -0.07902287931803285 -0.04085541626839514 0.04360292251127961 0.0037648635013581076 0.1023747817683282 0.05259820067446992
 -0.07833211763503167 -0.03662794727130811 0.4923943071931836 -0.7845245728607532 0.09011627517042227 0.04557396543164683 0.021355468202161255 0.006989730708952026
17577490000.0 0.020072561857978826 -0.013016862875059751 0.08226974653190654 0.06632755151911321 0.4848863537573248 -0.779482157978686 -0.08021996676786572 -0.039985886502467614
 0.08243390199925298 0.06601704417619632 0.02596413775747653 -0.005159128401000516 -0.08058102908977427 -0.039179851159967215 0.48720989680013765 -0.7845545863725056
 0.48543008818597744 -0.7809630092650036 -0.07942360909605965 -0.03656218922990083 0.039293451312530286 0.003202691635147287 0.10181214882917318 0.042586773025013
 -0.07855831152244172 -0.03877152903316063 0.49268388156782333 -0.7850288524571933 0.07779995455443324 0.050220173308732616 0.029126349812450755 0.007782684627345577
17647480000.0 0.022027140471715737 -0.015773553226058848 0.0824210349804226 0.06630154414652718 0.4809091495325371 -0.7827703422465302 -0.08298047592972088 -0.040221945684326126
 0.08295095001450223 0.06626254703798358 0.029600714292017508 -0.004115160541557286 -0.08085655844703431 -0.038701805141733985 0.48483607727472805 -0.7885893099448706
 0.4841419889294989 -0.7808255728693165 -0.07990900015771166 -0.036664854009068736 0.0341128313685244 -0.0006992963744723392 0.07260827057303328 0.05607385205656774
 -0.08096290183604654 -0.03807357128888597 0.4861990936219531 -0.7877568843116785 0.08273367996370584 0.05443067878922619 0.024338634707201764 0.008685854132919802
17717470000.0 0.01852121747159526 -0.017261689829214673 0.08277553839066952 0.06584551403903324 0.4797481496422941 -0.7848784927965144 -0.0819676028474714 -0.03775410901267283
 0.08314637188647796 0.0657455765875162 0.026306332737580655 -0.005626950575662397 -0.08096970280866805 -0.03668536208499539 0.4815440823075424 -0.7913075362997508
 0.4761105800184182 -0.7868550794831554 -0.07901094968559313 -0.03624795826756514 0.04820827888213025 -0.002916621448685717 0.08341594834882872 0.038454890548073405
 -0.08162714446587518 -0.03737061828205166 0.4859213449995616 -0.7949994908773679 0.09232656536496155 0.04330356276726153 0.03421347902137001 -0.011406072907875967
17787460000.0 0.02089337320795438 -0.014428883607981294 0.08266548636892587 0.06608803919823424 0.47387948875798375 -0.7838929205389348 -0.07929161013237906 -0.03862069486477954
 0.08229872613723202 0.0654500429229577 0.024916865971055472 -0.002359852291600721 -0.08284575197207195 -0.03603594146660788 0.47718589233639036 -0.795159338817893
 0.47713062281084223 -0.7835776114338023 -0.07802680543653004 -0.03897349039504406 0.038693683034337435 -0.011873672585618384 0.08908544675661066 0.0416538337255089
 -0.08318287802118246 -0.040488183027885205 0.4823480023255165 -0.7936425888681298 0.09102924386332652 0.05129617346440461 0.008357193579996694 -0.0002627500024792015
17857450000.0 0.02160091211111051 -0.01689780886981417 0.08254251760785605 0.06594959568959846 0.47295060263928057 -0.7862106854477399 -0.08157896525604952 -0.038856305427423375
 0.08267218629439667 0.06626987530562306 0.02701730043096532 -0.004547153808205845 -0.0814290455667661 -0.038187140857856024 0.4739231975846515 -0.7945572529884156
 0.4720347847327135 -0.7855415952635735 -0.08055280696700799 -0.03530338055053697 0.01820487776393616 -0.007226454607346679 0.08202762831445232 0.03964702876967032
 -0.08255263649737808 -0.04297161876261453 0.47631863159128407 -0.7983873908995139 0.07510040665974357 0.039643219833337316 0.03061971408077527 0.013328893528601345
17927440000.0 0.018477476644877176 -0.01715539074570479 0.08228468521805236 0.06523174153046855 0.46780761790628705 -0.7881247153949624 -0.08381103006249635 -0.03831684775334882
 0.08249141871794553 0.06520017825409036 0.02347408604599362 -0.008866049543677854 -0.08140075254139686 -0.03724824137756092 0.4681569832490734 -0.7950111136111052
 0.47081744318849705 -0.7871586824485868 -0.08017005983798543 -0.038134095531168026 0.024415713219508924 0.011808810904635529 0.09569791998563466 0.0454116926719832
 -0.08141240227208506 -0.0356890877683007 0.47278785511541793 -0.7979237455603971 0.08016853524586035 0.049426852226970415 0.01558238628847411 0.008088790431470073
17997430000.0 0.020112203946793125 -0.014196585320895877 0.08223382773285473 0.06501789756345408 0.46632382066421113 -0.7917343749393919 -0.08398438663582489 -0.03743055336701493
 0.0821177325931125 0.0653242145456326 0.02400851909837595 -0.006458979607247906 -0.0813651170324207 -0.034515992853508363 0.4672179380481325 -0.797093641750902
 0.46707017844125037 -0.7886989625707309 -0.080639953382559 -0.03446824026544219 0.04087370927853842 -0.023146906259456687 0.0887179355455044 0.04478472783856582
 -0.08416483837973382 -0.03534749415263836 0.4751264628753821 -0.7962185605853952 0.08952024142074727 0.04931024746096644 0.032993214776078784 0.005498285457814316
18067420000.0 0.01968641019056792 -0.016200376645839693 0.08271697855607205 0.06533366931234609 0.46362593958237863 -0.7895024562730018 -0.08324352074930454 -0.03725022714122642
 0.08200922460466674 0.06451556893047235 0.027626279588242923 -0.008522567655536337 -0.08232893098636951 -0.03521549073299615 0.4644333780798372 -0.800128099178551
 0.467425183972616 -0.7946610522901322 -0.08238665916789754 -0.032977000937210045 0.03462225718817781 -0.005849266626495406 0.08577246959643822 0.05510871687550992
 -0.08233395161469594 -0.03559922971811891 0.46565934812631765 -0.7981309649656311 0.09013487619311308 0.047422674241393264 0.02682131260328832 -0.0077122153581591826
18137410000.0 0.018245126408572895 -0.01614613703811839 0.08231954622740298 0.06450378906439783 0.46026324931453166 -0.7920456439189835 -0.08499785082961303 -0.03800927046057054
 0.08268842258939182 0.06424509303038303 0.025837607842520236 -0.00818005411237226 -0.08416203009075021 -0.035630220788223026 0.46412848130504397 -0.8008591796201489
 0.4639339789735826 -0.79478582326798 -0.08476153519629985 -0.03423607467793996 0.037910885681390866 0.00633888271226064 0.08436390688724361 0.055561435209809544
 -0.08287466256867926 -0.0376414121329906 0.46896416843212757 -0.7969565823424166 0.08952241991485523 0.0596332658002642 0.03782186569323058 0.004164281278788951
18207400000.0 0.01926604581054962 -0.014772706994022583 0.08358105080379204 0.06426160832301557 0.45551326751619864 -0.7932164699635345 -0.08407622318307226 -0.03958657038454431
 0.0833817163321066 0.06358371287556985 0.027076767546895635 -0.0036850166597221603 -0.08491525169811377 -0.03668190361622892 0.45937421573856413 -0.8024522590551115
 0.4589741351778273 -0.8002884571442178 -0.08204278922598192 -0.03599992164328723 0.033618299083903715 0.0029532226247349935 0.09550506007979637 0.03998516576307761
 -0.08255997915463587 -0.0366610795283426 0.4597146177004313 -0.8032874913117244 0.09018675430849363 0.04517781520702181 0.017540812156158315 0.014237781625021675
18277390000.0 0.01848009461900888 -0.016593016389329442 0.08274128033629626 0.06445459707045834 0.4517050908032385 -0.7928127217294257 -0.08418164448206142 -0.0377194109311784
 0.08300586883640022 0.06356908367338694 0.026444285871679213 -0.005594216358584694 -0.08522042470807006 -0.0353025923730856 0.45606515522046287 -0.8043649484105653
 0.45566792372751375 -0.7973862776640227 -0.08382265648590627 -0.03686137500396392 0.037424202601580456 0.014252966214464813 0.08163896284390772 0.03800294082087403
 -0.08383949495717831 -0.0396314638035417 0.460871385169164 -0.8033769411627653 0.09395696871760315 0.05320259547500911 0.02436063258175312 0.01056831434185036
18347380000.0 0.018214398278659914 -0.015545710501802125 0.08299960338148873 0.06422962264759832 0.45038514487484926 -0.7967894487489019 -0.08588697060018224 -0.036733687699474576
 0.08325513239622633 0.06343064853171157 0.02432548410108718 -0.005108201334905875 -0.08326081213488935 -0.035837272408765594 0.4524246342142434 -0.8066014018985509
 0.4510936711003008 -0.7969415148248181 -0.08365657296980882 -0.033676885679341524 0.015573259107745088 0.012386930541535893 0.10458597211868659 0.053734890844231255
 -0.08379244640744492 -0.037797829759853026 0.4596907399523309 -0.8018518397955231 0.0831156846882493 0.06027281112668613 0.028184856118937784 0.02974507873821371
18417370000.0 0.01886470736440944 -0.015718625160738558 0.0827487104431811 0.06405900117534016 0.4466833330435714 -0.7996051703107917 -0.08682426493494129 -0.036697436513398476
 0.08302869766018092 0.06387890448350445 0.023845066506050824 -0.004347038635646862 -0.08612017315100702 -0.036760373235243345 0.447713761867481 -0.8106859226903378
 0.4452757287606461 -0.7994331492087345 -0.08271988703737065 -0.03569312137459182 0.01272789019659328 0.011630477904910222 0.10244328445170338 0.053718507661941126
 -0.08739171087419831 -0.03756812583637502 0.4533668105260644 -0.8036893636911624 0.0932341222726578 0.04099692299095553 0.04186506251060123 0.027712675581620275
18487360000.0 0.017585001102761018 -0.016686959657287323 0.0821432222716315 0.06264304848105244 0.4449901562232757 -0.8015547252549975 -0.085912605560309 -0.03457061522062184
 0.08208295333478217 0.0628622113354622 0.02446128746414415 -0.008168385650765301 -0.08174190647267866 -0.03626929158661961 0.44741393029678994 -0.8096303870314371
 0.44176964719237005 -0.8001359346172794 -0.08136642635851957 -0.03515965840929538 0.04459765707255841 0.0010307181944019953 0.09345726102176644 0.046990964914316244
 -0.08401050113052308 -0.03543611787513801 0.4520981599443643 -0.8112122431688126 0.07757185411789717 0.030914546098133343 0.028272780448821158 -0.01544231267706812
18557350000.0 0.018447033739628818 -0.015851324677628138 0.08272070386610246 0.06294080144278766 0.43791193132686246 -0.8016203380789247 -0.08684569195418647 -0.03659363729618047
 0.08240845744381489 0.06271323402094339 0.02438056120745797 -0.008052394736113449 -0.0838674482317965 -0.03706026373393153 0.4416721334282749 -0.8100920713761488
 0.44433452425333836 -0.8043185833681978 -0.0823429627356814 -0.0348916401324611 0.03352155239137576 -0.016633585768419622 0.10288281354975637 0.04861914884391591
 -0.08718963352373811 -0.03793936239122003 0.44915172654952606 -0.8132232711309634 0.08106362029657246 0.03691878187635234 0.012850408169517779 0.01899465917385016
18627340000.0 0.01837918729082092 -0.016400467509573396 0.08228478674498964 0.062378477624761855 0.4368592493728591 -0.8049916343679847 -0.08683771430718631 -0.035138497256835086
 0.08249453919654477 0.062399681805659135 0.02586754064631677 -0.008150470204238591 -0.08738893901634485 -0.035257223417667634 0.43941474456659185 -0.8121394347379443
 0.44154960957376943 -0.8035418081186634 -0.08303577239972032 -0.03614238198105451 0.025888453123700632 0.010285961339161181 0.08529664910416283 0.031076196154487496
 -0.08579506626005995 -0.03498716689362666 0.4441763342312413 -0.8186668962706545 0.08756406358460218 0.055659946817937005 0.024990381906032602 -0.004330853939643272
18697330000.0 0.017499164201338867 -0.01665501792452552 0.08228691470378066 0.06245830761162594 0.43440733959862793 -0.8053412141290757 -0.08706625211805016 -0.035231858278905286
 0.0824274671063569 0.06255211298528275 0.027621387805206826 -0.00856587150816175 -0.08651361691668975 -0.03417982624886748 0.4374700716649185 -0.8171352809598268
 0.4377859642340334 -0.8080999614112003 -0.08832072525171997 -0.03485707320103835 0.030338201756299758 0.01695686546524017 0.08711131791960373 0.0337136402433647
 -0.08654298722618159 -0.035524395923383696 0.4484404344056378 -0.8205052353002833 0.08494477628021747 0.029122739625774063 0.0013557731990681483 -0.022547052332218338
18767320000.0 0.01709693552033311 -0.016012136927860774 0.08309332392371192 0.062227639307814636 0.43113143599754883 -0.8058291850717099 -0.08700043994373872 -0.033688659923185454
 0.08253731444073509 0.0623316311915934 0.0264367991234172 -0.004665821913517474 -0.08756631616199324 -0.03330372781014292 0.4322879157642531 -0.8174030833044097
 0.43361864708654063 -0.8108808438018603 -0.0880864670799238 -0.0337100767593657 0.015855433976786692 0.010056032201060876 0.08908327088532647 0.04177144800155679
 -0.08512224342755635 -0.03236092024147193 0.439356880932834 -0.8144987220156875 0.09732786431064551 0.04681820754449493 0.036662638029006885 -0.00506151378098041
18837310000.0 0.01768525050379715 -0.01767501193517583 0.08165438842711503 0.062072368697080715 0.4263040920389557 -0.8087471946893975 -0.08905370056845424 -0.036790231136294954
 0.082226790976751 0.06173542175578674 0.02626219911525491 -0.006188668222168005 -0.08926584303933516 -0.035569763217432875 0.4278373799935961 -0.8180484299370546
 0.42825270668500015 -0.8081129300896549 -0.09013706326628355 -0.03633248787423517 0.03648824019793754 0.027635032618605494 0.08503476335144035 0.047021988108484215
 -0.0883161746769113 -0.03942473883125683 0.4333901601023278 -0.8209244863333894 0.08921517673178365 0.031945274144340625 0.026926155725872553 0.015465002896939965
18907300000.0 0.016081170341489856 -0.01796540462726523 0.08230160708337003 0.06186401699325598 0.4239261864359461 -0.81093219996754 -0.09005697780501605 -0.036470976624415445
 0.08277689191421704 0.0614612900320518 0.024056216939954852 -0.005772868950640128 -0.08987468896920549 -0.03541562854665381 0.42643983275879893 -0.8177261878395596
 0.4235421988626044 -0.8140248825241889 -0.09115251146288508 -0.03556545658025584 0.02661158912232294 0.03166110265037288 0.09502583492236373 0.03395278921853775
 -0.0891891818606109 -0.03631465330931128 0.42478001820418215 -0.8162087150525421 0.08389106606263386 0.04676042831708177 0.02080435537916806 0.02429535888302629
18977290000.0 0.017005259605627192 -0.016231277870723104 0.08299768324492113 0.06091414974864461 0.4226804568077482 -0.811965408981336 -0.09000978321382332 -0.035804140061474934
 0.0827845435210102 0.06105530833833766 0.0240981782498077 -0.006268374950172179 -0.0879155395007591 -0.033912853958791206 0.4249067417294131 -0.8191444482110948
 0.42371022602054287 -0.8113484100604661 -0.09073919657306685 -0.030619823913984656 0.01996313239858161 -0.005242101060749623 0.08938172979809614 0.05664573886181602
 -0.08895243144405901 -0.03401193247646823 0.425304344337469 -0.8238159124746157 0.09111889359304762 0.04077659075891154 0.05284359965465787 -0.00957974034311475
19047280000.0 0.016715035730265105 -0.017293788724249182 0.08260906679181251 0.06087951222563084 0.41769719663281646 -0.8137406230435635 -0.08987919365897443 -0.033816850891018116
 0.08302389498916012 0.0613237216995789 0.02358818715823974 -0.006927871301134075 -0.08929471336699131 -0.034784933317053304 0.418786683204056 -0.8257361628477009
 0.42052908951214757 -0.8167636622983921 -0.08693731761285384 -0.03541493394827841 0.0331022066878002 -0.009768461217918398 0.08617590530782547 0.03136389741455158
 -0.08641394063329032 -0.03488630801235294 0.4271915550427753 -0.8255973511817399 0.09338341461236292 0.01809133425114498 0.010289622535116982 -0.018004192317334446
19117270000.0 0.015159962300989762 -0.01710975656090345 0.0826455608395314 0.060963652068037916 0.4137279418132893 -0.8147352895075051 -0.08758657854292175 -0.0359784967168441
 0.08249019019226425 0.060663566642986104 0.022620147581785825 -0.008796362501265954 -0.08713527439104062 -0.033140139666765954 0.4181084718934257 -0.8215334685427379
 0.41248553054699355 -0.8168085445481839 -0.08921533773278048 -0.03285243474340647 0.009548331870446916 0.0043966532656232425 0.09493948495931226 0.03875121896817342
 -0.08968472180616123 -0.0311660735131706 0.4159336365622506 -0.8241837670353569 0.09529216389201096 0.041682776897663955 0.03885054310050082 -0.008670115175943155
19187260000.0 0.01625461757521978 -0.016531576324340075 0.08217253812881517 0.06104671947189128 0.41024853469130124 -0.8152247300097565 -0.09023373201650746 -0.03537493074398729
 0.08195302638710615 0.060058604485125074 0.02499677613913262 -0.006385971077695702 -0.09135059593503968 -0.033551474784945724 0.41378175691141444 -0.8256371093978511
 0.41211196999279437 -0.8177014479187419 -0.08720144252871882 -0.03149162164050319 0.029870756137069285 0.01618128852727555 0.07814905359452742 0.029254868838138194
 -0.08544705119608367 -0.03607034879359498 0.4171500132446687 -0.8289973643574299 0.09124539400174617 0.03035261281727075 0.01823053296142736 -0.016692186285973343
19257250000.0 0.01569974742978309 -0.017024083418644722 0.08262588577935155 0.06038278792831389 0.40763735558268516 -0.8191258114906306 -0.0908129296826982 -0.03538566791434116
 0.08285787844915075 0.06023099843945975 0.02609165459148971 -0.00666690411464062 -0.09090594683794308 -0.0340943535911312 0.4106817473164863 -0.8264780003042109
 0.41048249855797575 -0.8163427807324939 -0.09272476103493922 -0.033545029601962366 0.007209479228723042 0.0007759691566584738 0.09068144510135288 0.0422621591677861
 -0.09040905543289693 -0.032872435374427716 0.4172740706404555 -0.8254532358879345 0.09860694665516698 0.03428634292754246 0.007545068441182328 0.016143537830147263
19327240000.0 0.01425535749232071 -0.01633686538187331 0.08207207726216598 0.06045084431309318 0.40565716799851215 -0.819984525278084 -0.09250955568429292 -0.0339806220148144
 0.08261303647267672 0.059025235676568186 0.02403107601331194 -0.0055816759458377435 -0.09003198106567349 -0.035452742375388833 0.40811877932468904 -0.8303395389180759
 0.40422027639233316 -0.822355253705409 -0.08875304111113573 -0.03584450224255104 -0.011624854873820714 0.0011194690752318734 0.09108193696787567 0.027291412226001652
 -0.09443290992951335 -0.03433045737546176 0.4151895536274133 -0.8285558962009979 0.07279611009628102 0.03697895415040881 0.031508265214908286 -0.014057294176872457
19397230000.0 0.016551014737172617 -0.015547379488640142 0.08254374066465345 0.061023926174000785 0.4025434848455183 -0.8215867749789303 -0.09106703459279454 -0.03530520479373909
 0.08244849950048477 0.059760318591575864 0.025522469082118613 -0.005840034598090957 -0.09013840573701191 -0.034478747136833306 0.4032282160287945 -0.8317094751165033
 0.4054761089406098 -0.8227019690962654 -0.09070532230028927 -0.0332690288951694 0.019598395161872412 -0.004187988338305655 0.08484306907306477 0.05828270880679028
 -0.0898451225895162 -0.034877313205096634 0.40717074314467744 -0.8310467429961426 0.08640543183607101 0.03676206904540837 0.0023003525170325377 -0.0004872985783164742
19467220000.0 0.015017163073688238 -0.017559386409014006 0.08291171592628295 0.05908325465642465 0.4000694435698239 -0.823229888036842 -0.09404290884659797 -0.03440718695318523
 0.08311341395570153 0.059041747718078734 0.022252171509379106 -0.0066906890440305185 -0.09343115026490342 -0.033660495470657824 0.3992199699606583 -0.833679169134025
 0.40069490421809295 -0.8247354886621466 -0.0919062356141326 -0.032278235945064376 0.028505256894944625 0.008049127280006958 0.0883882603135539 0.04414369421444981
 -0.09360818292638051 -0.03557841828631182 0.40621170429725384 -0.8315317085651617 0.09983239944680367 0.041375554249365974 0.00464628050157168 0.007344485786264731
19537210000.0 0.014601825167223116 -0.016991694430508943 0.08285805707421662 0.05982597171231067 0.39776066293353696 -0.8271043119662391 -0.09181134871459369 -0.03387591019843447
 0.08235310554713508 0.05921520792727767 0.02138660417219212 -0.00748341506386185 -0.09031499870994714 -0.03233834042356692 0.39716508623482727 -0.8352520794458416
 0.3971093762345785 -0.8269643546858657 -0.08983055145583842 -0.03413436971982771 0.03034902806731454 -0.011150466128996662 0.08900298487694719 0.040203332745790354
 -0.09270521462547242 -0.03339128472603739 0.40352136630545 -0.8345864920952624 0.07953452525772822 0.04554142797370712 0.02356896913783826 -0.015100269039468095
19607200000.0 0.015472404845105425 -0.01668292505817965 0.08204219305059501 0.0591166427110996 0.3922384551808605 -0.826210057431368 -0.09452506477560622 -0.03408442618919817
 0.08276814091174119 0.05890822279628298 0.02225313311993182 -0.00708681986009977 -0.09375480761250456 -0.031889170331780306 0.39676861899041915 -0.8357591597202446
 0.3921119378961144 -0.8255388975431805 -0.0942084084159346 -0.03259146969099859 0.040088336008785606 0.011874005940360014 0.10178200853291205 0.053505838613299904
 -0.09636209814761428 -0.033601721246427366 0.400541589147131 -0.83658562159 0.09194494990929745 0.03354744640095543 0.004242282318953473 0.007587799901134092
19677190000.0 0.014225743529100809 -0.016431082850701974 0.08220653821494385 0.059285103095521555 0.3887297941965808 -0.8280415714105653 -0.09411242377610655 -0.030682706371479927
 0.0821991422135968 0.05848138141038849 0.021917986838849268 -0.006855424353671532 -0.09428371269910447 -0.03389646045649925 0.39238090495483247 -0.8361515651109914
 0.39162113487369654 -0.8280103299343071 -0.09177664443041504 -0.03206835079648217 0.02077671926905804 -0.010302093964009116 0.08891163535840693 0.03871286620060155
 -0.09253954159353404 -0.03042903265145776 0.3910907767791019 -0.8389889399794352 0.09992036001278094 0.0174483202151739 0.05721710379193235 -0.0002641778250981313
19747180000.0 0.013875071134013397 -0.015776866273170584 0.0813618863522223 0.057757666189095856 0.38725659329542683 -0.8300069274715798 -0.0938650024508866 -0.03673597567131053
 0.08167422803963392 0.05785702360390359 0.02231280031555335 -0.00866525637137459 -0.09005735940703988 -0.03224750832006215 0.3862690662750703 -0.8410438569514527
 0.38812168978699213 -0.8285239826846487 -0.0916283970759335 -0.03304878334133696 0.01906355405211897 -0.005842028571790385 0.09908821519412651 0.035906093665314706
 -0.09532133921582626 -0.033996025710488216 0.3908746569762147 -0.842364545454037 0.10117689743353729 0.03638477799593418 0.013068777023187823 -0.003536386114342335
19817170000.0 0.01367832863508794 -0.016734396858119976 0.08203056384981167 0.058748733883106696 0.3819685423514146 -0.8318845155415235 -0.09598381542795521 -0.03146601084979399
 0.08121331721647083 0.05768181402635966 0.02633435911309913 -0.005747226002260178 -0.09421473894538343 -0.03299427075718847 0.3833128205430773 -0.8413394117634861
 0.3854026365107295 -0.8294216994725263 -0.09453015760418468 -0.03268430696755293 0.030075535590607425 0.001831898947850238 0.08842466338779907 0.04475679788469366
 -0.09218790822536395 -0.031352445313388204 0.3912098993313898 -0.8391706696079082 0.09977276082694891 0.03688123276395303 -0.005701625611377226 -0.007656008321533584
19887160000.0 0.013531023858270616 -0.016669403553338687 0.08177134403770984 0.057878871161375016 0.3778697452666134 -0.8328712840710466 -0.09385436443511605 -0.03209638500419167
 0.08146944298032296 0.057553715567845797 0.024043266818381356 -0.008052049050246214 -0.09462685338061429 -0.02907685619798321 0.3797495745122298 -0.841463199785247
 0.3798766779507396 -0.832569588595617 -0.09380165375390495 -0.030822818559059516 0.01203601207854641 -0.0023293278534128057 0.08858051367879541 0.03564545566035438
 -0.09562104743413163 -0.03347889517523637 0.3831494362707741 -0.8365924094034746 0.08945817321387142 0.022835545069951384 0.037653932448310376 -0.018795012262530594
19957150000.0 0.012929789776443107 -0.01723561295936108 0.08225132469092512 0.057553940915156435 0.37339643772414205 -0.8358682757821361 -0.09398816781480537 -0.03155602234280157
 0.0813803211117303 0.05688123199623279 0.020583734678693462 -0.006957016807219649 -0.09575426329912781 -0.03439401009277748 0.3764061994082564 -0.8432103537142596
 0.3785742059516566 -0.8340800143679836 -0.09652603006564531 -0.034866878623131654 0.023546503180162055 0.01673503907146818 0.09361720017129081 0.04703587322391762
 -0.09439738443789712 -0.032920316120281325 0.38516108285026585 -0.8433284359346759 0.10053558316803715 0.036378290733287064 0.012023017100489362 -0.013445137833340287
20027140000.0 0.012148056200859037 -0.017034097081844862 0.08122939364668659 0.05813088479164553 0.3724618706509511 -0.8338066770106228 -0.097885160590696 -0.031977351814711674
 0.08166484331242245 0.057617367721220475 0.022125577092195085 -0.005368153354351602 -0.09512708729757342 -0.030449871596415316 0.3729287710067803 -0.8425853274469881
 0.3734611785798465 -0.8390759263704004 -0.09788038053788578 -0.032519300946088674 0.02676766186275322 -0.00046692139186766784 0.07923642202433816 0.039959032642943954
 -0.09681205603708529 -0.028678691632821156 0.3783633570773709 -0.8348920615930728 0.08927983874357372 0.03353752869999014 0.018052583971220944 -0.006308126249002612
20097130000.0 0.013406710822539348 -0.01647024251422725 0.08135831185732088 0.05735066617976068 0.3658261459055984 -0.8338069634670582 -0.0996089404453112 -0.03183064924973174
 0.0814260394159732 0.057171761996200346 0.019761812655010196 -0.008813321256264037 -0.0975688722655767 -0.03373648398097862 0.3685822367688234 -0.8405616337848205
 0.37388053215408146 -0.8351289342928855 -0.09278445151335972 -0.032348374246857964 0.007820351558598122 -0.0013941476060604385 0.10339894778334283 0.014905750576228132
 -0.09570005978669716 -0.029928409047680824 0.37086013916507427 -0.848011514477147 0.09703827332876712 0.020384581851351998 0.02818600068098145 -0.006279195388900436
20167120000.0 0.010707507246403116 -0.016352450211422304 0.08211979081834096 0.055829695507517846 0.36187516178585283 -0.8355938785242145 -0.09690734394085622 -0.03068200560103975
 0.0817591967856404 0.05717502676873028 0.019204639622461 -0.009432973336442023 -0.09481824373890929 -0.03080008195412216 0.3721425513558053 -0.8465224748500503
 0.36447108348313373 -0.8391294916533083 -0.09572675761768433 -0.03676772243852778 0.0003632552685882934 -0.008888431277499333 0.07872768903390796 0.033172890866555484
 -0.0958420273550313 -0.029076831884569977 0.36869709120189054 -0.8368032567910497 0.09449940875746034 0.032808233477031754 0.031447721052588654 0.0035756702197907706
20237110000.0 0.010897926849714473 -0.016560251559687305 0.08041525140588253 0.05716138998335775 0.3602094596106722 -0.84076920411798 -0.09624161930650205 -0.033310095483079685
 0.08049818813049466 0.05568346381720766 0.02085746699045471 -0.009638995937737684 -0.09385502779000554 -0.03321073904964199 0.3629531521580223 -0.8467062197149149
 0.3583203290117578 -0.8372772086923094 -0.0963798620296695 -0.02691898894377337 0.01799122808179127 -0.012688448187166674 0.09051634913538492 0.029708102889973474
 -0.10027326801345213 -0.03222221888900373 0.37185505478984054 -0.8433861273846459 0.06600303532380783 0.031662727127764974 0.0046231527917377285 -0.014349838198978584
20307100000.0 0.01335094782745897 -0.01650195890296289 0.08095069373127667 0.05668464424038609 0.3565701762450485 -0.8410321128052096 -0.09281370678784893 -0.03210969712760519
 0.0810348209258185 0.055394217487160655 0.024465028543844955 -0.011114190314898279 -0.09995817116363231 -0.032018790562284384 0.3582227208290706 -0.8462019901701255
 0.35993123392529686 -0.8406799126378065 -0.096457387307797 -0.03150216688210337 0.04876563797510407 0.0156442223301027 0.07621847597866357 0.03706965912116098
 -0.09545706135936102 -0.031586964156755964 0.366687486272132 -0.8457985591533946 0.09805336434876502 0.04619786534287728 -0.0035709684727323527 -0.010588721703572043
20377090000.0 0.010679637951735774 -0.016643493537943966 0.08127749016393351 0.05662656118144977 0.35463096464022054 -0.8410889387895122 -0.09788437854795862 -0.02994755529555679
 0.0810111363834728 0.05561025844386338 0.021669984048428906 -0.007999829227433043 -0.0963443994565095 -0.029594684925147264 0.3565674081438783 -0.8488851840690761
 0.3586995416133204 -0.8440313319846822 -0.0967680047793022 -0.029937860248510632 5.2094039674548694e-05 -0.004640087085633464 0.09165919066056935 0.028137417581889076
 -0.1001541954589596 -0.03235896197984755 0.366953774254144 -0.8456390071908194 0.08200738108259222 0.027272673953197518 0.051438913878520814 0.002235413206436707
20447080000.0 0.010210223505160399 -0.01444582681348617 0.08061736871513576 0.055231945629866205 0.34999145579233454 -0.8396011822257373 -0.09845426527152697 -0.03245848927546635
 0.08068235685333545 0.05481518571989281 0.021372874619435975 -0.007122538843744135 -0.0965614070049228 -0.03068172914092153 0.35659394441983744 -0.8512189217138798
 0.34721956210844784 -0.8392426449875687 -0.09538856658923692 -0.028444905837749196 0.009413069602919709 0.015985356458353618 0.07651403719401054 0.023511969821089235
 -0.09841410603118628 -0.030980945652703793 0.35628508212420806 -0.8474345699252951 0.09459026828006188 0.026007296221783164 0.0488183000629042 0.002934773081223768
20517070000.0 0.011699490639813466 -0.01717286711918183 0.07996747721816226 0.055035574650127886 0.34877934857863585 -0.8441844628479036 -0.09935997330484182 -0.029669974084201876
 0.0804866605196671 0.05558602057110953 0.019390048506782526 -0.007318636872362789 -0.09607680364012894 -0.0268520604199892 0.34876389374882266 -0.8494973831731303
 0.347095484821604 -0.8489026330925923 -0.10113031961230456 -0.03372785841004243 0.01458800081216594 -0.02991040382994481 0.0911716364633849 0.03071664380974719
 -0.09988635015858496 -0.033569480362656536 0.35884256085245886 -0.8518521492195801 0.09570698786743231 0.03354878090076184 0.005786105655061552 -0.005056898100808574
20587060000.0 0.010343268356102869 -0.015854592793903353 0.08019873726740481 0.05543668051491439 0.34325227000361663 -0.8422697911950843 -0.09852233904658253 -0.03072930563726097
 0.08025865427355787 0.05564361601476078 0.017058502751399047 -0.007070021354151214 -0.09771621819816412 -0.03205244874465461 0.3448423219502515 -0.8511733389696436
 0.34739169477607507 -0.8457025611697124 -0.09385567973938334 -0.029377511100718887 -0.003391546788483965 0.007526709471424959 0.09664091689654515 0.027824180904430534
 -0.1007097832048043 -0.032484122537417885 0.3519218573804919 -0.8506650056403268 0.09894220725716794 0.01872878944550943 0.01661736965242039 0.013459986539279998
20657050000.0 0.011084193911874509 -0.014935197014163576 0.0795092862988212 0.05545802962612812 0.34468485864419707 -0.8464879867429045 -0.09928233557201742 -0.028477940709085707
 0.07958034941440041 0.055455458782478165 0.01824805493671043 -0.007577680908074057 -0.10052407979574396 -0.029248518711814966 0.3427090485909972 -0.8535118631874448
 0.34174432293236706 -0.8430238241840333 -0.09771122953586178 -0.028200865033793186 0.04749536079195697 0.00542315567291079 0.09349235120794343 0.02729834207373396
 -0.09872952834503167 -0.02710345295389377 0.35381511223624823 -0.8587065059889044 0.0801758207221904 0.050431093449977385 0.02592746308366087 -0.01520648567948628
20727040000.0 0.011464550438973615 -0.016723797538271874 0.08004801974965163 0.05471098378915505 0.33837768001955026 -0.8471707059963132 -0.10041658347696983 -0.03203717133511949
 0.07978624040654704 0.05456226509646431 0.021324948550728758 -0.00892770143304461 -0.10043070095820925 -0.02749978994087541 0.3455720607950671 -0.8564318442184667
 0.33705935008032595 -0.8468073186537816 -0.09154406535391899 -0.028440253966322354 0.02292072452716047 0.012450999000054367 0.07153914175696736 0.014127415636768122
 -0.09837519780177303 -0.029389000328284145 0.3469882930527013 -0.8573240055778024 0.09328330783751783 0.033899772252635824 0.024626783934144848 -0.030540022370189247
20797030000.0 0.009953934666447374 -0.015853759738303143 0.08005851895540177 0.05339152693637555 0.33366724360528704 -0.848576907514024 -0.10293430859609139 -0.029630683262714834
 0.07963019740096997 0.05359172118695514 0.019815567409786072 -0.009179052970647823 -0.09947586990416188 -0.02866089508116098 0.33479978141791256 -0.8576434242852454
 0.3410579662401042 -0.8473577465222042 -0.09409304472634797 -0.028508742835557047 0.024376290811055103 0.008434820644708808 0.0878757339111898 0.033067168056814845
 -0.10299910119929656 -0.030793862552581232 0.34434636803829194 -0.857774885979573 0.10677630877963866 0.04384380453082234 0.02634373803941627 -0.00810341061489939
20867020000.0 0.009960239103943244 -0.01461871815987775 0.08010505356024625 0.05419071947022848 0.3283608674062531 -0.8495328773074616 -0.1019169977986608 -0.030797924962005715
 0.07884366035501236 0.05381915631291572 0.02194913702273838 -0.010054002544673852 -0.10119395488750572 -0.026069939062266678 0.3308988609012225 -0.8575948008883862
 0.3304634328770811 -0.8461244833361702 -0.09792538683832062 -0.026063983495068086 0.020433245224603745 -0.007435404913658652 0.08069115528888485 0.025651391906291985
 -0.10223261545321057 -0.030619527438576436 0.33497270062035617 -0.8545603587214629 0.06968422994757338 0.029210254832071687 0.030189417248716537 -0.020678873427601132
20937010000.0 0.010385635761346032 -0.016457563119188136 0.07976536275679655 0.0547422534895737 0.3293091801184208 -0.8529375345369264 -0.10224021366923843 -0.028738427973711088
 0.07988095532966176 0.053757323174672085 0.021509420276582588 -0.00939699324035678 -0.09997956587458826 -0.028389394922950128 0.3275308023346417 -0.8624141005626974
 0.32767400942813835 -0.8520616554574177 -0.0933717293222035 -0.027690763122473053 0.008541275423755013 -0.016412721707265415 0.09049912693941677 0.025295718737128735
 -0.10184839460192635 -0.026807221601086593 0.330362090846893 -0.8609860138848097 0.08098508441844858 0.03390390191760124 0.014115192601720358 -0.00862322556969532
21007000000.0 0.009200996376984223 -0.01597309637476203 0.07922304895440303 0.0535855422472659 0.32530251163251883 -0.8509274929977378 -0.09884059253081327 -0.027926591684257745
 0.07950534615237662 0.052794668062368176 0.02023769920571053 -0.006201717996956538 -0.10219856007402975 -0.02811774442376864 0.32593234794738096 -0.8601020294269854
 0.3280818789785879 -0.8498509858239042 -0.1051382356084167 -0.027616040670581394 0.010300132939388524 -0.012221905031396012 0.10296189629222127 0.021191267833167316
 -0.09899787215583362 -0.030565455611019327 0.3363848564402632 -0.8519927868296457 0.09239430415594341 0.03785243512384799 0.032182021475135415 0.018589848586820314
21076990000.0 0.010025594091532905 -0.015456924221021195 0.08009381613564294 0.054009928413647545 0.3204565946326599 -0.8543760758525633 -0.10314205987325681 -0.02715292074051071
 0.08008331588477105 0.053410063364870385 0.01808453876054933 -0.005735864293025927 -0.10119148741948486 -0.026023543169304945 0.3196275581750855 -0.859256594036162
 0.3187745953277064 -0.8548006029715959 -0.10423958785075785 -0.024116200643690282 0.011650523106246927 -0.01263397674659122 0.08538366715496278 0.03316562322764382
 -0.10247510973700147 -0.03028779301963444 0.3296262677836693 -0.8594472718856545 0.09283694837219025 0.036078086061945715 0.0010310268146328017 0.01544223489670336
21146980000.0 0.009931952788778295 -0.016915918048639882 0.07871702425923358 0.05388079391955833 0.3197708962541635 -0.8541842786761324 -0.10362729611787685 -0.025045194334118615
 0.07874647825630852 0.05297510833902344 0.016885562350853107 -0.007724715434595873 -0.1019324550515333 -0.026427397804781358 0.31799251531520994 -0.8644515387163642
 0.32337298085933414 -0.8555229981753287 -0.10321425717619151 -0.029831274547469238 0.031016556655311254 0.005259326898758022 0.08551949856195352 0.03493313925207074
 -0.10619093308712055 -0.029833727074769657 0.32751583069133877 -0.8580040365855651 0.08763659888523982 0.026938874117497714 0.003492676109909787 -0.019020017967272814
21216970000.0 0.008456244367254034 -0.016580758043123485 0.0781328027013169 0.05211783529496567 0.31362183503025554 -0.8554419123512965 -0.10554763870586852 -0.028303519155316672
 0.07883985541988717 0.05247049447991673 0.01826212746675458 -0.008483491226188274 -0.10496671861069681 -0.027834558457141754 0.31565697331734227 -0.8653975088293642
 0.3135955324118296 -0.8536336151316485 -0.10196434649496587 -0.03013644357710752 0.009720302679998242 0.01197523116748927 0.082093107373182 0.02979738635803407
 -0.10345980664814403 -0.031047105829448383 0.3201137358404307 -0.869822531327094 0.10767606239033264 0.01635665084107603 -0.000925525420369873 0.02603251941500342
21286960000.0 0.00836343625963098 -0.014563395051872902 0.07846925389368982 0.05323562443680845 0.30903141071883516 -0.8575092574298263 -0.10363298969807325 -0.02534867116839184
 0.07829330468454919 0.052244920417912045 0.018525770470251886 -0.009915824436397165 -0.09964039064151384 -0.028111259117111213 0.31088442689818907 -0.8640716095777285
 0.30894767239564247 -0.8535185646863939 -0.1044344377404417 -0.029602174673980197 0.0018055892048668319 0.01200451839771356 0.090511181944818 0.03856805791600801
 -0.10293254281006814 -0.02867461176768618 0.32898703334907403 -0.865784976662152 0.10028721979235382 0.0382847746187218 0.00462519598527524 -0.0030564306386947544
21356950000.0 0.00831069965331638 -0.017737881741658922 0.07868117870808182 0.05236762447135036 0.3074776048895046 -0.8565812673242348 -0.10387076085671552 -0.027910406023676136
 0.07819961916952488 0.05180983367833179 0.01837681796175367 -0.012264481400790624 -0.10608882402359987 -0.025909536388130785 0.30792426408186807 -0.8611981086374026
 0.3127076219607752 -0.8562966533108973 -0.1003341671518268 -0.028176399909038172 0.025821423597067097 -0.0021990929898128534 0.0897903728036584 0.021524625662312488
 -0.10089826856015703 -0.02541579459641703 0.3162464008482064 -0.8635725218165219 0.061953849758267676 0.007446609628499397 0.045763135331161116 0.008123138308689857
21426940000.0 0.007982791701428687 -0.017808916865969037 0.07736999393683675 0.052662101816115296 0.3035703759810322 -0.8589878242733117 -0.10209954881538878 -0.026118997972232584
 0.07772260311101808 0.052590214281840804 0.01861485701064962 -0.011300231567678053 -0.10295015873551404 -0.026233055547131227 0.304455338269647 -0.8660165383075139
 0.30827098439934963 -0.8595887516195424 -0.0996356177932424 -0.031023310338442668 -0.0027159688931612932 0.007252956831562898 0.08680946405771447 0.023639404876470746
 -0.09955814328320609 -0.026564440769009157 0.3007511416496836 -0.8624399119042245 0.0759304893517357 0.018165900339379492 0.010182937504438393 0.0012612386014580856
21496930000.0 0.007771745187960458 -0.014744592928470003 0.07697237434216381 0.05137641866928904 0.29926114570712103 -0.8576428426700932 -0.10428856876601907 -0.024448181277414053
 0.07793506340304943 0.0511985775555957 0.017981103911791474 -0.009490818985306551 -0.10316013114785855 -0.023428886523125345 0.3002729043672968 -0.865955795469848
 0.2994474165232701 -0.8591546533166817 -0.10160497527560924 -0.02893565320626837 0.012991261655994605 -0.01787187084267841 0.07940927918523975 0.0052016524081690135
 -0.10466423542362384 -0.024614116936428235 0.30800289597774905 -0.866367164868648 0.09038106974649465 0.021963956266156846 0.023465095905475592 -0.012034126482492693
21566920000.0 0.007878588218923866 -0.017133902959618415 0.07702902518976663 0.052445523944961644 0.29482826860165345 -0.8577882917057645 -0.10445264490215714 -0.02590707754474166
 0.07741022091752806 0.05241475822567322 0.01857286460586845 -0.007226159856802868 -0.10386201660809061 -0.024095126148923854 0.29679415292452715 -0.8694899781522599
 0.2999652990502445 -0.8594211865417494 -0.10421582390007943 -0.024730279256246004 0.015013818133462711 -0.006938334166415073 0.07331025191008486 0.01786674826149097
 -0.10282319116729319 -0.026254029586261787 0.30375035581462 -0.8611798205145335 0.09145532271946875 0.02345061930417282 0.025175521595236266 -0.00937391794485519
21636910000.0 0.006763235343850384 -0.016977627386767318 0.07742254509442008 0.05087662610436931 0.2957111320828707 -0.8597349975758634 -0.1054386004802973 -0.02324141350833246
 0.07709582426465737 0.0513865318148148 0.015515841245045014 -0.0074937630380201075 -0.1093895883824338 -0.02612646109801131 0.2957107973010939 -0.8698827613098549
 0.2998021227768934 -0.8568914683596867 -0.10170155196340032 -0.027798930827460176 0.060522427192766994 -0.014777940729494676 0.0935884457074629 0.04607259085015308
 -0.10591344087805969 -0.025590874220069317 0.2944510193363532 -0.8759209336997594 0.06771557237762951 0.02984348410250873 0.018095284551624853 0.005620871774317227
21706900000.0 0.0074817190723333905 -0.01585776062845567 0.07717396507942363 0.05219084991713816 0.29107790041107123 -0.8632520091123222 -0.10669011051975529 -0.02326357146776237
 0.07656829705987928 0.05148204620781046 0.01565772650997397 -0.008071248318821441 -0.10571408792505686 -0.026196056293709837 0.2908071425096282 -0.8695293488412067
 0.2910264516110246 -0.8660909989246505 -0.10390945633224423 -0.022016323402789376 0.03781628618982616 -0.01866592477571661 0.08491861916738876 0.023577408641761687
 -0.10607781085666008 -0.02230595803204352 0.30109590953714166 -0.8685501216093618 0.08587630500214355 0.03403820293448074 0.02792500447862654 -0.015175876148119
21776890000.0 0.006674858234975512 -0.015732095087055566 0.0766017309163038 0.05058080882158777 0.286722262432378 -0.8640149155517475 -0.10590493821218779 -0.025589211060733346
 0.0770249677579949 0.0515928314864656 0.015545642743703694 -0.008119680769691993 -0.10915376428559286 -0.02789072000298533 0.29113650355058024 -0.8709548060023098
 0.29316157152983213 -0.8606182715431361 -0.1066123944519147 -0.01980313223740224 0.013679751454397053 0.0016600212491157688 0.0877382307760019 0.03755809642126133
 -0.10369703158306522 -0.02641508105548631 0.29577835848057443 -0.870793653160965 0.0725170947508477 0.017834159146704092 0.028075239980289875 0.0012709124760226394
21846880000.0 0.005972019530910782 -0.01572391589388661 0.07644315127898477 0.051843043218592566 0.28202838746173114 -0.8672508744445202 -0.10663472715256406 -0.024183565418291406
 0.07633276067491258 0.04931855432500859 0.016010638763195844 -0.008206885059970612 -0.10672856464745399 -0.024711070996856387 0.28617030514538433 -0.8735617988391947
 0.2866078658278243 -0.8627049965412238 -0.10700171123612201 -0.025805599711662647 0.043160480727900075 -0.026190103130173358 0.0739051525615709 0.025527283748213593
 -0.10891395118117896 -0.027813446445020252 0.2913801814073439 -0.8719069759037882 0.0833021000564572 0.007663478057791532 0.03228628580212443 -0.019512734485905237
21916870000.0 0.0064054760528607846 -0.014776313253926272 0.07671467195213588 0.049874560317677924 0.28291868443240675 -0.8653688246186887 -0.10623364689888712 -0.024466021676627037
 0.07559699779734551 0.04903832010240425 0.016626919423973572 -0.010938892780124547 -0.10464703456994377 -0.023637355062354162 0.2827770150822814 -0.8731934062897332
 0.2806285615780798 -0.8663899291361296 -0.10420575831171755 -0.0212395418714109 -0.014036685224908476 -0.015461316318296128 0.07869165049246295 0.02845698119549401
 -0.10878994861802398 -0.02448634944325122 0.2766130660840793 -0.8734544963512683 0.08843041375259282 0.01733738473390018 0.0006727401597659683 0.003563383318638556
21986860000.0 0.005526631073428925 -0.015439459338643324 0.07584683669086721 0.05015168334269336 0.27654531989927356 -0.8655357665381467 -0.10711380463392896 -0.023755973539204948
 0.07550676578684595 0.05036052298068761 0.017507348568795548 -0.009753556261615821 -0.10751952286139277 -0.021471055698542754 0.27487634943082384 -0.8772253909147886
 0.27963073712111863 -0.8670436318368852 -0.10540179400718942 -0.01841622105685053 0.016343714287477207 0.0061215975435588085 0.08659827544017376 0.03177807401015946
 -0.10698114075288771 -0.028175168025266168 0.2846241068206584 -0.8720417411122249 0.07912603092875689 0.022551319091818556 0.022398890658655655 -0.015168296524460374
22056850000.0 0.005293834883255017 -0.015269425720005385 0.0756781277791217 0.04997234898925137 0.27609010821719493 -0.8669625126787017 -0.10779447837575495 -0.026396683260220762
 0.07559486239251213 0.0498927963493848 0.017936620069055238 -0.006968990010243097 -0.10674841643912711 -0.02367552323748879 0.2724355269566182 -0.8728586743490886
 0.27212850473870404 -0.8651606437167221 -0.1068870747618664 -0.020266860653444144 0.040225634586207246 -0.029861210269099384 0.07793404109367263 0.018035620742073016
 -0.11144726549118256 -0.024267241543237148 0.27567104689507244 -0.8772217774264035 0.06959397320110702 0.02873361647438844 -0.0022937441437228465 -0.015729848178644017
22126840000.0 0.005863230842272253 -0.015087718205253814 0.07504559272229024 0.049549853721863955 0.27276718985701304 -0.8672530472483366 -0.1089577247574343 -0.024056007407865312
 0.07538778925376238 0.04878622761123802 0.016173328297658236 -0.008672113425977476 -0.1073999305184938 -0.022706531690125913 0.273165386994582 -0.8748685016880464
 0.2703101041810946 -0.8661133241390631 -0.1090585360395735 -0.023805326177568108 -0.011596039987664083 -0.022061467125778587 0.07076994189430202 0.018333085291988533
 -0.10466140248542435 -0.02533321351595327 0.2762552894277479 -0.8775886857710555 0.09063073947584302 0.02364757607229545 0.00771088269930089 0.0004313305888508755
22196830000.0 0.005804579808443767 -0.014843905412353302 0.0749691847100529 0.050091161147748836 0.26348175122631073 -0.871507220867518 -0.11239563444203012 -0.020822168911666234
 0.07566070417224595 0.04893309435096737 0.01551182647548749 -0.004991402421585485 -0.11041728365507379 -0.019015422281058212 0.2671663357321188 -0.8780420239805085
 0.26259386304964283 -0.8689530754756923 -0.10913751453412039 -0.02493128375271108 0.04606646211705456 0.013420406491236096 0.08818895641219889 0.023328011803575712
 -0.11067104246790142 -0.022331277825531872 0.26570019977825343 -0.8802369574447255 0.07151682081407379 0.015588141610195404 0.044313138888902 -0.011366831841385636
22266820000.0 0.005422538978029002 -0.015513368851718237 0.07495697180548165 0.049365967145549965 0.26175774056730355 -0.8692666839654698 -0.10963568176554285 -0.023010349133402754
 0.07543572568566918 0.048981813381396365 0.015234232166523521 -0.009939438778905555 -0.10969989936421809 -0.021511329029191374 0.26703833687774275 -0.8810447142652297
 0.265007418380132 -0.8698312848333931 -0.1108587394130961 -0.026756273817480743 0.03080257835371927 -0.010173841640656519 0.07872125997686821 0.008614614382987822
 -0.1093778680570184 -0.024617875567517825 0.26953672742437684 -0.8805797485334905 0.09792052098227855 0.020645817968587502 0.030842690917787012 -0.012675771890013723
22336810000.0 0.003253098833936772 -0.015351087010387645 0.07461159672913593 0.04924138961030938 0.2572927914548128 -0.8690431188762311 -0.10742117067879481 -0.022365934581114914
 0.07436504106816143 0.0490008060062949 0.014194308161995196 -0.008553464113353148 -0.11084404602654938 -0.022506149543339474 0.2611855949456183 -0.87815300356896
 0.26064812650787406 -0.8775121836011155 -0.1108948068397817 -0.02511470383386507 0.01096695931957821 -0.016130818993110734 0.08079975017330823 0.010829962871045193
 -0.11082032324370912 -0.02022479465102688 0.26948521245552476 -0.8860494819226683 0.06726229065121057 0.032734238151808114 0.021721227358590726 0.004281003173881972
22406800000.0 0.004121150273756143 -0.01515533658128453 0.07423123555645322 0.049512444535326654 0.2535988031190677 -0.8702225934617802 -0.110523809193177 -0.021481249940663034
 0.07411304821381598 0.04865305247377545 0.013057222926335757 -0.006164006721603186 -0.10791470106564423 -0.020990371169522334 0.258407547867307 -0.8824760873402395
 0.260518619559228 -0.8714900820632104 -0.11076066659004301 -0.023667800685681303 0.026222626342803916 -0.018744040783612907 0.08360442032249374 0.019089052100302577
 -0.1080130984573476 -0.015326382251805503 0.2624559944925679 -0.8803754145470953 0.07504783461721926 0.023168274957633125 0.013562407620904033 -0.01509333054910931
22476790000.0 0.005037931895084378 -0.015585952508141225 0.07353762949455918 0.048144226341254016 0.2509395258757055 -0.8740614218344585 -0.10976485132876755 -0.02419784425637176
 0.07377333298701158 0.048333459362348015 0.013884997406570159 -0.008300444141141006 -0.10875150963116874 -0.021777677675919017 0.25547008669168747 -0.8821023590385606
 0.2508111017414362 -0.8745929615120633 -0.10382932156210246 -0.02182368619512487 0.01341575702580453 0.01715548817844499 0.07329665005105165 0.04292952833540556
 -0.10929982447965442 -0.022570255856624553 0.25421357096177477 -0.8809547836197572 0.09544193035432864 0.016195444103139115 0.002623311913142867 0.004202542987138162
22546780000.0 0.0025927241106940167 -0.014348778523898197 0.07276046009662578 0.047765935598869574 0.25281569838036244 -0.8739337281916678 -0.11066181753749052 -0.018887345904963625
 0.07349813426459818 0.04837302943566788 0.015163982441538902 -0.00893016154618979 -0.1114374318132003 -0.020689518576990147 0.2531562830751172 -0.8824127104493084
 0.24771331096624855 -0.8751606603013087 -0.10548908575783326 -0.019130297592596972 0.0020838655760520037 0.004679678148356373 0.07403979902784104 0.0324563592473959
 -0.11194085924257663 -0.022848490987040136 0.2496750639401691 -0.8853549337568828 0.08648827748684579 0.003756473254380851 0.018579155645255474 -0.010108665700032302
22616770000.0 0.004163290098376244 -0.013245440710070949 0.07312209335107003 0.048663203832270914 0.2464315525334907 -0.8764726901968904 -0.11192404468125819 -0.01968326719739025
 0.07350531091072675 0.04707222428978013 0.01724266084087627 -0.003976731104685906 -0.11118386452265168 -0.019481885631196995 0.24684224978412408 -0.8816260711499658
 0.25006118076523426 -0.8759326666096547 -0.10810673860900422 -0.021024199437814216 0.03845730773070887 0.006587959903137597 0.06967960631742115 0.031036300448917007
 -0.10695642134092465 -0.02019821883919103 0.24890586989098024 -0.8840666175240962 0.08749910175631274 0.01953628815211179 0.01835297913341895 -0.020521607690954045
22686760000.0 0.003977617219189053 -0.01479017879540937 0.07290973506920219 0.04739182096205967 0.2429791382349439 -0.8742705093496174 -0.11007011638117772 -0.01993665555088979
 0.07322997185400222 0.047788263946186536 0.01413406158253889 -0.008876936786107115 -0.11304896133701658 -0.02241444002346144 0.24022354411021174 -0.8815972205236762
 0.24573286427623592 -0.8752814891026595 -0.11005898927211254 -0.018097612841201035 -0.006429803763376434 -0.0008398789587187203 0.09511251726122029 0.024743227011625086
 -0.11072171225699196 -0.016278486234616796 0.2392366397692557 -0.8878449357152627 0.046917335899676185 0.010364284396773525 0.01043469394678068 0.013494061611328222
22756750000.0 0.0015142412391846 -0.013977657383339273 0.07350459405000223 0.04774108090355048 0.2366943675488994 -0.8780160899932166 -0.1106020971683801 -0.019927562422795326
 0.07235260659706286 0.04804502305413499 0.013081846106677928 -0.005634701734419648 -0.111636667150607 -0.01847892821781567 0.24039071365194928 -0.8834847594898392
 0.24101183156488915 -0.8789503271778761 -0.11027132129685203 -0.022047994425771943 0.013627743474192391 -0.018583101382936375 0.08646076829073504 0.020572857648428575
 -0.11205627122440408 -0.01828264998560845 0.24270874072296575 -0.8933128742249812 0.0919199989449867 0.02647931767299484 0.0015073889992714073 -0.0040006029794962825
22826740000.0 0.001990302128686812 -0.014111105598931516 0.0722300973390417 0.04748000498328354 0.23234094741896905 -0.8776018160625659 -0.11310874166869807 -0.020204158592497298
 0.07288163733658765 0.04660799519060001 0.014601880767694362 -0.004374385779965229 -0.11335531891385972 -0.023270360904511574 0.23544445148075663 -0.8854847316918867
 0.23552879378192132 -0.8835759531729037 -0.11188473761756414 -0.020526819798266573 -0.015443913351792269 0.0007109199393338033 0.07677407620737277 0.027039311936490878
 -0.11318384254344435 -0.020676755790738945 0.2452766182368782 -0.8883481684210122 0.06173914073017975 0.026445283268916042 -0.00024415988290643224 -0.009622451641138879
22896730000.0 0.0038564709476596533 -0.01427885359369361 0.07238598112224875 0.04766876974189811 0.22998589112970505 -0.8757025470385713 -0.11400006667540775 -0.021173325716394648
 0.07238191435816128 0.047029202304144764 0.012099837120987169 -0.006211622983871183 -0.11293385763470329 -0.020701978007299716 0.23339258523959353 -0.8880071717665186
 0.23056839550677968 -0.8747220393615176 -0.11150118349588908 -0.01685918649043048 0.04002454306612443 -0.004745740586963845 0.09618472076683642 0.02032108010756973
 -0.11670848885932605 -0.020386314093065055 0.23108128177675688 -0.887425508242405 0.08676041528671469 0.018443727137914843 0.02851574865587293 0.0033108502499468737
22966720000.0 0.0009459200096773916 -0.013313033017653799 0.07054387008921145 0.04734902402105303 0.2275780709684513 -0.8772083809639682 -0.11340779771247257 -0.015667842950443996
 0.07134401420888371 0.04685589854794477 0.011408454069476824 -0.009309913790115122 -0.11396261245963397 -0.01968967733993791 0.22493927467340086 -0.8915728154920606
 0.23307661493486176 -0.8796551200811329 -0.1164454972116249 -0.025258322974859318 0.015305217960936403 -0.0071301933521012014 0.07554107831316471 0.029998618456020767
 -0.11070758465985296 -0.017421081664294246 0.23336767944300404 -0.8935712534452674 0.07454823031878491 0.04123179128579557 0.017003231711918525 -0.007674341992373196
23036710000.0 0.0017423402251830363 -0.013227947508079005 0.07082407857172583 0.04721716381474388 0.22480695399750833 -0.8810616458643474 -0.11191864772417379 -0.018626764701579836
 0.07141729884839104 0.046374789460609446 0.013245911577904746 -0.0071055895949897665 -0.11558410479691032 -0.018268469016883022 0.2233651433543705 -0.8868780561101245
 0.226694413525656 -0.8866261388175417 -0.11157249876899895 -0.013784187018053944 0.016714709100706632 -0.032475513162867384 0.07688231779966818 0.004871381705341617
 -0.11655898925026395 -0.014608064725164769 0.2373080954756092 -0.8808762928123105 0.08154571461682841 0.03782925522960323 0.035495495406403184 0.017805057813473704
23106700000.0 0.0006831988552937759 -0.01517059274528065 0.07142276220813218 0.04775546434368234 0.2171170032587351 -0.8777311388990993 -0.11579629845984706 -0.017231084545132176
 0.07171330898344953 0.04676139342258579 0.012651869003184794 -0.0097463115755306 -0.11104586488280352 -0.01691029738820901 0.2209719666531436 -0.8847109836260759
 0.21725753288629718 -0.878689389181337 -0.11406671741659898 -0.017712894074393797 0.02806012604775565 0.006949797750712191 0.06528113405164046 0.014111156111383654
 -0.11642646864509124 -0.015066404448645262 0.22123835647102805 -0.8904503648964509 0.07512567262778161 0.019823671757938727 0.022665138354159595 0.02158500193085582
23176690000.0 0.0004425050381524023 -0.013995697188172816 0.07069625205855819 0.04583421792962099 0.21662126293317024 -0.8810183347711732 -0.11683416006535904 -0.01725819351801396
 0.07068505750292467 0.04691936033062708 0.012952562912930224 -0.009400578440366271 -0.11399596938385018 -0.019738267233622233 0.21088507245174293 -0.8896413963234726
 0.22070786914152848 -0.8816270122041208 -0.11033031221866965 -0.017550214393655214 0.0022658718461292 -0.013724302608943832 0.07774471140438313 0.015740060515387976
 -0.11515708576058417 -0.012793824269063104 0.211407091236909 -0.8999115138941994 0.07357967691411266 0.003912562825043719 -0.0031072736662200065 0.0247124493764452
23246680000.0 -0.0011261134397987644 -0.013040891874767185 0.07033064542430234 0.04705924687555318 0.2137338742014379 -0.8826071692115574 -0.11727038165514342 -0.01766220962400617
 0.07028430769494955 0.04689449194765041 0.012881583452896478 -0.006735502847198088 -0.11405005211798765 -0.01665396028079437 0.2173883640063158 -0.8890387625766338
 0.21612691319359292 -0.8836445981665684 -0.11871332366999053 -0.020356659915271552 0.009839967707112767 -0.016020333674359205 0.07173464594192093 0.016960828548343118
 -0.11737606410699096 -0.016348876532681397 0.21201512411910722 -0.8881068980485007 0.08064283702420007 0.018881050743119594 0.032707713933635654 -0.00016173147034262672
23316670000.0 -5.781833075415802e-05 -0.012597342165901684 0.07046997586686678 0.046454812231357015 0.20944933996903586 -0.8790034523302007 -0.11565958242270605 -0.020460516405049662
 0.07108010364145115 0.0463965052868108 0.00977714844128729 -0.005492917084232912 -0.11330445953992829 -0.016931241066081463 0.20982787249957055 -0.8906590772469711
 0.21151987425065225 -0.8866421278401718 -0.11385950639269556 -0.017576939291596653 0.004179211273716812 0.00012057419735534535 0.06718926364743016 0.01843869364595459
 -0.11532024523089258 -0.017124861645656336 0.21186903170097718 -0.8929506668826858 0.07274059125415445 0.025188147841641285 0.00758517016652482 -0.007143492453162822
23386660000.0 -0.001887473926038779 -0.013648481941677271 0.06998663626508848 0.046593829876261254 0.20543771497477709 -0.8810951693592433 -0.11339800528114469 -0.017604796401522682
 0.0705850714197542 0.046994622539579034 0.008807087187541187 -0.005144584403750128 -0.11643764068573352 -0.016881409456268308 0.20665222245387024 -0.890628734966565
 0.20658007104538242 -0.8842573492559018 -0.11694523238341852 -0.01812330691375134 0.01937658367307481 -0.01476437909844144 0.06967229914753842 0.0048838148836757075
 -0.11240493103590708 -0.014715570458563925 0.21265224836883193 -0.8917900947780039 0.07079628186824936 0.011627746015527109 0.027695862077730643 -0.014213061684330681
23456650000.0 -0.0039435430521636795 -0.01212487944067674 0.06940472609065029 0.04559060911884563 0.1996020685364051 -0.8802198633983831 -0.11950139752865795 -0.017905236822976057
 0.0689923825546614 0.046382703774880886 0.006667515543275686 -0.006991575716340904 -0.11308634117753605 -0.018849707039832204 0.20632321940657905 -0.8913379976474775
 0.19994424948715833 -0.8847454609787236 -0.11017875901803888 -0.019085046338852635 -0.0017303431103029047 -0.008662196468562547 0.07865207037581165 -0.00037136136107371917
 -0.11768270064673614 -0.01735016691342632 0.21511009487576138 -0.8868521916393958 0.07086340989468863 -0.0012066645509986216 0.0280792260112299 -0.03253208224188908
23526640000.0 0.0005451244085533578 -0.011839453154536576 0.06848164814366503 0.04644086790534228 0.20170278302183725 -0.8844079836465237 -0.11986128404075776 -0.016607180919870467
 0.0688813900474459 0.046312448970130544 0.008228282667217843 -0.005610187052407378 -0.11608598531378622 -0.01494324590411969 0.1986338572346369 -0.8901034405330761
 0.20439817144934927 -0.889810529151595 -0.11582403304130787 -0.01414630619017762 0.015462607334188921 -0.026315278350323764 0.07476529569084858 0.010578199855132147
 -0.12044139669305222 -0.016746907391521113 0.2050338303325863 -0.8904250999458518 0.06290841429898823 0.021176765452116025 0.024554403809744375 0.026986385097997705
23596630000.0 -0.0015672988013909338 -0.013300407914955426 0.06900630908779033 0.04563190905370484 0.19626017155425862 -0.883282714526907 -0.11783693310619453 -0.013139024660236741
 0.06841869067680584 0.04572839673491998 0.012629296740619392 -0.007281280343180717 -0.11639416287900338 -0.01630178941467654 0.19789157432508966 -0.8923371256366956
 0.19737353681067796 -0.8818019250922191 -0.1177563574737784 -0.01105847389910957 0.014975700069632482 -0.003044469875263796 0.07387424005301539 0.016779178430151677
 -0.11887052143433627 -0.01635933255043402 0.20934753765459801 -0.8935959794363098 0.08264175481927993 0.009321054976931774 0.037999911575588415 -0.008920104072410777
23666620000.0 -0.0030894365328363784 -0.01130113709693813 0.06752054330403891 0.045868482954528236 0.19507620161283287 -0.8866479526859008 -0.11937510364021775 -0.015099633676089469
 0.06877959992710282 0.04590913342988076 0.011567760402456143 -0.007860240681596886 -0.11791712598111262 -0.013508139607711777 0.19453673694572055 -0.8936654732706557
 0.1969653874741666 -0.8897018904619066 -0.1217514447350783 -0.017633593054103 0.041966318949058605 0.01103397680821073 0.07674709077513035 0.017196346577252487
 -0.11460418314291239 -0.019563919446644217 0.1970981849408994 -0.8977822612206315 0.10160893295430032 0.02092659593899734 0.008857719807858135 0.013636581488667844
23736610000.0 0.0005824573999564421 -0.011060024586028505 0.0671451274279114 0.044948709776671744 0.19227799103935028 -0.8827673149792428 -0.11856766245743426 -0.01633262340127961
 0.06681805347423445 0.044663401482721174 0.008824328317949283 -0.004472006668832917 -0.11862697532107194 -0.016104357798294753 0.19133102507569388 -0.8949941909501291
 0.19667107054443544 -0.8834046139972933 -0.12123432242082686 -0.019908071724166494 0.030788200644284735 0.011842182501639273 0.07841770597985838 0.0054041967802965895
 -0.11698310960717803 -0.01967618111585104 0.19950350584584084 -0.8949777109402305 0.07923676403148198 0.009187988940973927 0.014724210250394248 0.004147921494331702
23806600000.0 -0.003638302931532603 -0.013378996497225473 0.06769070735617828 0.04506043143895304 0.18670646443615088 -0.8841080335058915 -0.11879923372629231 -0.01608318935433786
 0.06770912436354747 0.04421908728666217 0.01208664562835461 -0.005249903141365029 -0.11970705470925085 -0.01469011924969177 0.19008737761359631 -0.892396643122673
 0.183774880648374 -0.8873084880017232 -0.11818829622373153 -0.012788225672237823 0.008510552675580006 -0.0006915881998805392 0.07379481384280007 0.0175562338081055
 -0.11999871678374657 -0.01287352169466103 0.19615577813153365 -0.8968596367783002 0.06533822807882202 0.010564600296454334 0.03922035411496639 0.009889787684076373
23876590000.0 -0.0030111795300185344 -0.00810500006535845 0.06677110661436723 0.04552954960101832 0.18040418652434373 -0.8848886332589817 -0.11928500975163503 -0.012334902453843284
 0.06745763304711648 0.04432444542874242 0.007545778788836902 -0.006977469028683617 -0.12056115355959761 -0.01414945472295228 0.1810100436626524 -0.896163803681716
 0.18236325519388005 -0.8858406253771057 -0.11887085144704017 -0.009072112220325123 0.01461862154011148 0.005071877223578919 0.08223970276927305 0.017046741857960287
 -0.11861961062915678 -0.015421365964850515 0.18403910998261233 -0.8945907129446509 0.0746452428846097 0.01875634801585236 0.017277964466646537 0.016473663217610283
23946580000.0 2.9322660889718526e-05 -0.012098087587102997 0.06672203411693388 0.04458493301942216 0.17824681129611616 -0.8864183881897814 -0.11973901323584195 -0.011531875758640198
 0.0675118479202457 0.04441665624082996 0.008027774259723846 -0.0017101009553790111 -0.11892846193338474 -0.01280972640675067 0.17871648157354075 -0.89398665713265
 0.18216245956107902 -0.8934166287065681 -0.12020133614630629 -0.01542373501492843 0.014209072364129688 -0.015040047330498851 0.08133859373072269 0.01675588286601927
 -0.12324669426736774 -0.012841539266000243 0.1810540766852724 -0.8983343738887146 0.061825807735908365 0.018740844232911447 0.011660635543475335 0.004322444072232661
24016570000.0 -0.0032128197624175406 -0.012692096232783912 0.0669262938328697 0.044632821337139764 0.17533625180789278 -0.888130460080206 -0.11809475357754182 -0.010218977127140975
 0.06636799531478105 0.044971465935144755 0.009713600587402291 -0.005436372863520988 -0.1195609957172669 -0.013768974314215221 0.17768214580747752 -0.8938726264524017
 0.177006946590925 -0.8831016044318214 -0.11645279587114332 -0.018413060130289295 0.015512714296447551 0.006723165807131543 0.07314401427003865 0.021853685604956586
 -0.12083318655713868 -0.011743049083112848 0.18252649591535736 -0.8937659997243796 0.0668329387352548 0.010013693198799196 0.01680378661179921 -0.01612430432674722
24086560000.0 -0.002509745208932033 -0.006980985256964591 0.06588473424218193 0.044530887658466654 0.17346256990168235 -0.8864750157105952 -0.12136011475980389 -0.01292338244804247
 0.06636019743539562 0.044471946821487876 0.006037939306755902 -0.008476520782267927 -0.1201713749738376 -0.012631368690382777 0.16978929613122043 -0.8964745219331475
 0.1717694292500114 -0.8887160264381845 -0.12031707556820698 -0.015301997457689244 0.024914055597174776 0.010287970219018226 0.0643344530421897 0.00464674824491026
 -0.121399325777266 -0.010060625128520025 0.17519513357631256 -0.8997454968007262 0.06131050629898923 0.008101805234384496 0.021550685291656994 -0.0005967103043930431
24156550000.0 -0.0010300665121897856 -0.010744053753676826 0.06622863831085601 0.044805878758750736 0.16506900300095972 -0.8896412718876007 -0.12178953931966918 -0.013180468477853757
 0.06634213611711355 0.043977972181067505 0.009037877578131025 -0.003808690207683236 -0.11833106610504378 -0.011234965159794856 0.16678575415820907 -0.9001724691211013
 0.16393974976296743 -0.8920781354132661 -0.11959222020813885 -0.009991993178579453 -0.004882697226360695 -0.01325628717056752 0.06971639733057614 0.014756957811464747
 -0.12024871589820557 -0.014597266270286022 0.1698636394578969 -0.9005319811452097 0.06971918679579373 0.002028179469972665 0.03352748606117478 -0.028618767346871327
24226540000.0 -0.005160897732793009 -0.01374279819317228 0.06530411935856645 0.04507448840730314 0.16422358653281896 -0.8907695412925034 -0.12291627885904878 -0.01206200981992834
 0.06594227147855583 0.04403967854837918 0.009217025070530481 -0.009883243464378027 -0.1189380037389744 -0.011757969194265633 0.16254722520330217 -0.9026916695973313
 0.1690145334532282 -0.8896904922254301 -0.11649521840685775 -0.01514600738839202 0.0005569956660727109 -0.04195089426141964 0.06544509881091679 0.016831755963168767
 -0.12224383597688349 -0.015141132263853383 0.17322022352378863 -0.8993803801596724 0.06702799758036317 0.012038683493364994 0.005238808508955037 0.024091639532703078
24296530000.0 -0.0018253856488101505 -0.007012881302784376 0.06417825424725743 0.04432873485981288 0.16380009733618722 -0.8894806947523067 -0.1214397393164798 -0.010465291845784533
 0.0655055987361526 0.04355094125109489 0.0070845873408599816 -0.009038193655770297 -0.12213603052479176 -0.01385043453860699 0.1563954992493342 -0.8950976010602865
 0.1644779427939804 -0.8899754665905147 -0.12098572439088481 -0.01058679432108939 0.01812382294066878 0.0032214034134212016 0.06266312102233232 0.004051789782282473
 -0.12037460066117633 -0.012932760523791411 0.1671976930987171 -0.8963188297563135 0.07596718926718216 -0.0033143614936236914 0.023983850324950075 0.0258546807351621
24366520000.0 -0.001034884734357518 -0.010204033238430683 0.06449170587795999 0.04409476951634519 0.15819547365664144 -0.885444713111588 -0.1245523412619799 -0.011210664966737519
 0.06487243116251876 0.04398476327239556 0.009365854783480084 -0.0019679049244042115 -0.12112221920197369 -0.009897618678411789 0.15718001733499948 -0.8989666768140266
 0.15301567268579916 -0.8901655106489115 -0.12160902689075577 -0.006587173824089179 0.0015288953934621584 -0.009742917173093866 0.0554304417319941 0.0010945958412004568
 -0.12488685362126717 -0.009641093606665551 0.15732974712458345 -0.8940185814379259 0.06727589819020319 0.004188330214228604 -0.002619693984822606 0.0047250027720865005
24436510000.0 -0.005773058071471277 -0.012426083787210856 0.06431637264418709 0.04338151647935019 0.1546777452873362 -0.8896276227485728 -0.12158734270154063 -0.010002494928322838
 0.06433481213856666 0.043824066816231674 0.009628768996607404 -0.0049706466169767965 -0.12221387278341465 -0.00852287738730626 0.1526111249141818 -0.9013478080019446
 0.15433854257943763 -0.8873949596369781 -0.11889359003086868 -0.014834688953317068 0.02885162899156632 0.021576920599284306 0.07624192153205371 0.007287048412609085
 -0.12085402992898078 -0.011831740078057386 0.1526998438482419 -0.902402858987831 0.06065284117358448 0.022273807491392468 -0.008769560659049968 -0.02365744746746843
24506500000.0 -0.002958699046302326 -0.0072417595415412385 0.06372090856144341 0.04436593816272875 0.15142619267874083 -0.8872811052454285 -0.12519433670979085 -0.0077583264407532024
 0.06382123310618155 0.043753520094408305 0.0055677343139524755 -0.005215124400697472 -0.12204830114457517 -0.01253281328891756 0.15113516208406086 -0.9003667077039902
 0.15577074324384774 -0.8917046029196712 -0.12263951948355382 -0.015872158003949793 0.0018867095518969783 0.011483441533434202 0.06967045991896782 -0.005385872973786726
 -0.12098237686280074 -0.009466281413917761 0.1542783830111947 -0.8973715301060485 0.07170288236214424 0.013211278352343115 0.01844067981939741 -0.0033801899007397324
24576490000.0 -0.0005414792748549316 -0.010904587280401098 0.06305219552787952 0.04324372057694405 0.14870477369690424 -0.8908682189102992 -0.12459049857997176 -0.009183460337719863
 0.06338531164267461 0.04367355362800485 0.008971899104861574 -0.001222026518894086 -0.1255951331117474 -0.010344778844152006 0.14787659915257323 -0.9018471218717365
 0.14978115341568643 -0.89178746944397 -0.12219807202307365 -0.014642408248077833 0.00898720745802726 0.015906042189366778 0.07244535101172121 -0.00021870400156848946
 -0.12316603190849587 -0.006826535968892474 0.15585735988516597 -0.9066675859809852 0.07404827136661941 0.0130098028017516 0.04092505724228857 -0.021107025165818742
24646480000.0 -0.006105238946798084 -0.012328300797562903 0.06356180285961238 0.043936019500698115 0.14468932476293672 -0.892151948744489 -0.12617384128055062 -0.0055163704794943605
 0.062481055701236694 0.04333294068604995 0.008765088516285286 -0.0068302827517336216 -0.12248705514298948 -0.007521670871529872 0.14488931039632888 -0.8955966836905935
 0.14174453264509773 -0.8942922123560999 -0.11700326628454007 -0.00980467980628015 0.010336413612608595 -0.016190881641227138 0.06566594648516062 0.02209704217261056
 -0.12502596026472929 -0.010002030132732596 0.14682121677270524 -0.9013048835016177 0.05759954983039475 0.0051138239731687496 0.0009148979646040686 -0.012568513560066228
24716470000.0 -0.0019703776520629624 -0.0059191378730427315 0.0630152256315301 0.04274699383999729 0.14196405988214467 -0.8909697407090416 -0.12307697666584241 -0.008711510800929755
 0.06245317924911568 0.043279457409837394 0.004159250799854376 -0.006502413973024479 -0.12340490507208703 -0.011516794181814605 0.139779746092512 -0.9012553728717084
 0.14149554112676238 -0.893039831142075 -0.12023858724175863 -0.0069131214662382645 0.024499806877037424 -0.004681503467544032 0.0561537322369483 0.02011128776030921
 -0.1262569264433591 -0.00915320888341202 0.14310108024277893 -0.907718411507072 0.0683502041467475 -0.0005325888721393285 0.013841309839262137 -0.015432508486913068
24786460000.0 -0.002449644078340735 -0.011078633938390694 0.06202709300838005 0.04351011605435769 0.1364357250766354 -0.8935378067024489 -0.12222998954049998 -0.006747479368572305
 0.06250720534007695 0.0426029261684501 0.008786553632169522 -0.0029911560435654885 -0.12260082437299508 -0.006929579488984717 0.13678426780965272 -0.9037823574970987
 0.13466378700298265 -0.8916036501595497 -0.12503852142883065 -0.008088069928188413 0.01196542931443753 0.003948130851429573 0.06607793389815171 0.022766841866192288
 -0.12162808315482233 -0.009126261906081885 0.13591513726798518 -0.9010048073039281 0.057710171109306145 0.017794350505016866 0.0006530397749045974 0.016995703364359283
24856450000.0 -0.008160683254494167 -0.008942227479361497 0.06157826370142037 0.0432495476052333 0.13449229906514842 -0.8903798357858347 -0.1243089599644535 -0.01008508118833699
 0.06167890105785035 0.04232746004236075 0.010981549190759395 -0.005308636279004337 -0.12252648950228548 -0.0077945953171118035 0.13313587036826846 -0.9038406918543649
 0.13071401353344575 -0.8908649650892959 -0.12339146582431884 -0.005502397469202472 0.015308441190519762 0.00238262808957855 0.07920015333416058 0.012468796044610417
 -0.12526744182599076 -0.006777883208000801 0.13306836276336148 -0.8999350891337592 0.06202556443741363 0.005581448962779552 0.002371190153466547 -0.011899632322625508
24926440000.0 -0.00295639448412699 -0.005588586140745536 0.06037642598691842 0.042429091209322894 0.13067774641794197 -0.8945479455432164 -0.1253130278671278 -0.00921780610388354
 0.0613436523704778 0.04186221475987065 0.008706344684374975 -0.002342816767407148 -0.12388157751929782 -0.006744966945972601 0.12855262294870085 -0.8985299875621938
 0.13216980042371368 -0.8951829514440722 -0.12116692128018569 -0.00923373293090328 0.0158855405167683 -0.004136052607190323 0.045589560009240394 0.012188314508283527
 -0.12207359193133727 -0.00703401616137998 0.14066900946155192 -0.897396861296347 0.06379355146629469 0.0139965339359166 0.0072195590676829655 0.012590433334436213
24996430000.0 -0.0017246806206898302 -0.010978164050370168 0.06126470038434366 0.041902923795169564 0.1238168112363292 -0.8942508283350205 -0.12610035649702217 -0.006406062034444713
 0.0615379083204957 0.04249264129720699 0.012427575438352259 -0.0005498034214898762 -0.12697522537926365 -0.007582638365428598 0.12282736398872263 -0.9022284933799751
 0.12562764444527103 -0.8968911835522517 -0.12114510424025816 -0.0071073831289897495 0.014791550009832405 -0.007063492868402452 0.06398578185382117 0.015360351491266374
 -0.12557876017088035 -0.010260465373630226 0.13451388178281024 -0.900644800197439 0.06739725279382072 0.0034774157842052678 0.0005426076538950087 0.011742683161781009
25066420000.0 -0.006854121641652903 -0.007304465641952207 0.06051914952717769 0.042132137000343524 0.12373127307038184 -0.8944212885009468 -0.1276270097351174 -0.008578780923569646
 0.061141500170414705 0.04212498011503856 0.008445495500719845 -0.005001279620939048 -0.1259289253169711 -0.00530484717171047 0.11994880804263958 -0.9063206390998426
 0.12346491083682005 -0.8918009294840106 -0.12157013800589274 -0.010145497990298237 0.03709226382782442 0.00305302482892074 0.06476350278581376 0.008324895737087886
 -0.12730666068489993 -0.007995625855301978 0.12484199966294476 -0.9019888481063465 0.06130482692280217 0.011492998907327549 -0.002616076662501996 -0.001455724807272917
25136410000.0 -0.002783989393509266 -0.006670640349103879 0.06013747443135659 0.04218629755922461 0.1200702498177089 -0.8918190795421176 -0.12655952416274255 -0.0063831044612154995
 0.06077349401635118 0.041904790213632456 0.005374948865760214 -0.00517039654492472 -0.12477715986673514 -0.0074894045310766755 0.11519625690002275 -0.9009741853970402
 0.11998641005313239 -0.8968300019633991 -0.1260499120636934 -0.006487538028038989 0.00601299755918728 -0.01038527689969002 0.07711529806866253 0.0170324757382859
 -0.12212289496753126 -0.0036360428900621897 0.12327884373341577 -0.9029342959573237 0.06914905381706907 0.007275676404147472 0.024240067848324172 -0.022663266929328844
25206400000.0 -0.0024288221715431167 -0.01067411536812016 0.06004065158615854 0.04174281537315927 0.11420006444805907 -0.893528616990455 -0.12785049455350048 -0.005732317646042605
 0.05953467182724954 0.04240956845922541 0.007975433091096398 -0.004010665123038242 -0.12593037153909914 -0.005665166879620622 0.11725808145514624 -0.902088956387161
 0.11751695251749587 -0.8982541017396151 -0.1234963285056652 -0.002772979475704628 0.037850443194277286 -0.01815354693365042 0.06855584852080121 -0.011809638069613274
 -0.12754260873491224 -0.004369418239225835 0.12500193299307474 -0.9087355120532684 0.07179009664400517 0.013860773324703894 0.02015847990188331 -0.01129584113321965
25276390000.0 -0.006227082941678189 -0.008304527786542127 0.05944358874508649 0.041886352154812796 0.11068208653557979 -0.8936415483307668 -0.12689603747603231 -0.005820906636575677
 0.05876033092438661 0.042044861626619565 0.00900879549870429 -0.006417739892567993 -0.12798648809555155 -0.004232778918522034 0.11336440671624873 -0.9031874441716482
 0.11530274720712405 -0.8918717578481217 -0.12454530298071194 -0.007964273877502231 0.011878535349327693 0.005969008648474025 0.07156616936847479 -0.0036746104637572614
 -0.1285200407020908 -0.004638271154479263 0.11753636740025579 -0.9123709020385791 0.07845013218336913 0.005025629186043282 -0.0020561191664370503 0.014797486107813979
25346380000.0 -0.003049866246569704 -0.00686109843655855 0.058319000931265776 0.0416584463619204 0.1096556276271492 -0.894970338940252 -0.1257894747215227 -0.0068724071120611786
 0.05867342916001829 0.042055960477506975 0.007738465039878943 -0.005760692426482726 -0.12732568945238942 -0.006258228683375478 0.11086221735634896 -0.9058776840801789
 0.11105478355438514 -0.8969869332630004 -0.12543464318085545 -0.004131946864217615 -0.01605574017995629 -0.01952773941418133 0.05830412799215828 0.016251725177950958
 -0.1259558017040793 -0.0027743182905271904 0.11511514185735287 -0.9042599534455155 0.0661310348026183 0.005638133643590182 0.0032661484421554533 -0.009267781423795871
25416370000.0 -0.0034164442701148288 -0.008976763877758373 0.05777783825325578 0.04155559863587388 0.10560971970816321 -0.8958012445060117 -0.12790326247704367 -0.006718795300159922
 0.05801138548828141 0.04143866453229979 0.010449565372667008 -0.004051373707685736 -0.12898321998656231 -0.005001704385549179 0.10475044531310466 -0.9034685223570377
 0.10657956769664377 -0.8970816020991134 -0.12777165308020907 -0.003921857304508197 0.02887472496889377 0.0012865157807270588 0.05392446990923951 0.015903760237810916
 -0.1277249911756217 -0.0046499798500552764 0.10952869664046673 -0.9061213618084697 0.06513762606349739 0.01340116726312036 0.010683202086225169 0.0031155485871589422
25486360000.0 -0.0065699567137116645 -0.008614222527644738 0.056978525105741834 0.04137054056510866 0.10267921697781866 -0.8965140132491191 -0.1299983092424368 -0.005290131452860904
 0.05770244435236943 0.04142919960945649 0.008795816772617622 -0.006768612702148113 -0.12765792751554558 -0.003548416495157437 0.10058881296120137 -0.9040201147239199
 0.10582888542199614 -0.8958502746146706 -0.13013938410837775 -0.00239860135275529 0.007489297131660633 -0.00712687082422877 0.07497672538437197 0.007388514885327079
 -0.12999504346781224 -0.005117063040448628 0.10418279456287244 -0.9125837574892783 0.057984778178884366 -0.0009517954740543346 0.011240263762334184 -0.008392186114930261
25556350000.0 -0.00495961919689111 -0.0065314527942774885 0.056264020005907314 0.04201051269764535 0.10008719854610185 -0.8961122035656605 -0.12791256633687192 -0.00384663232489319
 0.056916092480252506 0.041773127017709064 0.0067994217631902765 -0.0026379622205011818 -0.12815007422137628 0.0004466589628459028 0.09730264332819119 -0.9016317772663679
 0.09979282759298182 -0.897531967788844 -0.12430168156735859 0.0014609907998900747 0.017674356017824765 -0.0099881932132913 0.064504734061313 -0.010447974759055055
 -0.12612901725097475 -0.004092454997067604 0.10380356007330532 -0.9036187636377655 0.05878532657885232 -0.0010097954479948335 0.004889787406371976 -0.007679231784318538
25626340000.0 -0.005132694542496868 -0.009130963091410297 0.05666534089287741 0.041837943607095154 0.0941675926093804 -0.8977323144144235 -0.12832748723325607 -0.0020481895645559148
 0.056746087455505696 0.04132217173473119 0.006726196857585009 -0.0031131562192577484 -0.12790790392729942 -0.001727770317050504 0.09382431256396903 -0.905208822735153
 0.09440768944479683 -0.9000409233230876 -0.12770695553749917 -0.0011610695682764682 0.015243391630905292 -0.01073461662646085 0.05364584371109214 0.020323596316898545
 -0.1289461124160452 -0.0037261208501358856 0.09982787272631977 -0.9056482890333754 0.057705377292478786 0.0074229222247030515 -0.007169172319953705 -0.014440558584889122
25696330000.0 -0.0064636566223596125 -0.009703323493389603 0.05594550390537135 0.040978886773498084 0.09102295272491374 -0.8946800201644841 -0.13207098629861427 -0.004181647409219162
 0.055472068400650665 0.041118173565129826 0.006824581280329464 -0.005033984864898051 -0.12764145923379053 -0.0004099099346771342 0.09173815980335658 -0.9084898741953009
 0.09789406439528307 -0.898391842819691 -0.13048006093935094 -0.0015039999297615106 0.005826868893008503 -0.028579638253677753 0.04372183280437717 0.0185573400064329
 -0.12936131888281932 -0.00039895115677526766 0.09289807559602822 -0.9040575675303195 0.06873426940362706 -0.010946313955336835 0.016298766651475696 0.0267254701065413
25766320000.0 -0.005883075633774107 -0.00719362918378463 0.055305235682659354 0.04148350038962205 0.08837944026019665 -0.8960136710335717 -0.1302399621997564 -0.0018272506441410832
 0.05530633266257283 0.04087548258416533 0.005769335433608139 -0.005610067203591791 -0.12733408887456182 -0.0014281735446791178 0.08545311295285019 -0.9054061540960058
 0.08672823959964823 -0.8953915128996532 -0.12794433013624748 -0.0029249114206605694 -0.008516473676228003 0.003999871241825337 0.06151053935641844 0.006175009001834272
 -0.13125085439180736 -0.0008384294013613678 0.08564886521960495 -0.9057700065395344 0.06572712463979488 0.004569163940538394 0.009726772610122883 0.02056894148119823
25836310000.0 -0.004811107254792994 -0.008888425089270116 0.05484086031389273 0.04139617247673129 0.08584630113016664 -0.8938666388482596 -0.13218110402590247 -0.0007571641959834534
 0.05449430345459311 0.04081592040441064 0.0065909739848091465 -0.004736018511281258 -0.13120301877775845 -0.00046027674609872926 0.08174946634226034 -0.906831929745377
 0.08267551283404019 -0.8971270259440319 -0.12938016592048052 -0.001978935993830841 0.015396703898090495 0.016811635201932587 0.04839652057314748 0.005788466862381278
 -0.12681621914601812 0.002444959612294078 0.0852470989067125 -0.9058021840012029 0.06359687083960484 0.0108386173414297 -0.013734057757402331 0.0051572598368843005
25906300000.0 -0.008497934097812175 -0.00996014696935431 0.053917916234748585 0.041434754415788914 0.07800979405732886 -0.8947315185678614 -0.13288050879861107 0.0019069791054762782
 0.05441123201097593 0.041146681917878666 0.00594752792386607 -0.00406588369038334 -0.12883403075297134 0.00026308399463359446 0.07714612831143801 -0.9076358459938071
 0.07860760351839591 -0.8975724325516473 -0.1314441364739484 0.00375651787147304 0.023999534873430393 0.025403120074169415 0.04971007719354337 0.010768715807521985
 -0.12981736749803768 -0.0003054223814588015 0.08279465020117244 -0.9031599278424414 0.06261785024175506 0.006796005527000346 0.016815882557577582 -0.002320982416983495
25976290000.0 -0.008501279546119287 -0.005724044687201652 0.05409372005211254 0.040897566808244405 0.08044471472850617 -0.8971738754725685 -0.13086529723140938 -0.0012870925801826334
 0.054512026085269796 0.04138646289316917 0.0073277799080207475 -0.005001945349418796 -0.13103156024166404 -8.32443414680507e-05 0.06924550992679324 -0.9038729622948196
 0.0756643349874599 -0.8935453877305917 -0.1289333026796258 0.002820539103914919 0.022470232475142012 -0.014724325458282998 0.04997040823469391 0.014810808248065235
 -0.12891507265142352 -0.0029124356033697414 0.07635176525489172 -0.9057850009847375 0.04337455101600421 0.014658739785618083 0.005764274964213335 0.022013616467182594
26046280000.0 -0.007103697870180457 -0.007086213018342047 0.053220049873718825 0.04157724788038485 0.07225537672958954 -0.8986050857008723 -0.13111944252172256 0.0005561005687114526
 0.053253272828547006 0.04144224345558705 0.004219196762463751 -0.003298767831497853 -0.13055205773260367 -0.001095103182971473 0.07523437964485026 -0.9070075687871093
 0.07370961231640755 -0.8983021313369144 -0.12729397391737868 -0.003158570905056482 0.01936689164440162 0.006759068958296752 0.066050548725732 -0.007433487627569672
 -0.13148893815485097 0.0016997086384873518 0.07542982835166435 -0.9121174871363514 0.060483951751484605 0.009856927106322565 0.03752900036223163 0.01721512826722296
26116270000.0 -0.00984259090545866 -0.009750941832620857 0.052302932947372295 0.04209536935174187 0.06979696889613395 -0.896083730324249 -0.13356224110122838 0.0018752607443676596
 0.052982697770990336 0.0414185267911664 0.006011191018424793 -0.0029376872661899993 -0.13068307696593004 -0.0016146958558203397 0.06995968171975338 -0.908446487911284
 0.07187036391178678 -0.8963860560819947 -0.1275917261904559 -0.00047321751033367626 0.008646914183961886 -0.004173913175864729 0.052328357674981014 0.0067023199842484405
 -0.1306473215500074 -0.0016103770940978283 0.0717774726401809 -0.9093893730940276 0.05608496455322242 -0.007945073254893723 0.009447825659852093 -0.0007552279252728295
26186260000.0 -0.00984367751276496 -0.006129414350713181 0.05251764918305467 0.041322758396509854 0.06593253968840332 -0.8972921861768024 -0.13247387967244995 0.0034735780088794633
 0.05198457714625657 0.04160791950963175 0.004770068598257143 -0.004551712107247217 -0.13261762805264402 0.0012962252587357165 0.06265741932567692 -0.9071016414998352
 0.06505666358248713 -0.8982786500031893 -0.12935612251333822 2.9124204658627276e-05 0.01414810513807726 -0.005701286027798675 0.03631686863893745 0.006816404026191363
 -0.12888862563218442 0.0034263924528920727 0.07300225418804566 -0.9049301666300789 0.04527540902291699 -0.002821392818244318 -0.007329122806254414 -0.03155939745035752
26256250000.0 -0.006256177025613761 -0.005453343768921031 0.051625457455101824 0.041323189093258 0.06338033392216956 -0.8954827741597512 -0.13246237297365646 0.0006945024885100896
 0.051679867873000086 0.041588092182392025 0.0015358666968817974 -0.002738169883624388 -0.12968485469757027 0.0015679527651865654 0.058906909084720696 -0.9064346468523589
 0.06090394320078554 -0.8986270351795329 -0.1278996385084403 0.00424152715640675 0.005498731633126375 0.011354340319788067 0.05397805142409628 0.006036371672098459
 -0.1337859349000911 -0.0024538984450114382 0.06702864990130798 -0.9122747779738927 0.0528430413934555 0.002086233837318554 0.01202200742713329 0.008193615676554513
26326240000.0 -0.010300997421932205 -0.008428777082636648 0.05163153025293822 0.042055536397079686 0.06034150821828988 -0.8937132090392382 -0.13115681017528655 0.002071366311774767
 0.051620979878269344 0.04158526914841403 0.003286153462233937 -0.00038502319289680065 -0.13069507126700025 0.002878249603342365 0.05571367457350179 -0.9049745072635519
 0.062053284551373926 -0.9023783171966216 -0.12992742614940767 0.00030091920250910196 0.0015874722209664792 -0.040674946646505346 0.042737909860566005 0.018300550355550428
 -0.13193723636320373 -0.0009855907016586144 0.06846103993824328 -0.9105366817621949 0.04441364770403007 0.005008977820703006 0.007275086087543883 -0.013158585111193694
26396230000.0 -0.010658735474511396 -0.0023104594889215993 0.051001874821984344 0.04096102955231565 0.05499193474681516 -0.8984462499553327 -0.13318139848703414 0.0017718032853781469
 0.05087214787826867 0.04100279841593982 0.006282478099545488 -0.007210380368521676 -0.1313434753399562 0.0011620357608567214 0.054536602864009534 -0.905109390740234
 0.04988549838982902 -0.8994809781624655 -0.12892072128217505 -0.004731363860829767 -0.010713897706055145 -0.0012686421984668564 0.03278465834412612 -0.007822163162425606
 -0.13466719664888527 0.003470642905881734 0.05928364396383999 -0.9045057148105443 0.05802112319181704 -0.002617159757873978 0.031501311075130656 0.01495508579216853
26466220000.0 -0.006859319618473372 -0.004860732144039869 0.050239829131092366 0.04156752529572615 0.05104707248181012 -0.8966477504272046 -0.13517449777320525 0.0028385829185554193
 0.050172102570275594 0.04071577995866414 0.0015515788338286657 -0.0012407520507892434 -0.13321257972701495 0.0018584915628327128 0.051923405421747344 -0.9071912196479992
 0.04407374311316668 -0.8950919696265605 -0.13302534441434746 0.006748316796841814 -0.022397706408569782 -0.024038274784452227 0.04159422450733713 -0.016847674276834545
 -0.13544218258791063 0.007552000600475774 0.05266588150633956 -0.9030498748100273 0.025504489695025456 0.006204583511433425 -0.0031650952555000076 -0.024974485302200446
26536210000.0 -0.01210025836820954 -0.007044101907523615 0.05042049687548418 0.04127122618272525 0.04929371916787194 -0.900596787549014 -0.13571410650304094 0.003753147486663441
 0.05018871158228772 0.04114375368558356 0.005001679223112705 0.0027830288823678566 -0.13200918846376047 0.003485602106084018 0.0463739262379169 -0.9049967247005766
 0.05010798956454627 -0.8897465876850501 -0.1274630494922929 0.0029804615483917103 0.03660261509698338 0.035412844503279105 0.06306733573041433 -0.0020885688755519828
 -0.1325376232618661 0.0038412480258872357 0.051120249268668684 -0.9027475033369643 0.05874817571921707 0.004547317881574316 -0.002971357147935026 0.025166884391692356
26606200000.0 -0.011828409511635059 -0.0015482095618360701 0.050543025323223634 0.041054861125327496 0.04306457907185141 -0.894908137254692 -0.13481453454351902 0.001847657904841577
 0.04959139033831757 0.04041632904474736 0.004675301555120208 -0.0034406611224858026 -0.13541101349129414 0.0070271554878978655 0.046338564883350516 -0.9064611335900544
 0.045123263370773395 -0.9018420488965863 -0.1386413618516972 0.006312398184998268 0.01822366342235269 -0.01868338448938398 0.03804218797626853 0.010786062664878662
 -0.13524685075857878 0.002149418778377192 0.053308711048143054 -0.9051810346063706 0.057135912393570513 0.019950124645755192 0.008217825370841538 -0.0027985490934638196
26676190000.0 -0.007285781226324677 -0.003678222303684834 0.04929114732725485 0.04143497683906596 0.0441028691269003 -0.8934580707963781 -0.1355354688891792 0.00644550865208778
 0.04936556987467848 0.04095835994772736 -0.0008965556661878157 0.0007595976843537786 -0.1337129607188119 0.006167519569252522 0.037811939118357965 -0.9033827598358116
 0.036674836461430965 -0.8995683565008787 -0.13180865095473968 0.00251566655963511 0.017103750686816015 0.023811586140076408 0.03660913236976331 -0.004032702248445695
 -0.13389573231830615 0.004308900027538123 0.037718637456388385 -0.9071558739735205 0.040996134475164384 -0.0016134749975718764 0.018177204032587033 -0.0024472971887095833
26746180000.0 -0.011686551320025518 -0.004752165591903939 0.04902792555154015 0.04115661133935034 0.04056918831753575 -0.9016643105206611 -0.13652050759764867 0.006828640456927972
 0.04891768490138108 0.04120861301734521 0.004319599945270957 0.003004333980115421 -0.13340003728929054 0.010412838184708867 0.03632256793974633 -0.9070850469673747
 0.03529737002956889 -0.8993623707785728 -0.13117934782082263 0.0024223495243466944 0.006755532445326321 -0.008249819278190232 0.0425635258277976 -0.004912867784981327
 -0.13459925135673317 0.005771289017746975 0.045972971364675125 -0.9042184439461375 0.054975804871203314 0.022123072966532396 0.0018319729984176475 -0.017765693606650843
26816170000.0 -0.010568026548108612 0.00011587415985874267 0.048253272210962685 0.040754892311460504 0.034463748705698995 -0.8986172650652968 -0.1354572802024031 0.0063531729257964575
 0.04886386756125635 0.04062893118958598 0.0020215208071195576 -0.0029815796225731153 -0.1331584365979413 0.0072840953324457966 0.033267264014866 -0.9040161911197148
 0.03060366579477091 -0.8981812733863148 -0.133969338418599 0.007726500236048395 -0.00479756375403748 -0.005435166922303526 0.04834084613649913 0.0014591387734804045
 -0.13756359068575394 0.005393105482631254 0.042135670620509026 -0.9026618006298059 0.05326326031277314 0.010548602529132776 0.03624590045815575 0.003847512078443059
26886160000.0 -0.006619813408229265 -0.002782060770747912 0.04875576689184216 0.041302654017883605 0.02988432381720994 -0.897476441776659 -0.13540925939028428 0.00657026393951182
 0.04812896172063082 0.04072593555025851 -0.00038031178469732896 0.001155535237451008 -0.13428862699320399 0.004393104289406732 0.027937664514923553 -0.910580295350796
 0.03361166209460033 -0.9003669551824227 -0.12899960904688879 0.01285313414954711 0.011285300715130111 -0.008828664722071286 0.06550152419587557 -0.007067727958024258
 -0.1362130022131097 0.009753116352026614 0.03243534956424925 -0.9190356717261682 0.029189468561546455 -0.004403392125173408 -0.007720437714103091 -0.009535341656520946
26956150000.0 -0.013373817093075887 -0.0035866308694121646 0.047308598889412766 0.04057193987290085 0.02594505597687661 -0.8957967137357681 -0.13840008952029217 0.008190240794915074
 0.04791968179467401 0.04020749180802705 0.0039603059555515475 0.0013257162720367924 -0.13453178938620053 0.008204277569506431 0.025482224092160013 -0.9075672488473052
 0.030328177029944108 -0.8964817555255779 -0.13462816798451835 0.008461358106707355 0.017415418496127957 0.03050802654142093 0.041265148801249464 0.008586950278976635
 -0.13521614204498494 0.006113643183357827 0.024822852824527165 -0.9093995323105891 0.0527344804216683 0.011768777657789721 0.016839387688201483 -0.02792795274589428
27026140000.0 -0.012664616850417884 0.000804024817470921 0.04658953055435056 0.0405191660654514 0.0234303900778843 -0.8987266907717547 -0.13755290793540126 0.006622299675356258
 0.047291125925450185 0.040888046865057176 -0.0013987310576421734 -0.0030784854380616375 -0.13811663337250557 0.00846693221044782 0.014032786797389084 -0.9084345774207033
 0.026324542322568714 -0.9021900808674892 -0.12917725122940754 0.007250173951310428 0.017735494369967908 0.002099095168181818 0.05856749144308183 -0.006773685853273581
 -0.13608346578318592 0.004876274969946573 0.019180397799446396 -0.8973731375208654 0.027437648142643153 -0.00012652535535384468 -0.005228844388246351 0.022600557875624164
27096130000.0 -0.00805000736152197 -0.0060174430642675435 0.046254121289701654 0.041636158173956335 0.02050645418766687 -0.8936820142685401 -0.1361949247455173 0.0065852741427899425
 0.046121188871695085 0.04071418939396193 -0.005094026473402208 0.002169855219982786 -0.13726903281600436 0.00908419178109999 0.01911084768716986 -0.908631004892819
 0.01811042678144118 -0.8972051782792239 -0.1356904994941801 0.009039432624142384 0.009576780306844172 -0.007136463539765256 0.05761702398616054 0.0038634916918027606
 -0.1366994271295065 0.007219379201099019 0.027057516451948163 -0.8980829047354252 0.042599929229527 -0.0038774962507534087 0.01921039676011943 -0.011387550655352428
27166120000.0 -0.014820205076232608 -0.002973098908873645 0.047055127138495086 0.04168416852592467 0.017093567662082337 -0.8986117868445931 -0.13953048807676582 0.010622382678825657
 0.04617195362560815 0.04055638499627233 0.003532790803679733 0.001025737443600912 -0.13483031973449713 0.0076911610604977615 0.01401334639632147 -0.9075145252773603
 0.025836311351622964 -0.8936536442183621 -0.13549077008592522 0.009341610155533525 0.008932473713084572 0.03533972007638371 0.04096188096008262 0.006763593296160534
 -0.13856103254671326 0.0065343724203705865 0.02197057666793331 -0.9168381791702422 0.03877964864679365 -0.01419003913754645 0.031781777933840495 0.00610937418452637
27236110000.0 -0.011691533440268026 -0.0004692534752325403 0.04519834701975316 0.04137096345643252 0.01187295446538388 -0.9012067139439985 -0.1374321797643308 0.008194102359275451
 0.04593768590869802 0.03982741474974798 -0.001155295933812214 -0.0012284293200865366 -0.13932140797611306 0.00976502677136815 0.008456202362968008 -0.9048626378806361
 0.01660745179794264 -0.8999772152850352 -0.134103135362866 0.007571254240920455 0.015685296547544414 -0.007330284679180798 0.05396065557993972 -0.011845429729483263
 -0.13459577142285903 0.0024609976875219473 0.017842157969474897 -0.9004268781109757 0.0252153680365396 0.0006373498814300995 -0.0008695092036403914 0.03834421643081077
27306100000.0 -0.01008944683678801 -0.00488044924690273 0.045044257765123226 0.04070735094265086 0.007910266149545321 -0.8980208126653123 -0.13733900832433146 0.009725086938638761
 0.04572406726147575 0.040724845660721216 -0.0004717425481581099 0.002432253348380815 -0.13511460297612018 0.010535284215054045 0.0068592305836160826 -0.9049818949293678
 0.011226286570121143 -0.9000384625921984 -0.13602078430037942 0.006632774922636889 -0.01194440415246892 -0.0009874448283834466 0.029177690095740814 -0.0020641879965365866
 -0.13433799263594254 0.00968037287247898 0.014645924397076493 -0.909983090933108 0.05282895296034648 -0.00638392651608122 0.0007611193149530664 -0.01152970692494414
27376090000.0 -0.01188352768446222 -0.0023917366906885526 0.04370792791625015 0.04165825225131538 0.008062840203655951 -0.8953989550811674 -0.1394513674442163 0.010761046981686787
 0.04466466537170705 0.04111616084345851 0.0039020098642210035 0.0007120205933611722 -0.1372013899145798 0.012968625019834083 0.002833094749584289 -0.9070904962159655
 0.009150508751244079 -0.8966893012233322 -0.1379440629718179 0.011308587425817914 0.012599710812276996 0.026762192455516347 0.01766144405965089 0.011234522665568358
 -0.13492932752027095 0.012664531766072316 0.005078870881734303 -0.9041317552944996 0.025505874287897457 0.00891020668863559 -0.03936139961109127 0.0008446415250678754
27446080000.0 -0.01266687971841052 -0.0010333503537011983 0.04381990364779976 0.040845737758079606 0.0010044253765507634 -0.903017592635961 -0.13812632549611092 0.012587981785235512
 0.044034247237111364 0.040426141274336906 -0.00031908765531584316 -0.0040819448423862715 -0.1376450826941185 0.007800629640881599 0.000600784564197625 -0.9106458976458224
 0.0040099969349134445 -0.8973378020916913 -0.13549434329953808 0.007592864368354487 -0.0028097535288582353 -0.0014260551554778316 0.0376203585851741 0.02116248587551957
 -0.1377094471338638 0.010112266366238855 0.01402805920539511 -0.9048969316539222 0.05138520994943977 -0.006410327402642935 0.040007369896689404 -0.0015133793334873495
27516070000.0 -0.01430979195110847 -0.004492372370475573 0.042944199427977725 0.04103501296015407 -0.0047684148768396455 -0.8976163137012526 -0.1407902195293389 0.01089723887512443
 0.04297463872261612 0.041580097564354025 -0.0007837500675818861 0.001910666663522502 -0.13988869165572082 0.010668806942278668 -0.0019118230992874697 -0.9094921406803038
 -0.0026942108191578933 -0.8957607123942075 -0.13664541935012525 0.008741869098388186 -0.010155386024867681 -0.006022948700550233 0.03855572125421914 -0.003862722118402857
 -0.13738891689965577 0.011823556415730479 -0.0026055389545158536 -0.9049828622865405 0.032208123108124494 0.0003791054147849203 -0.017852494382956073 0.021299242677491167
27586060000.0 -0.011998128951345603 8.721949111653777e-05 0.04283644386504009 0.041835524503096834 -0.002617503426509078 -0.8971195408296032 -0.13921580091435 0.01103255843155661
 0.043417982802596726 0.040902148300339274 0.0014787311785855299 0.0016052542706395468 -0.13884732351899348 0.015464055284104803 -0.005417170945116332 -0.9067142039230949
 -0.0026706643269806913 -0.900207939226352 -0.14338907691117195 0.014239342944646799 0.022991155733983335 0.0050187341761339325 0.033185932141708445 -0.022762566245840627
 -0.14245861182135738 0.011929032209862956 0.001720010883927627 -0.9094614882704914 0.025824092758471084 -0.003980340439958135 0.014960764191207822 -0.03241580774019369
27656050000.0 -0.012021258130357105 -0.0016383935239204514 0.04238607872100089 0.04090360549615621 -0.00895438728434649 -0.8988570129899685 -0.14283680535098253 0.011451980713316582
 0.04230693651930716 0.04096421018552457 -0.002908680967557314 0.0007836733235715925 -0.1393103985439111 0.013305853676677403 -0.012210664082525642 -0.907551898762752
 -0.011609450374482124 -0.8999385919813695 -0.13776691145838552 0.011544880997588275 0.009048740705260364 -0.004839317033168255 0.026416858935377204 -0.00741062113715032
 -0.13822726478026687 0.01110401923742695 -0.007589140712830138 -0.907510690604137 0.046765752375059824 -0.008325693499004885 -0.0056926906861400235 -0.02397986927251287
27726040000.0 -0.01571458635250295 -0.0026751920465891174 0.04163336359482712 0.04096420172996567 -0.01408699515835016 -0.8960152742722745 -0.13990722526941532 0.013590331214574449
 0.041762695112236015 0.04062254517625361 0.0020283618380087984 0.0004131593345373881 -0.13840537567589972 0.014931034752354713 -0.014926971678096411 -0.9051481910306511
 -0.008391392538272854 -0.8972740108114187 -0.13628974203592753 0.012392065747460598 -0.0018880408283752132 0.0021604625099274286 0.02672447372515814 0.024059952813085504
 -0.13867391939386126 0.012437309834909736 -0.01109450450009787 -0.9057489457124791 0.03211949599994686 -0.016254710940033355 -0.011381370400045315 0.00901067637750358
27796030000.0 -0.012777938628167076 -0.0005885563873959726 0.04165123755239622 0.04144342714421909 -0.02095781543278374 -0.9004692348202674 -0.1419139249454566 0.013784008222788526
 0.04026809411931176 0.04072854161883607 0.001913532471493126 0.0007531926521104308 -0.14149230885005826 0.013528706845558168 -0.021282777862512214 -0.908061147270578
 -0.013315900351328229 -0.8976748111962368 -0.14098300910441386 0.015532042959240135 0.03646454953738242 0.026183449579083307 0.05331810259180494 -0.01212434088591582
 -0.14171505001181073 0.017540784241001636 -0.014157578108988024 -0.9070819571734396 0.03224754045482172 -0.0006244279537359954 0.018725978561631135 -0.019349879853069275
27866020000.0 -0.014091284342885481 -0.0017474453384769956 0.04043317992013908 0.04113819405547226 -0.02254284017519431 -0.8947482145380995 -0.1389944476486161 0.015130557012673693
 0.04038400355748089 0.04060329370607874 -0.0015666094292911352 0.0021599211972829976 -0.13953449141201626 0.013900584673775798 -0.02017454919495657 -0.9032060066329988
 -0.02152834716067724 -0.8979192266861269 -0.13500058236710852 0.013792611100519585 -0.0006630770144607384 -0.032581350390969786 0.030662946788971735 0.010848815900980588
 -0.14213754613861654 0.01657988475601236 -0.018203284362422648 -0.9097217203824608 0.027911091178292814 -0.011350569038200262 0.015017692837954181 -0.01634503969472455
27936010000.0 -0.015767938131997034 0.0005244539110833392 0.039236811069766946 0.04131078453474985 -0.02311231167729935 -0.8959553722641943 -0.14199783919860715 0.013354737899308716
 0.03975357707676271 0.040362093238972226 0.0013519083464739114 1.8969809942154802e-05 -0.1406355185545554 0.016492509080053317 -0.023633749268886003 -0.907140787148521
 -0.020588576728952708 -0.8959450135978151 -0.13872085285474467 0.014971681295137595 0.0037071073423668144 -0.020092458978761735 0.04060161189525719 -0.005936107034279869
 -0.13718647664573871 0.013734625219604567 -0.02108294613280975 -0.9053564862809349 0.03508172800280087 -0.004751025769117043 0.04117342542670866 -0.005238178334234786
28006000000.0 -0.012328252342960293 -0.0018516215920251747 0.0394389440413399 0.0411828432882122 -0.025191196316226537 -0.8939210358293935 -0.13878300291011797 0.016562137299492945
 0.04002745431319816 0.041200997856140176 -0.002604970187125375 0.0007609866140846812 -0.14129951699244642 0.01645988446534821 -0.026711014952019312 -0.9037645693707661
 -0.02515943730259471 -0.8980094934830141 -0.13789821433938085 0.013833594714489202 0.005218562779040643 0.01692919719478013 0.03760696062542462 0.0047634871082336385
 -0.14055520308581895 0.016720883640461984 -0.01957028173708033 -0.9067032791695461 0.026278329050279953 -0.004052493350537961 -0.027211133475484584 -0.005750159554846426
28075990000.0 -0.01521212951998004 -0.002040947001827932 0.03910504532744445 0.041284117206515376 -0.031157254366627904 -0.8947657414903823 -0.14329608309919925 0.014092725566393122
 0.039293033303016284 0.04173863718881112 -0.00242100375987392 0.00417616505834163 -0.1404775435111571 0.018848774719319856 -0.029338542656610938 -0.8997822435126529
 -0.033512400194367596 -0.8975609164246365 -0.1330597693605696 0.017392449298372924 -0.016560054062613516 0.004480619612660925 0.04587054827793446 0.0022255597535458774
 -0.1410746675755648 0.015498032227695012 -0.036151743959908465 -0.9056459296929324 0.029806047886918964 0.0008561913143227611 0.00023017413568119586 0.019188333425379657
28145980000.0 -0.015397481314361628 0.0013698004965531899 0.037706667870005615 0.04145138083038237 -0.034772147286893644 -0.8952221165758674 -0.14039729466279793 0.016206281151699375
 0.03818308992173487 0.04192850476567511 -0.002068809579699892 -9.531905067986584e-05 -0.13977025081621086 0.018380752784613298 -0.035828347441651996 -0.9012227137383263
 -0.03948309873274901 -0.8952862698780637 -0.13715030637330433 0.018088569706991534 -0.005469270840950921 -0.04541685623287333 0.030602818080375266 0.0003999162753652796
 -0.13616014560338122 0.02014183496849794 -0.03598865767968543 -0.898115039414383 0.015514595919834435 0.001103123925157898 -0.023600510593817375 -0.00529683791300898
28215970000.0 -0.013491998983476703 -0.002188827844388891 0.03627843625593518 0.04214784961708405 -0.03725031176979231 -0.8920924269751194 -0.14110895969331416 0.01585833096510485
 0.036788476324035695 0.041316533928393503 -0.004193349127375616 0.0015048474025050496 -0.14177568259314005 0.017671659116407244 -0.039432733550465164 -0.9022330220779488
 -0.04189132235268228 -0.8968088654762058 -0.1464367258500024 0.013219591111966572 0.00683560193504472 0.000980136509309874 0.037228333425706146 -0.0014778154425960845
 -0.14156610402364908 0.021049853677799702 -0.03939031912469887 -0.9047521333335832 0.022552142327131115 -0.004649811588050796 -0.018395603000589462 -0.008931512341827173
28285960000.0 -0.01771284938040953 -0.0013194317586391736 0.03726155429516527 0.04163400532791664 -0.0394677593066276 -0.8952117762079191 -0.14002510731098516 0.01831632214897107
 0.0361524056697642 0.04173299122626108 -0.00018226644995150544 0.0025100769700320325 -0.1413501860788389 0.014853260657331292 -0.041074264481820236 -0.9036589231925224
 -0.04276917842730099 -0.8924387803094898 -0.13498471098074777 0.015407726644523377 0.007627514904542601 0.01732262471103053 0.03965441058526182 -0.0018020957878316442
 -0.1383337526392051 0.021358585527413848 -0.03241991107276359 -0.899290435777791 0.040216823153907115 0.0061131735792262915 -0.012530943398631764 0.014287695689441148
28355950000.0 -0.017509747709234677 0.0025332075534011443 0.03548877234687861 0.04288614969304575 -0.04117038002252917 -0.8924223758309963 -0.14269138055220748 0.01829538799703098
 0.03616105753096594 0.04173617794368605 0.00013973851113230907 -0.00015840895992659567 -0.14307128301271896 0.0219392401844257 -0.04305100238600494 -0.9020235728559748
 -0.044004765261337044 -0.8886421851271656 -0.14140725264281587 0.018399978842440913 0.041186760089970305 -0.012885410308902348 0.033267648794656324 -0.017278144341483666
 -0.1398397840073601 0.02002143854619282 -0.03449816153416636 -0.9007502116056786 0.03407927774846482 0.005175942916988957 0.028968790608933728 -0.01038133651542188
28425940000.0 -0.014851790990229239 -0.0022804432910757226 0.03504448564453194 0.04307648045419692 -0.04617604958450812 -0.8966339285510583 -0.14469459466904352 0.018897587495904283
 0.0351195754006498 0.04224592320369172 -0.004020888210299737 0.0028524402998113814 -0.14059015720951412 0.01966533349756923 -0.049312188809203975 -0.8994958053590254
 -0.03967978278413062 -0.8981754882540021 -0.14209169531687604 0.0183710237728164 0.001117412644625601 0.01976400667587867 0.03651055924377006 -0.0026847774102549426
 -0.14291470224395836 0.02013749795809256 -0.04691988980868373 -0.8986699787720688 0.008037015767532615 0.0019592890458412426 -0.0003642417338616881 -0.026159106351329963
28495930000.0 -0.019641319388771155 0.001239340822828161 0.0359092556877592 0.04244152850111895 -0.050988465262406316 -0.8936613126683521 -0.1449458377066623 0.02254139242652576
 0.03513886344113836 0.04210920627629375 -0.00166959370806731 0.008227997288934523 -0.14126915732517745 0.018586397461810202 -0.05219763026173358 -0.901457842517661
 -0.04889753391533269 -0.899929307822441 -0.14563719539541958 0.02082502019036975 0.007143775339938807 0.020770238282373035 0.03624331089313315 0.005461459339940532
 -0.14416479286568915 0.02175474920986527 -0.052298495571511165 -0.9059093782028637 0.026572197367253778 -0.005687359817957721 0.025146173550034727 -0.02905147578024581
28565920000.0 -0.014839518847058981 0.004033282094428877 0.03410053581605476 0.043181943948457306 -0.05486532614698162 -0.8932891646373784 -0.14408337408061042 0.02005832834748315
 0.034856494427127044 0.042551558916188156 -0.0027652351514145046 0.002021068213786922 -0.14264508634952247 0.020758563733696066 -0.057055602595222916 -0.9026367741192546
 -0.05876123767203779 -0.8917416420240796 -0.138824923986197 0.020354327031858466 -0.013886724812946262 0.007715543616557241 0.028098184967041168 -0.013144490503161545
 -0.1437867060725733 0.017299532783754023 -0.05163366124970457 -0.9010124874790912 0.038442883108327386 -0.008184310513865947 0.01541861669299644 0.013357437898681213
28635910000.0 -0.014329581637462912 -0.0015704074438178033 0.03376370142533055 0.042682636936875566 -0.06127071572848781 -0.8890552469991032 -0.14338366463316843 0.020598299063901593
 0.03322115375772285 0.04248688947369009 -0.0038027630572099146 0.005140921792297563 -0.14128939936304993 0.019691491313836598 -0.06222313128792906 -0.9010362749428864
 -0.05648966500912763 -0.8968733599538411 -0.14047357944961575 0.014216770316940438 -0.0031203549634294617 0.006857489635827841 0.02342108566304441 -0.005834383328502499
 -0.14560711810333168 0.026664017406629544 -0.06449882833825392 -0.9002875846291878 0.01964577588290896 -0.010691239072277802 0.012621013474288623 -0.002499778811305054
28705900000.0 -0.017802750540195346 0.0015559420801831395 0.032632462578197095 0.04256032716324663 -0.05762484535908416 -0.8903446120553726 -0.14613558764147172 0.022956349118989645
 0.03333303603263912 0.042311044517307564 -0.0014976525187927082 0.005280383439912377 -0.1413108647066111 0.02333989248713695 -0.0666066882061694 -0.9016478109991308
 -0.06461368402152808 -0.8903524890862367 -0.13875509026041974 0.023849964918797154 0.0020974705247201754 0.0028943001341437255 0.03507612600185028 -0.0005473945591022313
 -0.14306378959690338 0.022140030176832665 -0.05901487006049968 -0.9011448181175057 0.015979135367989176 -0.0021187920796001073 -0.016420135447939976 0.00743133637698308
28775890000.0 -0.015101143251635306 0.007332786322176645 0.03266850235994043 0.043021400845863866 -0.06097432840800231 -0.8903571429381307 -0.14497998819348148 0.021432569707535352
 0.03256572307707607 0.04274599093002868 -0.0040848481290882525 -0.0014369797077846674 -0.14471505256253503 0.019459518267460358 -0.06984164418279061 -0.8969767783622973
 -0.05976498575345826 -0.8888790055620023 -0.14517213296623466 0.021668663962910714 0.008803506800866641 -0.005179990555388003 0.04614822496625423 -0.003477418473584629
 -0.1437218542466414 0.02333398248419341 -0.0625121721735213 -0.9039432018969289 0.027102536386598694 -0.00512021516533866 0.01358082206877438 -0.010793257172028545
28845880000.0 -0.015488475179807797 0.00031418763688853297 0.031861496585522786 0.04235153704300224 -0.06802711511853461 -0.8936145976166607 -0.14849143965119702 0.023624746727295604
 0.0315786120844354 0.042276729910423846 -0.005875119673275077 0.004436165412676217 -0.1417705579793243 0.024529819790968493 -0.07108898651937426 -0.9006926061669633
 -0.06592884855811347 -0.8895304728144 -0.1354677458612152 0.029471365393235867 -0.03760927214636414 0.017069900240367086 0.039698663522852076 -0.004305371197958338
 -0.14652668683270126 0.021821177028884864 -0.05878790121626251 -0.8997911100093998 0.019089884646830774 -0.010275251179223927 0.01728998534314878 -0.021395090579920714
28915870000.0 -0.01926604760465072 0.0028160385192188874 0.03172484484206812 0.04252698667759575 -0.0732691523962443 -0.8895757986968513 -0.1457259301130194 0.02468406223256654
 0.031233276150277597 0.0427516986109774 -0.0006207994070021198 0.003554650189762546 -0.14370917717994242 0.025051803098603956 -0.07524088589687904 -0.9004506962668336
 -0.06884622891788056 -0.8927037708843673 -0.14193282857036452 0.02425694338725354 0.025715270356769942 0.008936690575280388 0.02285284294511743 -0.00179546875768674
 -0.14461749388967415 0.025287132762103315 -0.07494171883078445 -0.902720051073594 0.009310014661575473 0.004749862028625693 -0.002243715959834858 -0.019503065026882736
28985860000.0 -0.01592206053080519 0.004535518251823424 0.030782019922637224 0.04365664158948653 -0.07610418308380813 -0.8898336987147716 -0.14723785278080087 0.024183692936114762
 0.030917089978315538 0.04361132667264495 -0.00444607655087975 0.0012546521099716557 -0.14568849132051903 0.02443844855808485 -0.08117170068337821 -0.8993871731215672
 -0.07424862648910063 -0.8900134269433556 -0.1440231430670295 0.021042795043548453 0.019051170371299605 0.014126249678915135 0.01566302755243023 0.0004625459423696308
 -0.1442879662238968 0.024544642703988657 -0.08231947398897074 -0.897966155849116 0.021150996449636746 -0.0017960559460764385 -0.00388422265912 0.009780988051458326
29055850000.0 -0.014750330064646135 0.0015653162104682617 0.030145645996026264 0.0432295865643774 -0.07846233574166582 -0.8890096097627413 -0.14772371051364755 0.022542900134198716
 0.029678482731548765 0.04310830792331218 -0.0038240892004663797 0.004560814293497757 -0.14416170408285028 0.025895927246810172 -0.08143856915392068 -0.8984309476823852
 -0.08275114487215957 -0.8833515959754372 -0.1445545493405027 0.024798236490427058 -0.002566812373075162 -0.009177332071876838 0.035579133593701136 -0.001012063308037924
 -0.14361231309846997 0.029661223346525403 -0.08310152798939573 -0.9081463797895999 0.026425790249800178 -0.013801952330031163 -0.006949422344315967 -0.0184700389785289
29125840000.0 -0.019627797202963586 0.005936075297419776 0.02916011852064246 0.04305210771108291 -0.08310432400537592 -0.890297484195784 -0.1476859871027272 0.02732132608026555
 0.030316228921974993 0.04377129026202953 0.0013972769766634322 0.006005237722429513 -0.14387462913166144 0.025219869796965024 -0.08413590979111497 -0.9012026967146344
 -0.08583263784975341 -0.887483342558763 -0.1427477023715061 0.025411044928769593 0.017637814587258074 -0.025635670117854923 0.00877136238527733 -0.016341403416671098
 -0.14668888845219857 0.024893529603094593 -0.07943214486607565 -0.8941367916859003 0.027954982832404333 -0.016148645925742958 0.01620301745034652 0.00783302609940146
29195830000.0 -0.017698388640983415 0.006121179919354179 0.029474130584432642 0.04430899507246633 -0.08537157971243468 -0.8866680388138087 -0.14448300992397226 0.026943744937702015
 0.029193601239429434 0.044477546710896154 -0.0022986428562109034 0.004557514278903331 -0.14406932189863988 0.027659679434851713 -0.08902750862595826 -0.8966449128564159
 -0.08321203516806244 -0.8888745883411726 -0.1445507040260891 0.024676567327682083 0.025401131945313748 -0.004442646057483663 0.005800923852328763 -0.017987716908674622
 -0.14486482615529503 0.029829238548146158 -0.091356388287028 -0.8995321101855732 0.022665146886879532 0.006383338065914049 -0.038375213892422176 0.0023455151641457875
29265820000.0 -0.01789029611735101 0.0029579660589277197 0.027953163386542423 0.04383444485843533 -0.09116722107974913 -0.8884516453506793 -0.14597420929393445 0.02844431960833423
 0.02820712880318336 0.0447638612616678 -0.005681036532402773 0.003340859380732901 -0.14289361974592135 0.026038254068539827 -0.09480880030148149 -0.8942347445054414
 -0.0932052571107255 -0.8918419479856896 -0.14368024247159913 0.02960440275243705 0.013856141726082618 0.025940461471936353 0.03709481010248724 -0.009529739062666465
 -0.14563727007971844 0.02414508934519609 -0.09027474920225728 -0.8977563530536357 0.022128787582317153 -0.013399827903118585 0.0035631940652319526 -0.0014073394455295836
29335810000.0 -0.019513861477435543 0.007777464999028784 0.02868009588171519 0.044332712358294966 -0.09335579312294316 -0.8877575013344267 -0.14691242721815773 0.02530753207488875
 0.028488273861363208 0.0448383393187297 -0.0043231080073123 0.00893855784376602 -0.14652390141781643 0.02796656663807445 -0.09816253343768952 -0.8989120763121801
 -0.09471964447102788 -0.890945069216041 -0.1435235764120236 0.025523060130072082 0.002982977458518701 -0.0014037112597309722 0.029678962705984326 -0.005687606130670057
 -0.14751085780432363 0.027871399351075514 -0.09103498209094413 -0.8961775834889377 0.011426963469992425 -0.011818799650380405 -0.002918315360277299 0.011936818090511586
29405800000.0 -0.0187236695617244 0.007882706175956062 0.027984461183533423 0.04481902638731252 -0.09467653402865416 -0.885695568176235 -0.146460234696865 0.028927128032492633
 0.027120618402916366 0.04469487335229553 -0.004100542848024911 0.005599932850944099 -0.14765667615383002 0.025645154814386884 -0.09857730318043936 -0.8941897882782668
 -0.09581807293511968 -0.8775508151605708 -0.14343169838298905 0.0258335391600033 0.031357007332627224 0.031073161451351056 0.02379366939050543 -0.0027541375448252867
 -0.14575821156670896 0.0263085162611624 -0.09306977448623317 -0.890392242466953 0.009550044661253922 -0.007540747349658457 -0.0014167722685685367 0.025489933184279744
29475790000.0 -0.01734119323577876 0.008080620605969419 0.027067087837159557 0.04469270450628679 -0.1020807488347269 -0.883512790070803 -0.1466549547111955 0.030243473385905783
 0.027275311199822586 0.044822707147538554 -0.0064275667814063485 0.008653179869479105 -0.14594473587447018 0.029525977440723872 -0.1006450034776739 -0.8914397480094187
 -0.10026766311035207 -0.8907526734769855 -0.14828124706770424 0.027309145766943415 0.0012651883862256756 0.0023391772499886626 0.010477199055024576 -0.003761027937053226
 -0.14691769046237077 0.03290300055576655 -0.09806595940980106 -0.9013586143781769 0.019716689605414096 0.0052184019989762066 -0.006323324411612126 -0.014210094365411733
29545780000.0 -0.01849681144732874 0.009992262126142905 0.027252857173214524 0.044903967161210645 -0.10341020991284347 -0.8789929725292804 -0.1479691923857876 0.031187933566033017
 0.02780965419563677 0.04581019496064774 -0.006136329351919217 0.010018367102000346 -0.14609726076581708 0.032838978204411375 -0.10715770552489658 -0.8947740238245218
 -0.11026269411919254 -0.8827620530739312 -0.14666585516783398 0.03227932039379486 -0.056060748934824496 0.014351305114116003 0.012879695488477417 -0.0024475573998635905
 -0.1458050203319289 0.03247961510183084 -0.10861103066452911 -0.8967100999539026 0.02136421119237796 0.0011685172892800476 0.021226493422736598 0.018473930846252512
29615770000.0 -0.020031646208516652 0.008251132097719412 0.026082572470823382 0.04500674668669519 -0.10492232840706614 -0.8825448768638202 -0.14947243201476582 0.030882977849908046
 0.02763915264894499 0.04582810972478849 -0.004646343233759641 0.0102090183045697 -0.14043847456214054 0.02772097172483181 -0.10921220742024781 -0.889517240659522
 -0.10675220386932698 -0.8903719316053287 -0.1469726803859308 0.033316929112169456 -0.02980267167142374 -0.004632553907846503 0.008434211242879653 0.001672125378309378
 -0.146528801093794 0.02755237208292004 -0.09965867671420393 -0.887843429154346 0.016441848033536273 -0.022414153056196134 0.015811227905536542 0.005560702400020286
29685760000.0 -0.016932692894394603 0.009706512645068797 0.02565869395974998 0.045494005141013684 -0.113422817145762 -0.8843968677972089 -0.14736460812585134 0.030999261852096106
 0.025401590470753493 0.04505012932379238 -0.00518315220726373 0.008256249080779352 -0.14665737967235815 0.028904370234054618 -0.11506164527087154 -0.8897735567588088
 -0.11143527536933634 -0.8840963860974222 -0.14653527085922044 0.028198353202983 0.009054057657906565 0.006850894088938011 0.02278988989657079 0.009338061930494964
 -0.14647622282775424 0.031016132319489298 -0.11147530240656978 -0.8917918404634886 0.022810240423060214 -0.003474659766016675 -0.009026869703952889 0.02788431599894348
29755750000.0 -0.017179079545350407 0.007572543576765413 0.025355324435228442 0.045526736780195934 -0.1128894873974681 -0.8867212547023667 -0.14781629391663745 0.03177245939613012
 0.02578594214179982 0.045669480073293515 -0.008298921251795897 0.00834819817454412 -0.14711040831807837 0.03183999248596703 -0.11534600472406471 -0.8919003029438327
 -0.1102612550084489 -0.8816919822915279 -0.14355785848160746 0.03310969208918432 -0.0012455919213703644 -0.011749904685511512 0.01793570955533791 -0.019156723670747135
 -0.14991684970660274 0.032870574459412175 -0.11344614322336816 -0.9009054645623383 0.017099036851775003 -0.006491398103653902 0.008155955179340243 0.017603281764342726
29825740000.0 -0.02181663504450929 0.009972687602835414 0.0239418144063296 0.046302450372474206 -0.11552212219176741 -0.8853115378425727 -0.14944507004283714 0.03473351699776334
 0.024215341145598725 0.04543297304630297 -0.006192841564798141 0.011731918275402283 -0.149874565549141 0.030453917377328117 -0.11973588821647613 -0.8892839729562685
 -0.11616589053292777 -0.8847359980295214 -0.15067921030247242 0.029703580565143117 -0.01175427970154953 0.014911570930433694 0.0037890049114191345 0.0022272480643173837
 -0.15514493077446523 0.03609308055269837 -0.10799645076275861 -0.8873245740368053 -0.001831371613666665 0.004130486524428165 0.014664557341678737 0.005058357409651761
29895730000.0 -0.01705861683351828 0.011244241166073456 0.02482422404760185 0.0457549203501471 -0.12159419977318353 -0.8802144669741758 -0.14685668130499013 0.0344395153996243
 0.02449622212239298 0.04590046272617225 -0.005133529678876093 0.006966793558760427 -0.14164075194709952 0.03152162272876779 -0.12354734195783999 -0.8906671483808732
 -0.12136683277522979 -0.8820343462078098 -0.1394737520831867 0.03141104915248124 0.01608578844542049 0.0014926066903685556 0.02650773096878736 -0.0013016231206510937
 -0.1478339025651643 0.03276830250089581 -0.1298470863896405 -0.8911124666781319 0.008480003112283136 -0.01896547162372041 -0.00950286133849048 0.030022250792151525
29965720000.0 -0.017789260703993708 0.006495690215300416 0.022940183646839855 0.04596077880801997 -0.12465805919835281 -0.8810216321282395 -0.14998127734888025 0.03251451751150654
 0.023777559392637915 0.04575448113762485 -0.008886766675424458 0.011602452108425471 -0.14844491518305913 0.03270129367696676 -0.12986783690066167 -0.8863925523777487
 -0.12752312957713144 -0.8725166467625549 -0.14935626611853342 0.030132867821066465 -0.03435238078983198 0.0010431989035560303 -0.0005330375159349727 -0.001243801600098321
 -0.14761924443113744 0.03531056360019994 -0.12171094502933284 -0.8901707620867213 0.0022214131093799714 -0.001455675637256534 -0.015041626602714181 0.00561123985410202
30035710000.0 -0.022518491987421563 0.016134917147026237 0.023805680795123362 0.04705079596801801 -0.12622166410158284 -0.8755680215959813 -0.1461930478706375 0.0328374575179909
 0.022688407247134546 0.04554790303483832 -0.0032456969513349775 0.008945060397867178 -0.15131003733337497 0.03018145428236986 -0.1332492626630181 -0.8888408262986157
 -0.12207070137268528 -0.8803278225495371 -0.14370262186327407 0.034676397229751466 0.01641721256509528 0.012929148166575366 0.026775660333248807 -0.0074653964914784595
 -0.14827552496886 0.026324059442417055 -0.13230297890740325 -0.887789827347444 0.0031621857378445347 -0.028888947029930674 -0.02836994498300298 0.013566248060837076
30105700000.0 -0.015176850684401978 0.010354226531471056 0.02239440040352823 0.04693841830228485 -0.13188855484064768 -0.8812663911211804 -0.14990924890618257 0.03603347457298097
 0.022274973901647326 0.046984212167403165 -0.006028657800234637 0.006392894354056627 -0.14804526114017827 0.03657443554542071 -0.1352194169537383 -0.8929951343544628
 -0.13449044974251267 -0.8800742172301328 -0.14400547230639352 0.03605493283747133 -0.025432215927209876 0.00708267128729803 0.00726491122573488 0.006896987468276694
 -0.1487187905419313 0.03761865899109234 -0.12763561622512623 -0.8960219677041689 0.015149989455745102 0.014005241761073397 0.001760392126031832 -0.0006604384570222169
30175690000.0 -0.022659535047024282 0.006484636218246659 0.022281143388283933 0.046637492455513886 -0.13547142511452037 -0.8790484679732011 -0.15135366150970725 0.036058086592036735
 0.022850373141347007 0.04711958609838661 -0.009843415121647584 0.01210441842412124 -0.15123371852741205 0.03483999743200679 -0.14118336819975144 -0.8898747633465283
 -0.13167015494511633 -0.8842558333210749 -0.14217639645730823 0.03379384753395868 0.008770945364180712 0.006183583714834587 0.01744208103889854 -0.005465167712049389
 -0.14715342501876022 0.035631969719742286 -0.13630484705878365 -0.8923143135474891 0.0018179862830236249 -0.006331820831407015 -0.009747366257129719 0.018314158780663625
30245680000.0 -0.022857981662520618 0.017487628045483452 0.02148434659434188 0.04792953711552325 -0.14102190018208513 -0.8799089214783441 -0.15081721392126798 0.03875498590832351
 0.02343514126343363 0.046482377143450875 -0.0034835850228693076 0.01025020142430583 -0.1481347431278994 0.035459565710950595 -0.1373139331536566 -0.8921688402921545
 -0.14042190490711548 -0.8839925752900525 -0.14950933757148707 0.03441884250214802 -0.005785849617346878 -0.004774152279234605 0.004649942507204286 -0.004718938463514211
 -0.14936460219439118 0.03398086471967169 -0.12731845320299273 -0.8925713540709557 0.015347269847855175 -0.00245541924558811 0.023658418828046052 0.004663847913490379
30315670000.0 -0.015719382753821225 0.009211889020020464 0.02010193484840365 0.04720693567571794 -0.13982931948819485 -0.8787742143217823 -0.15211277855699498 0.0365642571906335
 0.021052590634258975 0.04815045349088952 -0.010194946931960271 0.0057361443059214 -0.14834483830576586 0.03898257836573476 -0.14581382769299112 -0.886444328989334
 -0.14054100226040747 -0.8774670018853614 -0.15091874711417252 0.033047461520877994 0.00573243846657012 0.000522719426330356 0.012568276624040645 -0.016159907489712026
 -0.15205889522280666 0.03999432203997767 -0.14989390360374283 -0.8935700731627643 0.01929858602907967 -0.0036675001303039323 -0.007499551460139835 0.008323543258400174
30385660000.0 -0.02486862005709854 0.009899342089441718 0.020301922385604014 0.04669902578446008 -0.14293690797344116 -0.8813962235412963 -0.14953732929721603 0.03864736673897188
 0.021197711999572554 0.04786083747895655 -0.01044603184568583 0.016654274119163946 -0.14869441467025377 0.037882661235865873 -0.14822692958211636 -0.8861644499559759
 -0.14440082006097377 -0.8780408308601763 -0.14768376204273637 0.030785768848250458 0.014407605539956332 -0.02386696487739729 0.005970274702157422 0.0022611709744400337
 -0.14798611121640698 0.037118826879758766 -0.14760651865070734 -0.8898951573724238 0.018084667695133134 0.0005008188300861447 -0.008892514599025477 0.006544635130824414
30455650000.0 -0.01896661940140692 0.018405047678322576 0.02072443145382761 0.048776734012046984 -0.1497552668172772 -0.8751671852885848 -0.15390949762993023 0.04265135115681568
 0.02043244337686497 0.047261325638717426 -0.005323087668961424 0.01134233646083436 -0.1483627662774224 0.03877836028698106 -0.15444887521568454 -0.8827124855545873
 -0.14934494713360674 -0.8727014859070865 -0.1494006578892562 0.03779668724053973 -0.02632065342441203 0.025422886782384628 -0.004652495487486292 0.009296410742380988
 -0.15345181918990383 0.03628493631919997 -0.15343981621340946 -0.8873485352258592 0.008316592247289773 -0.002415526027456415 -0.002903721772351379 -0.005627809845882506
30525640000.0 -0.019517582097990805 0.009963677734864777 0.018901290146363645 0.047544929852750245 -0.15301951464473623 -0.8759994777417539 -0.15258916120419705 0.03820376486711182
 0.020054789466276157 0.04809457132256951 -0.007986960324495425 0.010229134284712008 -0.15253677457636883 0.039105483097634855 -0.15596927547341624 -0.8815583448181963
 -0.15820421998607326 -0.8778027946745102 -0.15337143268101772 0.04025312290702128 -0.007678499503674637 0.004569624432078522 0.01368914378911805 -0.0005515425232664683
 -0.14905937613976344 0.039420482981714106 -0.14294078419831818 -0.8825918565007931 -0.002962535157657712 -0.001921269510224281 0.0012448307457168235 0.0014784348572057392
30595630000.0 -0.026973950551074054 0.011457708762207754 0.018976328231242772 0.04920699244058619 -0.1559443488460679 -0.8768493198924139 -0.14970459310976214 0.04229610138874551
 0.019463381299607122 0.04775649636269188 -0.009062142639816818 0.01638932768599371 -0.14953470896031915 0.03590921648383351 -0.1580622372882294 -0.881925772446237
 -0.15619796543210335 -0.87692583169215 -0.15262649982684948 0.03998245108855815 -0.014860488969576606 0.024711877099840115 0.0012112169799461522 0.008519642408793035
 -0.14911635191532072 0.03637077667726927 -0.1589789516693025 -0.8824631803340897 0.022667141507018915 -0.017131484821610997 -0.02002215117653237 0.03451877522425579
30665620000.0 -0.018479924871884112 0.019721430454916006 0.019077333654993953 0.04966835388653394 -0.1604378146881873 -0.8707754281651646 -0.15606851384685763 0.04207574441883598
 0.019590416551975125 0.047709082539923564 -0.004049884117470876 0.012893774304109873 -0.14652746332615824 0.04122095566206079 -0.16192899897737567 -0.8799029514406635
 -0.16572215686225641 -0.8752259119818886 -0.15691291507937608 0.03982515020545764 -0.021875192020799895 0.015860439278350232 -0.004460968978038801 -0.015654027663714733
 -0.15106850063647495 0.04511013119706682 -0.16854328164689208 -0.8881744492172544 0.0028651036786867708 0.007975356983699854 -0.01780442426855206 -0.02436018728826078
30735610000.0 -0.021888159769754632 0.011227697728951382 0.01918149896703772 0.04871429457431946 -0.1637062414935169 -0.87542411531944 -0.14694852929058777 0.042367284718370084
 0.017489851313636947 0.04979182327983779 -0.009534732115476462 0.008193754310132903 -0.1533002150245572 0.0428128607303515 -0.16352022912405287 -0.8806548712395428
 -0.1641898508606933 -0.8765707091372392 -0.14615981523892227 0.043927079256986835 0.015549288935425228 0.00238940159081963 0.015417127355543053 0.005524299232445192
 -0.15245054278730294 0.041710038981735004 -0.16941193960677955 -0.8878864262230813 -0.005909300370368659 -0.002931564121139379 -0.028702541467714292 -0.0026376961693521466
30805600000.0 -0.024670952631141614 0.011304360094734745 0.01635933717083421 0.04888717709810819 -0.16674264583738654 -0.8719951838382066 -0.1534798923731026 0.0434061298040101
 0.016732597438903454 0.049026301802033656 -0.00739643388565611 0.016108393348148228 -0.15048702973263217 0.04308808177943645 -0.1681039093678162 -0.8813067645270773
 -0.166432914945819 -0.875151999866484 -0.14622806714773814 0.039235584813970964 -0.012930752690166646 -0.006912240662673167 -0.0032323240893143462 0.0019890056754100077
 -0.14963722230390758 0.03914495442618387 -0.15439551604261167 -0.8788671607595994 -0.0019093116066717173 -0.004137627653414902 0.00019751042989945688 0.03547237507907986
30875590000.0 -0.018526380055073028 0.017221078039110067 0.017111278506909945 0.049344391298068516 -0.16673778003864737 -0.869698518031289 -0.15367212086078524 0.04503733489521434
 0.01659626797159496 0.048380635917015996 -0.004106206210212042 0.00998356416813965 -0.15097417001911898 0.04386519422691474 -0.17155913044129326 -0.8825458709633351
 -0.1651464693886005 -0.8739962700337003 -0.1495262023074492 0.04365908962379646 -0.009657046853619719 0.02812453147281799 -0.010270332728591297 -0.004669792036310705
 -0.14949448874958676 0.04325312026796163 -0.16940471252407188 -0.8778001046815106 0.0021726252995491 -0.008239830664378674 0.024515966848089748 -0.014393384481880742
30945580000.0 -0.02043431345427892 0.013155795312511652 0.01630978160777921 0.04996831705734172 -0.17428843956554124 -0.8690389234226178 -0.15336416173979303 0.043047498279628796
 0.017304294299251403 0.049634924721877985 -0.010764780675906522 0.014551908829601954 -0.149645003166519 0.044860353468396334 -0.17925643597222782 -0.8788983750033315
 -0.1722272985967376 -0.8779472070166581 -0.15362052036620194 0.039969628274587714 0.009640457936623955 -0.00025496685864085587 0.015931090796931426 -0.024646377642119417
 -0.15058779248671714 0.047384233503942066 -0.16779874544941542 -0.8808679571028005 -0.012118810885207292 0.004036090742005575 0.008502526256810885 -0.00620902727955886
31015570000.0 -0.025513281594041395 0.014932482161650449 0.0160861582984562 0.04934813112866541 -0.18101932510828495 -0.8691806272417301 -0.15518948352527429 0.04647819322611559
 0.015833210892177534 0.04953298751529899 -0.007442122101632246 0.013819729329660755 -0.14914300901333524 0.04086722676098748 -0.1802345197903978 -0.8806244296851784
 -0.17654169022381305 -0.8742025760779405 -0.1488704589403751 0.046296165784585154 -0.014944743747111027 0.014996844956521005 -0.011066512915398837 0.0197199714945106
 -0.1500022243774089 0.04588204001221729 -0.17514912623221832 -0.8757323163653571 0.009913641899097197 -0.007194564477642495 -0.0002245613173681193 0.002904049021538294
31085560000.0 -0.018715270086253073 0.016968244630127978 0.015050007437008853 0.049493323097840186 -0.18013585301897256 -0.8699042995468329 -0.15524024843444426 0.04333042138619457
 0.015835609865310882 0.049504382352758614 -0.007599587294561467 0.012321176598177169 -0.1492138692081147 0.04434565554313424 -0.17879681653305615 -0.8754586880595673
 -0.18230194729844118 -0.8735746343550723 -0.15422537627599367 0.03840696309923296 0.020375549679547147 0.021568834175757372 0.00454238203052056 -0.02531360619899007
 -0.15049435581275303 0.04628718357231915 -0.17999729339947734 -0.871379567589353 -0.0023375056879182997 -0.005467482011949402 -0.00921821701221568 0.015813459737581925
31155550000.0 -0.0204592014876263 0.014132258260845269 0.015000911174854303 0.05077252610320624 -0.18460605717138365 -0.8724784045944459 -0.15111010637782354 0.04498901451230459
 0.015551968904020193 0.04982550532732172 -0.008351295402012217 0.01244022930378579 -0.15116729249840155 0.041924673502388786 -0.18664635510197738 -0.8780794546893024
 -0.18369109906068734 -0.8754015863250062 -0.1535104153741103 0.04282708895951894 0.002686001736425488 0.0026530079064377345 -0.00606903295971249 -0.006715671465668871
 -0.15369879540254644 0.042899305906130676 -0.1852520574646008 -0.8740174060510363 0.01608410909928753 -0.03459156261610854 0.007894815895717004 0.028350447511433563
31225540000.0 -0.02390922913531657 0.01547296120296933 0.01430591572431955 0.05123143880712701 -0.18579651575034778 -0.8686751256426967 -0.1508969772400551 0.04739557212109348
 0.014789099558893756 0.05049918864018971 -0.006954085973974206 0.013578487147827759 -0.15095203432144 0.044435043182093265 -0.193689670365175 -0.8758766399514312
 -0.1901266561778156 -0.8667723243720251 -0.1502159913949217 0.04654156585005125 0.003492549391041217 0.041017751505703144 0.0032056589267970372 0.00922635602789318
 -0.14761081600260773 0.048945398947919286 -0.19076134888500287 -0.8805426432439488 0.0050768211320637155 -0.007675882779717872 -0.0014340989937978099 -0.015978585163648393
31295530000.0 -0.01721940093719556 0.016174845140471638 0.013791431445171129 0.050350656047750283 -0.19388442403704984 -0.8650201221684352 -0.15425472348810565 0.046696537700066425
 0.013634167864122861 0.050957680898531824 -0.008195332256496948 0.013003143190533542 -0.1541949077224325 0.04715771128183047 -0.19474926263872677 -0.8669994848741541
 -0.1974414844406824 -0.8640843062546332 -0.1530156380591836 0.04734020745731111 -0.0002967322087349589 -0.043806346777928634 -0.008261925224437206 -0.0185667033819793
 -0.1527823636287298 0.05030291482164611 -0.19498829232851422 -0.8765664400700909 -0.009053277864682536 -0.01695350233484649 -0.017360951806310934 -0.006885712240599128
31365520000.0 -0.02001453236894647 0.013945615652257637 0.012403513806346697 0.050195028441978186 -0.19015347783887437 -0.8670030591767163 -0.15411330300981552 0.04358642862431107
 0.012489134605352161 0.05084645640059148 -0.007438736960513072 0.01535970708524046 -0.15003240264714449 0.048324715147137806 -0.20022552862883106 -0.8685375785718443
 -0.19304989457872837 -0.8577467197043518 -0.14817144342949323 0.04507103801042223 -0.030623801637494345 0.006544324521985557 0.016111400269318343 -0.029487830059347804
 -0.15195828713075404 0.04666806708418432 -0.19529476556888417 -0.8667040688680383 -0.0009735970481598191 0.010694618339269853 -0.0492000218347773 0.006738164955218191
31435510000.0 -0.023544098318315172 0.01809038623932099 0.012869268222475753 0.05197884077313649 -0.19698126327195062 -0.8636109359290228 -0.15106652701870218 0.05042099674594329
 0.012835495843335881 0.05176934281053654 -0.007594715899928865 0.014120973544765299 -0.1488635613176977 0.048170007166220635 -0.20304391097135827 -0.8694901883884693
 -0.19678414632378893 -0.8625523082877761 -0.14964123546767039 0.052730466049374466 -0.0037225036512363264 0.022199412403686114 -0.007531131548000125 0.011144119619575243
 -0.15108896847511402 0.04493277487475998 -0.20022879883550818 -0.8730893747874902 -0.007345488770702443 -0.008019425246245444 -0.021526112948061005 -0.027295747968839004
31505500000.0 -0.018065856744255072 0.01532632808438713 0.011534005886585185 0.05182586978709689 -0.20126512215843298 -0.8634993304156438 -0.1539823034718833 0.05102706169976803
 0.011219108201199732 0.05190257875044007 -0.008499375642235605 0.014564889199821185 -0.15002071398118808 0.0484750333636046 -0.20430362557356405 -0.8674021842817689
 -0.20046487304593744 -0.861664468094015 -0.14818433926826918 0.04903540419774714 0.0008832457478246549 0.031624246039944716 0.007962067079716932 -7.000049772449671e-06
 -0.1523677587936086 0.04896980889182827 -0.19891748667324205 -0.8760764608363709 -0.013221623525995426 0.004870034370005914 -0.015736647914364355 -0.016419143153070727
31575490000.0 -0.02048636363554948 0.015221063565264896 0.010607231891377796 0.052251499179065214 -0.2015373010970296 -0.8614631163372095 -0.15500849590605645 0.052696148488435644
 0.01071994203546136 0.05212519134621012 -0.006780896815657916 0.013944817420327467 -0.15204541960618706 0.05145595794634964 -0.20786722739431898 -0.8690024518833894
 -0.20396145485342215 -0.8551805098061332 -0.1484725451942752 0.048156294405285835 -0.023806702348871295 -0.014523860946503993 -0.003948460058220893 -0.0049393926995901834
 -0.15156558045012475 0.047110224020002596 -0.2081230833546244 -0.8774123790482881 -0.006443706058734899 -0.0016094635855745793 -0.009255211844734917 -0.016879453594100896
31645480000.0 -0.02268959032121666 0.018831709115093666 0.010484121582268696 0.05242428323782472 -0.20593405289407687 -0.8627773363867979 -0.15443555500931208 0.05368254984551883
 0.010630577713363966 0.052908444411797394 -0.006364743900606146 0.013187714578147878 -0.15446187630269606 0.04893025431035526 -0.21160585421247932 -0.866563040960843
 -0.204611492755362 -0.8633192958552333 -0.1512056225137294 0.05186391713576879 0.006482479626592023 0.03000255617457806 0.00337217156993781 -0.022326672602782385
 -0.15002163106715052 0.05173978256164218 -0.20400197161694059 -0.8744819259038101 -0.021258214792935635 0.002647323131047464 -0.01935614649277266 -0.009800189454575082
31715470000.0 -0.019723835839695517 0.01582869353324437 0.009930759415738176 0.05299149636080717 -0.207433265934145 -0.8617090830230925 -0.1524029104291663 0.05008394875455715
 0.009528719687766547 0.053221055097485294 -0.008220276303937778 0.01839379467776 -0.15009201441470568 0.05091285804050011 -0.21449849578319832 -0.8671635725195419
 -0.20711687786245436 -0.8659457248360761 -0.1552286951634294 0.0513841744153652 -0.005996217741835696 0.037894884761912745 -0.01413076076015173 -0.0047934740914405876
 -0.1532864860629083 0.05001855105987597 -0.21339853443610912 -0.8655873333677224 -0.0008188334036098413 0.006552234109754827 -0.015548662663454156 0.05097700868110105
31785460000.0 -0.021213501264536326 0.01796370332359263 0.009601429547239795 0.05385268458652382 -0.21512782347512596 -0.8574731369183579 -0.153034515359855 0.049690266943401874
 0.0090593789163859 0.0534820493773802 -0.005285836413552724 0.012265677742865407 -0.15140561588055718 0.05087832014634126 -0.21774228533092171 -0.8662348708495251
 -0.21264895092195074 -0.860227357904016 -0.14931080879789246 0.055620762128174975 -0.0008740091407667759 0.029291374581619477 0.013300463646609416 0.010660632497815549
 -0.15459406120564703 0.05228510401290282 -0.2160292972645956 -0.8676976886965015 -0.007513843804196286 -0.00590879965090143 -0.01368090877362264 0.012603704657401764
31855450000.0 -0.020458927197254635 0.019384213414694703 0.008183463792496131 0.054370151973273044 -0.2176111420769284 -0.8597384670297111 -0.155264848065851 0.05578646743126491
 0.00876461734862478 0.05351418746217622 -0.008124421826279805 0.012690868537513346 -0.15319963203321071 0.054003008145784036 -0.22246406705209298 -0.863623852550609
 -0.21482364743149576 -0.8575415237002172 -0.1494710691572603 0.044972598771622345 -0.0029092137254725114 0.008972978571350551 -0.009386791476331506 0.006774675670762759
 -0.15650053903668443 0.05145839122971162 -0.21034457385433786 -0.8702510607257674 -0.026076789357462694 -0.01029800638405437 0.0038031356500597946 0.0027886703723084836
31925440000.0 -0.020742348191258395 0.01621625346667129 0.007932601648068527 0.05382816302722052 -0.21948147756209468 -0.8561016339074854 -0.1548671625979678 0.054930482099467645
 0.00776302383035353 0.054575824712692574 -0.005963938203270019 0.018641197917246593 -0.14928844449228695 0.05095746084396235 -0.22529235655962876 -0.8654927611390122
 -0.22170646134382627 -0.8531889460108882 -0.15802451874933066 0.05387535065228153 -0.011899162927121416 0.035985011705128085 -0.03079442726823576 -0.0068218854237466955
 -0.15774214613158385 0.05250440744946675 -0.22134691634780113 -0.8687839919303175 0.003911145511883236 0.012710298699471288 -0.006136992352113774 -0.01688535992085928
31995430000.0 -0.01985695391472268 0.02006031885415946 0.007908476955248331 0.054889578566123975 -0.2229338394030897 -0.8558929345716528 -0.15661247210043758 0.05502970662683208
 0.00789897521207107 0.05477675939766188 -0.004404509897001292 0.014750183351755907 -0.15301516600590923 0.05521709665498671 -0.22952760518617726 -0.8620710687525359
 -0.22334034544804832 -0.8549388984059862 -0.15595649015763785 0.05262610208522441 0.0018533162861816964 0.0051624318459168855 0.0021309118713647578 -0.00035561763826167763
 -0.157677741349092 0.053274675856155765 -0.22520819709834142 -0.8620459009962731 -0.00876712262488143 -0.008371576959566536 0.04888909694207993 -0.001504275615284384
32065420000.0 -0.020958228600968777 0.018574513088109673 0.005973606734744082 0.05596799877676928 -0.2280432393867155 -0.8531651991859037 -0.1535507246827707 0.05416774844098391
 0.006761365716529198 0.05527289408140378 -0.008867090485063144 0.014540775204372585 -0.1542838946025076 0.05387019101374399 -0.22921588100821283 -0.8661087591088555
 -0.21696902026466233 -0.8532937529634734 -0.15546900439267847 0.05289871651118661 -0.015602476206845023 0.03429518184742585 -0.019812898337405085 -0.0038873874898987387
 -0.1559671084609214 0.0536489802847853 -0.22300897245780887 -0.8728302120708417 -0.027282163174708975 -0.005592086181326992 -0.003261598418312543 -0.0016166527295688672
32135410000.0 -0.023019146198566025 0.01997513841119857 0.005549833062973929 0.05529347097913447 -0.22786688383100318 -0.8512962583269612 -0.15521906784958497 0.05730058156282885
 0.006441715318644326 0.05504621238832934 -0.004999479502562562 0.018114062392071778 -0.1533980556760106 0.05388159309482536 -0.23364970575655664 -0.8588480466156053
 -0.22926325511005238 -0.8559627248873807 -0.15689895782234217 0.05191883859521458 -0.01819555895288528 0.0167422856713709 -0.009364290680682173 -0.00473399828154185
 -0.15422083499604022 0.05436600924651006 -0.22419781298078717 -0.8596874998991798 0.001027654560880247 0.008386175876480214 -0.04021092184382407 0.011580213069223574
32205400000.0 -0.018816046565787503 0.01793625989400444 0.004878130420947944 0.05571080998890144 -0.23554195051529495 -0.8507666440977547 -0.15463670300784108 0.059215830710530645
 0.0059201801044339915 0.05520520006432276 -0.005406739541268414 0.01388776261070176 -0.15582816702070204 0.0549029688944617 -0.23857129543558 -0.8569141217647327
 -0.22642182445619533 -0.8521227748199242 -0.1521706676290403 0.05680469513098439 0.001719364364104134 0.0254758193293508 -0.011577104320968944 0.010656214042787396
 -0.1499221228188924 0.0609984087858174 -0.24206304197615788 -0.8556777625944654 -0.006058996858138293 -0.015593493646398433 -0.018465018256882255 0.015557969358147
32275390000.0 -0.022846649059248256 0.019942272485336154 0.0048948176844818714 0.057877585132026926 -0.2358671213328193 -0.8518891079236084 -0.15722037881707607 0.057586455773580535
 0.005306919363289559 0.055898291791673355 -0.007966675725632267 0.016749554306330395 -0.15137050981311567 0.05934857998902681 -0.24229506757413014 -0.8594867225518312
 -0.2301777569724802 -0.8548145003534334 -0.14386858574445846 0.054704573950849045 -0.030216565310874785 0.012666950888366281 -0.03006179792399424 0.012865378811540672
 -0.15842089330757625 0.06244102216021173 -0.2335231123150966 -0.8623565752375746 -0.03843708502119245 0.007806630845211825 -0.031286282940210255 -0.00332133890816162
32345380000.0 -0.020216807865530696 0.02254553361318399 0.0036647923031513266 0.05705654618853191 -0.2379975739510804 -0.8492803354756314 -0.1539016493296504 0.06016873717579858
 0.0046965180080673 0.05651484417069259 -0.006150510839811963 0.01676742306775724 -0.15400894200227133 0.0583856569931802 -0.24372068543212178 -0.8553897908826477
 -0.24087669180568552 -0.8483177268921868 -0.15599689496336025 0.054623528294235314 -0.04609109561374282 0.038560422494546526 -0.013549899765736987 0.01614110334886219
 -0.1569957254291637 0.0612476422857886 -0.23919571227987482 -0.8646856878079298 -0.02251800965431578 0.009046612711003486 -0.005940379269695417 -0.020860496126611235
32415370000.0 -0.021539906249409643 0.019788372581205 0.0036666335298985104 0.05720602126940697 -0.24465894646133976 -0.847185720001408 -0.15738015937250235 0.05878693509977652
 0.004572150147543626 0.05823540499582965 -0.007584706452131304 0.013488634766641472 -0.15369064256472387 0.06017160930209533 -0.25081195905336123 -0.8555533265874776
 -0.2493680919793652 -0.8494472231988568 -0.1500223678261429 0.05704808369487586 -0.010545955904493429 0.014252353576112589 -0.031788119721340644 0.00765119501349457
 -0.15161112075151337 0.05730358392653835 -0.2413323035601273 -0.8600476981734313 -0.008232406058092495 -0.00400266317786068 -0.011200400422675418 -0.004604858532276429
32485360000.0 -0.02412638244917217 0.023748527674238632 0.004940670667994736 0.058374748604581354 -0.24260559035531915 -0.8451197809569743 -0.1572064125342331 0.06219354933210405
 0.0044926447677908835 0.05815147799056384 -0.009755596504001814 0.020298186428834783 -0.15006214261616607 0.05880115744571065 -0.2506310471491519 -0.8565474597540661
 -0.24201306302264786 -0.8390950031811363 -0.14881171696583997 0.05369524858544574 0.01417273353708006 0.006893899504821903 -0.00837213189457507 0.005961075478991956
 -0.15536545487879755 0.05629457395472173 -0.24776537889775752 -0.8593038516193124 -0.021493968005963524 0.008874538673971725 -0.014824896155849494 0.01742387614394718
32555350000.0 -0.019501871511821804 0.022832950830671214 0.00302780073444621 0.058069213102288374 -0.2491953460719549 -0.8443150766405136 -0.15629873449999296 0.06472923085408415
 0.0037283092618617206 0.057881184270771754 -0.009154244274633674 0.0201808876136073 -0.1505696257519349 0.05863714306909313 -0.2530457386531696 -0.8521595002612741
 -0.2477333917069956 -0.842996815696213 -0.1529193916229401 0.06192909945446509 0.0069806542239706565 -0.00632758861506612 -0.027884753273013076 0.009445357756024047
 -0.15439062821158536 0.06097800607057269 -0.2464835847946331 -0.852554877196893 -0.008037360908779123 0.008184276402609816 0.006425830896401938 0.001094504870800552
32625340000.0 -0.0226008039497542 0.0188989479547704 0.0013119621074849314 0.05883165137817552 -0.2519433148003876 -0.8463138461109049 -0.15639509674534394 0.06596578900791894
 0.002513495067808991 0.059513366100441105 -0.01159990074633771 0.018756129452188443 -0.15058841383079183 0.05601469810572762 -0.25617194675784377 -0.8543748040162756
 -0.25080774509621045 -0.8506694591642774 -0.16066657990161085 0.05862937670931683 -0.01725500190991278 -0.012524303455643038 -0.022885320248808117 0.024345770552147337
 -0.15572734689313913 0.06635492824697256 -0.255128815857314 -0.8610796926189145 -0.016030656339042645 -0.005251303507839966 -0.014265002561902697 0.03975924908768446
32695330000.0 -0.02283428093127817 0.027830485589383756 0.0032008157751890294 0.05923212577341954 -0.2545861569152924 -0.8422630131122901 -0.15566766847707986 0.059576980613082045
 0.0029089182812960194 0.05885918775294976 -0.01082549333216342 0.02176716335554363 -0.15543807364645265 0.0625011469497003 -0.25993095456726073 -0.8519718315465037
 -0.25628928444036553 -0.843536776801346 -0.15319796323766977 0.061273573030009396 -0.031021485666014998 0.021473246812329743 -0.0326511126209181 0.013435089223101942
 -0.15712288876942693 0.06315503275531789 -0.2545246020611803 -0.8477510639413817 -0.015953708256662626 0.029471210154686053 0.011969049492521814 -0.016565982595789234
32765320000.0 -0.016845900440444487 0.022955327268072426 0.0017895966328017692 0.05878775343785664 -0.2590855946105738 -0.8419303670784826 -0.1576200106383274 0.06266790513407439
 0.0023241158700385454 0.059141647776416305 -0.010564462147855865 0.01807746158232869 -0.15546835128615888 0.06368488683997017 -0.2640084248060533 -0.8489118132093304
 -0.2584978230081773 -0.8416713804655687 -0.1544049020483535 0.057773555145737635 -0.028892292065499463 0.022224043811380174 -0.029375351426725097 -0.009210463249314342
 -0.15335171833993486 0.06360441475885026 -0.26435720911890787 -0.847919234437425 -0.03143238280997897 0.003879348773515868 -0.015357471935599694 0.02018301084904465
32835310000.0 -0.02577994632163766 0.02354965126908147 0.0023491534581093244 0.05982454890730093 -0.26362953746600487 -0.8379820162720388 -0.1563503133420775 0.06608290725207544
 0.0015255360774323887 0.05952431646342501 -0.009705367523435555 0.02441232097554763 -0.15521815653461696 0.06425284377964048 -0.2648093369077583 -0.8494633392720305
 -0.2636830419317444 -0.8379068686987926 -0.15880217917094566 0.06091392911240254 -0.012166876569234531 0.017831695094850004 -0.03650098591562411 0.010130097705297906
 -0.1555824515289485 0.0672788300867635 -0.2559947776492601 -0.8546622392255233 -0.01802471529214133 0.020201515846874993 -0.02696586353972446 0.007208686328112004
32905300000.0 -0.022174623935063476 0.029807695184148667 0.0019476290927370548 0.05988415570921049 -0.2664899792211304 -0.8416830096214005 -0.15436732726659685 0.060024587554828805
 0.0013880836158497868 0.06049663378006945 -0.006282534328475044 0.022583510866248734 -0.15420449919339116 0.06654403742512247 -0.2708465673835391 -0.8471937481530084
 -0.26878011075710784 -0.842717325118011 -0.1525187217746678 0.05538449048548433 -0.02050233397752121 0.01687631380668694 -0.024495286890858288 -0.012064276089843675
 -0.15619478946186582 0.06470949829202118 -0.26309022624262235 -0.8427630601781042 -0.015811904468128284 0.01066715150548872 0.03163919706666627 0.0575463230461803
32975290000.0 -0.018958727633243348 0.020450425716857484 0.00039998316481606994 0.060441535719151784 -0.2716454204234 -0.8397874271487362 -0.1548436782045902 0.06384377511859318
 -7.187817478352479e-05 0.06055453786224737 -0.011787428882717903 0.016907508643714177 -0.15498702525176097 0.0648725281795405 -0.2701025509572963 -0.8448665040940374
 -0.2723458926017493 -0.8346242927668938 -0.14879761797820498 0.061871447055873253 -0.022760541417147208 -0.006950386930591691 -0.03359338524080247 0.007260385271156689
 -0.1539266992041809 0.06466215371125036 -0.2619553790940066 -0.8440971478191357 -0.02292749156738372 0.007635228826329236 -0.006063770246914282 0.025612414747519366
33045280000.0 -0.028025564018396808 0.02739860792805028 3.175802600031706e-05 0.06124539523391326 -0.276907398896581 -0.8362329973127722 -0.1555772904313728 0.0668428872473191
 0.0012526362913043135 0.0613539466166222 -0.014043045151217612 0.024456162874949804 -0.15156047937501455 0.06539929528808099 -0.2762523183355553 -0.8442767868420116
 -0.279841520580208 -0.8355777792219589 -0.15609114714332673 0.060477644440347984 -0.01890188153777601 0.0166511798465229 -0.03795479742610244 0.007649444946616181
 -0.15333047737636782 0.06798994159002096 -0.29159822816231934 -0.8483872766141823 -0.010652609643008149 -0.0021152057608013115 -0.05979032198593389 0.029202131944845274
33115270000.0 -0.019120897309776272 0.03010044209021568 -7.731826422537527e-05 0.061544983173418666 -0.27367584593406136 -0.8368522963412474 -0.15371204794993376 0.06755808135664068
 0.0010867973680569628 0.06151623328059923 -0.00886073436089978 0.02122679232805207 -0.15166521461090993 0.06635265550921532 -0.2809525995989559 -0.8419294399095986
 -0.278204517242343 -0.8375531297449398 -0.15529620147975012 0.06227665451189699 -0.006575147251462491 0.029896030444679096 -0.01668963468750164 0.0017526787696075707
 -0.15324094281111825 0.06808790469609308 -0.283992954999419 -0.8469229436387152 -0.0031522449184124097 0.007783026978598726 -0.013212198378855042 0.010653287602202905
33185260000.0 -0.023820584009762773 0.021377715944157175 -0.0012089228182120917 0.06308197221046372 -0.28099276055267935 -0.8356284688465475 -0.15678278381190683 0.07017108217346137
 0.00013685805930549672 0.06298294657936597 -0.015208307286421132 0.021547251520495834 -0.15210781819623698 0.0660777618645243 -0.28638226288362684 -0.8447494987211325
 -0.2769430794299631 -0.8384832594668554 -0.16405019584512945 0.06969431877407214 -0.014272067079598792 0.018092012428623152 -0.018591430661332984 0.012403678432516024
 -0.15111816005604511 0.07179238190393485 -0.28539711028018133 -0.8536006918790587 -0.01801562778044644 0.0030029852539875507 -0.02161323555020234 -0.035076781827479885
33255250000.0 -0.025860146419454857 0.029606886956312684 -0.000805309878968633 0.06349551838261998 -0.28137608200926695 -0.8354216143847558 -0.1563404208535653 0.06842273968898008
 -1.725167961959571e-05 0.06166240835457877 -0.012104350806242841 0.026855641043382953 -0.15272197353515662 0.065555185125928 -0.2838694182083081 -0.8489920645456119
 -0.2803890900646122 -0.8295608359406254 -0.1609422472872173 0.06921546845156877 -0.03773574452132251 0.01586776155941824 -0.030350198786071075 0.0017306897201574626
 -0.15648520762643153 0.06826070137705913 -0.28638924336854604 -0.8512144780316175 -0.012339795339393634 -0.0010401924258933012 -0.008182602876996662 -0.009141784068566625
33325240000.0 -0.020055937983294022 0.02949192550700072 -0.0016267035206812182 0.06178257664272091 -0.2807147767270495 -0.8315194222366912 -0.1551622424041267 0.07263344645495305
 -0.0016366759447648312 0.06304413641732183 -0.007949982800134307 0.020410963902726606 -0.15444030753095228 0.06512635754413756 -0.2900779130485143 -0.8413930089244621
 -0.2808340709042629 -0.8244870961409829 -0.15676460460671485 0.05902576007669787 -0.004432874179514402 0.05129693660646872 -0.01233706069523505 0.012104352563653942
 -0.15665694019065676 0.07042939876277218 -0.28384408482192214 -0.8445079125846218 -0.027188662747099145 -0.003973521281744195 -0.025086916022853106 -0.01922838098717604
33395230000.0 -0.024222763324392983 0.02461563877279989 -0.0012904973924624814 0.06281941391173598 -0.28662021333796744 -0.8324149805282716 -0.15541173896227467 0.07021093284229568
 -0.0008002750735546964 0.06239945351841287 -0.015361468736787199 0.02338337764685212 -0.15367911917158195 0.06780748275958 -0.29375913306705653 -0.8363167690727503
 -0.29080877718078996 -0.8363390447449359 -0.15149028644293958 0.07381802949958188 -0.021147828141995763 0.0048611385263334595 -0.03521835184045964 0.030139320800437585
 -0.15043783734640442 0.06705759388680628 -0.28785809762952874 -0.8335093291134005 -0.019138977415190404 0.015317039986793552 -0.026677859980039024 0.030691963711787302
33465220000.0 -0.023969752780332768 0.03198815499546493 -0.00048482351129942294 0.06353277941668772 -0.28620694387368883 -0.8279835794959165 -0.15377118732441925 0.0708865595784683
 -0.0021813319624317106 0.06336600473361591 -0.01134806295479374 0.027835905766341925 -0.1570767397417027 0.06723882001303773 -0.30394290252696854 -0.8328548640314151
 -0.28470034875545364 -0.8287653210013559 -0.15742306442818657 0.07577749438539064 0.011457956826674448 0.0465139524063723 -0.03672271647934508 0.011904871323551716
 -0.15612340427969804 0.07056722612828281 -0.3018723048139974 -0.8238754591587829 -0.03417023283849918 -0.01154731044793367 -0.057635221874433144 0.055120347681111875
33535210000.0 -0.020032195915734727 0.030141519018403135 -0.0009831701316728454 0.06456351277062024 -0.2954965551409988 -0.8263485748537409 -0.15571538823836878 0.07197402770655692
 -0.003281724212929716 0.06366456592480081 -0.0069079974377470365 0.021960812594257313 -0.15750051784506816 0.06823522900744187 -0.30041893296183153 -0.839092914356562
 -0.29460118608177727 -0.8264643224021416 -0.15345028888309856 0.07081690598820009 -0.014443623816597622 0.008509710419314132 -0.031207703011780212 -0.008704129885543097
 -0.1561338295304833 0.06856136176623945 -0.30441837486548873 -0.8296854513847284 -0.03419280236134849 0.012977224171335096 -0.0540572884706026 0.04442828594440183
33605200000.0 -0.026181518182441226 0.02491829795367559 -0.0028691524163850183 0.0655000667859426 -0.29588514220980516 -0.826543334207498 -0.155552048005443 0.07378270802692215
 -0.0035589772388772106 0.06567790757240557 -0.014682132387723375 0.02382854786016281 -0.15464040606109547 0.07271518292077031 -0.30412196532347013 -0.8308411413770274
 -0.2996760017016004 -0.8291115633434092 -0.15338796099113428 0.07160519624194685 -0.07496907197720724 0.02087533364462096 -0.028837840594342096 0.0018608161737410883
 -0.15615730753378718 0.07473227577648481 -0.2984237211640699 -0.8303130554984993 -0.029672942429694704 -0.002182325013084165 -0.014110593535478097 0.011180310191031108
33675190000.0 -0.024554377339128294 0.029982287055472942 -0.0039716228638100965 0.0644036195654393 -0.2996932422949758 -0.8267751375501659 -0.15303242492901553 0.07240476854840927
 -0.003582580044777331 0.06494837584124268 -0.008240155272843273 0.029901018140123907 -0.1559716635014196 0.0730687732938846 -0.3080266963780164 -0.8304052411855087
 -0.2909974383522754 -0.8293940628348491 -0.14883949890029044 0.07002554312352546 -0.020986191616426474 0.055532188978461156 -0.023280029846575793 0.03067241869220499
 -0.15530332292966315 0.07310370425127405 -0.3024169793914774 -0.8358825944967221 -0.032720273992954386 0.003039745630574895 -0.017250519565195944 0.0011701242648632024
33745180000.0 -0.019233902310313425 0.03171433452609152 -0.0035426462994485866 0.066503679895675 -0.30398459990975946 -0.8275383281610248 -0.15603863123224151 0.07355897442002578
 -0.002644137774269969 0.06477904089401318 -0.007707046488515452 0.023813435022879085 -0.15374966042214758 0.07225570774264982 -0.3114887086842491 -0.8333848675454838
 -0.3057589368226121 -0.826480713619797 -0.15607114885895843 0.07675423686104718 -0.0031236496416666222 0.015248578639664884 -0.011421965333753075 0.01224752963857989
 -0.15588031745050604 0.07277664088767913 -0.3128613283087879 -0.8331133692064178 -0.0377492267981616 -0.0007575795694968482 -0.012052936103589746 0.015991476184704246
33815170000.0 -0.02523245664675467 0.02647493778073215 -0.004010636307897666 0.06648293620797839 -0.30821964360508514 -0.8252489407367771 -0.1608180525888472 0.07494080540714122
 -0.004037733162343247 0.06564892405554218 -0.013453351369320351 0.02578198184339525 -0.1538294530061764 0.073309289567708 -0.3099986403089867 -0.8288688194540441
 -0.3082010731026791 -0.8187492382026706 -0.15292121777272114 0.07189831079290779 -0.01824565523990936 0.03532655502341996 -0.050977303371149627 0.002105566127038155
 -0.15922402620000975 0.07569675619958781 -0.299213286631651 -0.8346832567029161 -0.03160764954552998 0.0006135202334364876 0.011485117193963423 -0.00493034056876926
33885160000.0 -0.025734670075107217 0.03308312393551769 -0.004641418252119399 0.06501493185113447 -0.31250191237699587 -0.8175480192816496 -0.15291574955486545 0.07493979176528866
 -0.004827548527208422 0.06528628028276652 -0.008653556922212351 0.030343570271209364 -0.15137649403662806 0.07564515011628316 -0.316412224080115 -0.8293486755861637
 -0.3109313763683966 -0.8220878661253943 -0.15295989244794783 0.0766580578026607 -0.02264075420647452 0.0174112529444191 -0.03676873001957461 0.032005181897750944
 -0.15317302612531888 0.073354363782268 -0.3059995406420129 -0.8233885407991253 -0.036059598383455425 0.010556657784931834 -0.02222088735353748 0.040784439629717596
33955150000.0 -0.019677923470075638 0.02982670981456924 -0.005217223391418567 0.06620306394475949 -0.3161591148983819 -0.8253789233263377 -0.15722847170778131 0.07573723593586897
 -0.003716963212287596 0.06799485723207355 -0.011231227453091013 0.022324597492822423 -0.1523280893265689 0.0784214947487642 -0.3222786552536711 -0.8314822225403681
 -0.32259299172949685 -0.8293708032853834 -0.1509236327269523 0.07004969442362728 -0.008517975421104365 -0.005445440901784074 -0.02601137096531871 -0.0034204439151394087
 -0.15641304113871313 0.07953109648510516 -0.3147084728202658 -0.8343620663210023 -0.028576652336196624 0.004509277887402046 -0.002351082972889187 -0.0013905816792042518
34025140000.0 -0.026632152068373882 0.02917349407876475 -0.006179476595518444 0.06809892900359166 -0.32046338861751617 -0.8151704567507374 -0.15791228597188636 0.08261526936331605
 -0.005252407681483176 0.06782670390726465 -0.013470387577474364 0.023497508613911443 -0.1564114897447555 0.07648612095630002 -0.3234265379455512 -0.8215538343953024
 -0.3092743160440453 -0.8157010620794087 -0.15717500940507784 0.07327888608008232 0.002223442060866966 0.03364361428499872 -0.055004497077265874 0.00913000334926626
 -0.15309995719953218 0.07795717098467295 -0.31864599787250475 -0.8241240226185812 -0.04370901508381977 0.0033980667312562955 -0.0240581317282646 0.008712911618687742
34095130000.0 -0.023329208386000985 0.03471830998765723 -0.006482857650889258 0.0677817304212427 -0.3195376502489584 -0.8141883529585331 -0.1552087494989597 0.0798630546165849
 -0.006018761315327927 0.06681679577250413 -0.007201111698115884 0.028511869534101973 -0.1545684625642443 0.07836313024690515 -0.32563335714907 -0.8239471401039615
 -0.32138337366994285 -0.813650402406505 -0.15533029752176733 0.0757828053849142 -0.030773709969797544 0.021305707594715555 -0.03560434658377327 0.022329628949561697
 -0.15642635938795957 0.08046679039805599 -0.31559777136641254 -0.8201317029034005 -0.04632062853304432 0.0019297475755803842 -0.024077065404211274 0.015506025328825133
34165120000.0 -0.019304477607944064 0.029835040843658508 -0.0062381546149224264 0.0695637938495574 -0.32385034297773657 -0.8216667309861845 -0.1549708474252369 0.08561768511853604
 -0.006243031808442769 0.06789664556752663 -0.006924001469754823 0.021958523446215367 -0.15697752024902797 0.07514972465591431 -0.3260313298317598 -0.8250594430847428
 -0.32568244106961625 -0.8201700239207589 -0.16150822865309006 0.07549448724276327 0.025144777133077233 0.03739792675635616 -0.04243817441128578 0.001846731337077803
 -0.15068624194421382 0.08362544734699454 -0.33835140474461417 -0.8265140751636344 -0.042968953281617525 0.016032788671294804 -0.05220790642143613 0.008157056786691081
34235110000.0 -0.02583873682944674 0.031567755829200995 -0.0062597670837937795 0.06824141010485886 -0.33127194602113685 -0.8132985914648337 -0.15539211503585346 0.08343473944765868
 -0.0057739340614712375 0.06890257926997014 -0.009853991790489626 0.028251078384287264 -0.1572762713273351 0.07764779575295969 -0.332693138169937 -0.817490098277426
 -0.3317623647273026 -0.8120066796078146 -0.15854766026996356 0.07708340612771244 -0.007486947076538023 0.03846968373559672 -0.055929456695177245 0.014833188002068174
 -0.1554824929756435 0.08239567702709989 -0.3177561673078975 -0.8243367059894671 -0.052646453157722206 0.018161448698835167 -0.001241055676471169 0.0183585306709011
34305100000.0 -0.02301861534071462 0.036180463421050094 -0.007851853783108114 0.06911742832263798 -0.33039930940142276 -0.8118740185387064 -0.15608188199602632 0.08445689175427933
 -0.006790733423496275 0.06875199782607438 -0.006324389642714976 0.033616871784211716 -0.15614197060070087 0.08174533026991455 -0.33741737683484363 -0.8155032564435548
 -0.33501486644542505 -0.8140931920228808 -0.15649398841092435 0.07914373013969811 0.016018653876647457 0.017798037320942796 -0.05931249362362402 0.004898886754265797
 -0.1575017772468625 0.08288219066657458 -0.3336066257024664 -0.8213190731176314 -0.05300606382828554 0.007392826255319942 -0.005812063838377957 0.007980301283539472
34375090000.0 -0.019006016505330337 0.029240994343256152 -0.009240100435029253 0.06925603405455122 -0.3350594186777831 -0.8055982289431839 -0.16110718855113518 0.08047434668295693
 -0.007106518547422977 0.07073949763561949 -0.010005101792341126 0.027541276141496283 -0.1543194621649968 0.08150322367954914 -0.33871853430084575 -0.8137070065738435
 -0.3315850861507535 -0.8111724360858915 -0.15525096905378585 0.07868394397405763 -0.033270590807473285 0.02752235930162061 -0.05507117655652512 -0.00015157742066794675
 -0.15513892329182094 0.08079566188104914 -0.32659454220057355 -0.81343845530156 -0.03879368230455629 0.012965655596920698 -0.007762748689375904 0.055736168774302396
34445080000.0 -0.0247077336389163 0.03267813306959068 -0.008890000063901357 0.07113681019273776 -0.33839713475946714 -0.8115053707812748 -0.15901598729398303 0.08575271847423524
 -0.007652236939662647 0.06992767514592829 -0.013261055094079254 0.023822380390023434 -0.1544437149498093 0.08248050630377908 -0.34281636224418627 -0.8151415700669814
 -0.3377494661761924 -0.8063406509238475 -0.1623053754496955 0.07975052506757403 0.0008356139641219754 0.04838087660966947 -0.048760465043176236 0.02499861525552344
 -0.15768216071556457 0.08076054767999821 -0.3354708746121794 -0.8203309409506846 -0.024967138323012242 0.0008409836561289998 0.008376007312904834 0.004831193680232361
34515070000.0 -0.02160085158842869 0.036179463680800654 -0.009133910812078845 0.07077330124747379 -0.3375164637944816 -0.805145463339963 -0.15677704584993912 0.08109061894430397
 -0.008234746513654145 0.07154022446147004 -0.010453898453529623 0.0327413978350281 -0.15817598766533952 0.08208698583344386 -0.3454745105982508 -0.8144955448392637
 -0.3388493227260967 -0.8001031515676381 -0.15420234507213074 0.08339533213598607 -0.0376100191869457 0.016938367218528497 -0.02953435819941094 0.006370016399108308
 -0.15652068380850523 0.08686621138916358 -0.34496704588355076 -0.824439878346103 -0.04453599811005358 0.007349729132904849 -0.005080661682192925 0.013435084473826532
34585060000.0 -0.02090965083301692 0.03181386860870936 -0.010428031968721923 0.07199467885223283 -0.34087025917228053 -0.8050863502268807 -0.1601428765075607 0.08376231641604069
 -0.009819890216867768 0.07145625806527516 -0.007395905083975901 0.027110151868380943 -0.15238781607225485 0.08417881945866344 -0.34981676785356436 -0.809266113075183
 -0.3435591277177873 -0.806867541661557 -0.16076151457723406 0.07631214319722016 -0.007448315494863024 0.02540605616041384 -0.04486215668686606 0.0010519080279981234
 -0.15741895885647628 0.08189125893383715 -0.34489207550778395 -0.8198369008498856 -0.04345709666615474 0.031711887923314835 -0.0039022362987766014 0.0003390819255116442
34655050000.0 -0.024291670465133596 0.03324608753774531 -0.01031958640340207 0.07303969968882196 -0.34568138985304137 -0.8028521987447244 -0.15874811369714656 0.08766258914538157
 -0.010264651865416724 0.07236538577014982 -0.010797482031912883 0.024251997368357845 -0.15675844041525666 0.08315737077878109 -0.349892536110795 -0.8086275133878568
 -0.3468245852225756 -0.8016447392225832 -0.15622896926622987 0.08465884198642618 -0.028914724081898522 0.030425914519232104 -0.0447365789043247 0.01131643933508246
 -0.15924168619090898 0.08361722719935044 -0.33946361734084834 -0.8171928696748695 -0.04170653339630008 0.008737033586019325 -0.02196712562851983 -0.012013945969767615
34725040000.0 -0.02101033262560236 0.03750052663670497 -0.01036387713120408 0.07303943283082058 -0.34771415367045233 -0.8033622722142031 -0.15511708538730476 0.08603554534521449
 -0.009466769727737342 0.07286231020594597 -0.008680097771391499 0.03392471194362684 -0.15677194679154 0.08566732519969494 -0.35330076629690027 -0.8076819481398481
 -0.3514463549972182 -0.8053597887118573 -0.15387827359948367 0.08635634445026522 0.008718265339101677 0.003089721272996124 -0.04596917576482816 0.0102557020355652
 -0.1570001460237999 0.08709539131078906 -0.3532206613554213 -0.8110934400216552 -0.047960061557446074 -0.0031593572718016097 -0.021480347835972215 0.024856528306434623
34795030000.0 -0.021628966187451745 0.033939825530476295 -0.01138787479974078 0.07403126453392428 -0.3490185380488451 -0.8009095282697646 -0.15547126485566715 0.08702888634932762
 -0.010843962135556119 0.07284649821644974 -0.0062340015574813305 0.02885265876419103 -0.1548033544638728 0.08754393811489827 -0.3545802080848075 -0.8103988568289763
 -0.3425423751264229 -0.8002563843616952 -0.15464627020424127 0.08753313509410114 -0.035276106804169295 0.05815931340236623 -0.041043694543323135 0.01970264292256237
 -0.15574770392459752 0.0851150454507915 -0.35687076042855076 -0.808263070237622 -0.05398666751309538 0.0012397412814021027 -0.01110833554285443 0.012212482286062198
34865020000.0 -0.021657853145860845 0.03457488734673494 -0.010517744881951943 0.07383630466851471 -0.3490815570504073 -0.801550681879235 -0.1597642952541852 0.08817534805438515
 -0.010936280818973758 0.07369522276688047 -0.013326181286880878 0.027764872347614454 -0.1562531293814379 0.08535442796466164 -0.3613879884821844 -0.8032209739606285
 -0.35052198749890684 -0.8038844712209158 -0.14963360753408878 0.08835529645440059 -0.0054528830229447645 0.04277335357917779 -0.05072718620865538 0.015844058861524082
 -0.15727851069208587 0.08482389745102627 -0.3641881914727023 -0.8107149631246853 -0.03192699821047512 0.0009701594076672432 -0.019665277308080143 0.03151286302803316
34935010000.0 -0.022801780503476303 0.03949065879836884 -0.011502153946631647 0.07435372785686174 -0.3544358109705217 -0.7969591534853347 -0.15525466779114785 0.09054257245052709
 -0.011099541827550154 0.07375899037720522 -0.007767588230375507 0.03283182254370755 -0.15591222735370355 0.08304002298969183 -0.3631124404702472 -0.8046804271345865
 -0.3533126034053777 -0.7905434333102596 -0.1569306076352982 0.08660890917284388 -0.0012225128615774644 0.05875346793121526 -0.05283701022116702 0.004727940475118479
 -0.15736887037874503 0.09132815557154693 -0.3537341129174651 -0.8083037415771889 -0.03523068084126032 0.0019378132021791283 -0.02808592638979098 0.02214092062306138
35005000000.0 -0.019453808433217482 0.03631254262226574 -0.012560462378768527 0.0752148836015175 -0.3632074358891619 -0.7952969845739942 -0.1561820652355505 0.09026846161088134
 -0.010587917053836575 0.07524108539532688 -0.005495016398136299 0.029673889837013627 -0.15661213431129675 0.08973981021967078 -0.36691753748369005 -0.8056896802531529
 -0.3575931390286613 -0.8027412261039079 -0.154749138851519 0.0789997363431117 0.029231649188363653 0.03274150562494313 -0.034677959133428755 0.03353622256790337
 -0.15785569029867333 0.09389263256160287 -0.36011295813815697 -0.8062730480555025 -0.0601881061102114 0.004740394755173641 0.007323151504840303 0.004751533636263084
35074990000.0 -0.02204712478213542 0.03392962616571427 -0.012503358894269997 0.07533839631262576 -0.3613074566424155 -0.7970598619503485 -0.15483657564126938 0.09374946461462354
 -0.011282325408540931 0.07547873532916972 -0.012276031053022444 0.029203381183789488 -0.1557936552834684 0.09045906671052513 -0.3689959035747317 -0.7997860884841254
 -0.36205501643151405 -0.8008639723842498 -0.15532754000415414 0.08498966864851548 -0.013177465311787921 0.03960138346693264 -0.05594858687109764 0.021676427937775817
 -0.15336840335216118 0.08860904420319331 -0.36405911218290476 -0.8070563232103932 -0.04085446826655043 0.007648510421848945 -0.033617398741857464 8.519400186841802e-05
35144980000.0 -0.02208204853324717 0.043195041228977986 -0.011794840042002526 0.07590888447402423 -0.36721547506087054 -0.7944212053327004 -0.15777247772889802 0.0903066927637786
 -0.011024258024997008 0.07661349010410307 -0.0061740553394064625 0.03321579852369021 -0.15589633458008353 0.08884634674863551 -0.37061934519683065 -0.7995306083511758
 -0.36232316946035614 -0.7947478709279581 -0.1449906185715228 0.09062588206381175 -0.019242028236935927 0.01778652514398723 -0.028631164357409065 0.010301249527768104
 -0.15649824673943305 0.09453509534287026 -0.36979806233943485 -0.7980216768326548 -0.04100596358907872 0.012158976585813707 -0.026898311285067377 0.006407883199810217
35214970000.0 -0.017552569583597882 0.03806171120505065 -0.014082885013855077 0.07656751694339341 -0.3660663399407041 -0.7924907770038774 -0.15990987824295458 0.08953367128453361
 -0.012783777589921256 0.07620653886722281 -0.005841229043258149 0.029024690851860522 -0.1506285279554744 0.08978407247841359 -0.3760008148099496 -0.7933777314111531
 -0.3668492638185056 -0.7935853164890404 -0.15500893769094348 0.08112905816170572 -0.05529668849189791 0.06942390135288384 -0.02261418748752349 0.008373947821190284
 -0.1580941373234341 0.08945810847992276 -0.37003296097598704 -0.7977255007504404 -0.02671673121917225 0.019533791633442706 -0.00036419758148239936 0.03132475254796241
35284960000.0 -0.025036317424746383 0.03803829392331152 -0.013207200428558372 0.07684956569800057 -0.3716984941522539 -0.7899925574345809 -0.15515509930253701 0.09590731338357818
 -0.012855372669769025 0.07735962243896051 -0.011812238104543665 0.03144111161077679 -0.1541745600652955 0.09036074263303574 -0.3807410664022764 -0.799291897352807
 -0.3828237640041878 -0.799537614206681 -0.14997371951337565 0.08806683561702576 -0.0029347434151910873 0.01776028045963787 -0.04273652858927917 0.011849317916868081
 -0.15396716602123175 0.08961570731830999 -0.37644824880095384 -0.7971853281121308 -0.036650068346931235 0.011287357995933764 -0.049517247862545355 0.0009325376928291464
35354950000.0 -0.01876425174386732 0.04509640992239906 -0.01327493909719734 0.0779204918843733 -0.37340300307486873 -0.786324684541801 -0.1568431350593081 0.09559924142360908
 -0.013285989256314254 0.07798066767757146 -0.007369930671962974 0.03306114966321502 -0.15679120135982033 0.09060300138553949 -0.3795394947031504 -0.794122525538932
 -0.37474173691072465 -0.7876745303767168 -0.15192354346863102 0.09720138205344143 -0.009309335623770242 0.018551640271447095 -0.046328618996607944 0.029196487451062545
 -0.15762796365206747 0.09644663827105075 -0.38212652718451856 -0.8014652912769373 -0.07198883014233372 0.024734629709946592 -0.03454336531965105 -0.010781154390828164
35424940000.0 -0.01608187116088195 0.03552032361018242 -0.014663253698809647 0.0783161164132914 -0.38029356396017727 -0.7870185286251372 -0.15492231304444257 0.09350896491636643
 -0.01461349705185669 0.07977559003017563 -0.006732823718447569 0.030234426188937468 -0.15395647302646118 0.09788288163027664 -0.37933578658161476 -0.7925795864244454
 -0.3763954068911737 -0.7924120291565262 -0.15447084502715344 0.09194101834039371 -0.014552661096349409 0.01690338840928466 -0.03530970838832559 0.025862679313952964
 -0.1565301558775998 0.09048058142638578 -0.3804031824878125 -0.8032500684773334 -0.04017761417675436 0.032305940317797266 0.022309706372714847 0.058481866981927415
35494930000.0 -0.02170674170484926 0.042592690186340446 -0.01299708442100191 0.0789554633620843 -0.37925293458544124 -0.7789980566383259 -0.1557305018639067 0.09353163811566877
 -0.013797341777191151 0.07819035746803836 -0.012897457835310206 0.03898233331261415 -0.14991270487035369 0.08897697269341677 -0.3881284616364854 -0.7890140809948951
 -0.3796464900338764 -0.77864587982065 -0.1515229882148121 0.09614717092676044 -0.06728104882146381 0.04234569003767664 -0.05091604160759259 0.031856911945347344
 -0.1557982311944111 0.09192827026303134 -0.38840988881709654 -0.786336811243512 -0.03348055236928171 0.004580252694076986 -0.01922332786784231 0.04661480959241766
35564920000.0 -0.015406874884009858 0.0439474202737783 -0.014448822639641035 0.0789746135112688 -0.38438587070106767 -0.7778516597272723 -0.1556925822312303 0.09833731061087797
 -0.013851655375849281 0.07955987883749874 -0.009955314526885434 0.03459521704586924 -0.1555937900807677 0.09635648009124372 -0.38786107206471776 -0.7862449795433707
 -0.38288283295585196 -0.774987161665003 -0.15359428488247714 0.08977375234799236 -0.03396664541461069 0.029969340499108578 -0.06974229081281604 0.01273229846022166
 -0.15699117758440445 0.09811002440303464 -0.3887805525858164 -0.7845647217245664 -0.06720912092176748 0.011130374912622141 -0.02917896466726334 0.030255622698115377
35634910000.0 -0.018252054150064836 0.03606611294321773 -0.015096161941441777 0.07968224226487376 -0.3851307071805605 -0.7809712538842953 -0.15808546217748784 0.09821549860125885
 -0.014399443477774965 0.08016762110381981 -0.012073434170884583 0.03273826427972454 -0.1580460151966513 0.09715946628699909 -0.39684152967622666 -0.7821328029122797
 -0.3857558872664751 -0.7842566103785694 -0.15856774085693445 0.09972639091919341 0.028311323510613842 0.04569934442511588 -0.04405706646359614 0.03839322984359698
 -0.1589915018182242 0.09753435157552565 -0.38574662185526915 -0.7938671745356586 -0.05948464022383182 0.007820950952475697 -0.016623440080210557 0.015563342876211824
35704900000.0 -0.02099011050460981 0.04432740460507837 -0.015314116520333473 0.08075637631974664 -0.3871749719276305 -0.7772355590465208 -0.15759102178901965 0.10019405154539111
 -0.014160587282256148 0.08021044222086127 -0.0087132511878578 0.03643558772767535 -0.15502094470561514 0.09791233926166552 -0.39779646166100857 -0.7806117324871142
 -0.38661237124123127 -0.7764049272328042 -0.1532389709178476 0.09117231502146361 -0.0222967287014069 0.05716486142005604 -0.06262671424050738 0.02922141620477113
 -0.1563465821659135 0.09961948723606752 -0.396945030166249 -0.788668023497392 -0.07295754401786182 0.048845797725053416 -0.05573315314727894 0.0390594306243795
35774890000.0 -0.0175134114555832 0.04133039210422281 -0.01565649486240416 0.08053967962648921 -0.39418134289201007 -0.7775354724837577 -0.15342315726037936 0.09555324174288063
 -0.015890833932625532 0.08169035531790485 -0.006754173835717673 0.03181848600724331 -0.15860593753770477 0.09675839203912698 -0.40171624515786014 -0.7821723173908393
 -0.3999744052086828 -0.7782526567123099 -0.16067292526256866 0.09714109734179266 0.0067238854523327405 0.031949210386443015 -0.05186164318806663 0.016725568428748065
 -0.15957057690648518 0.09743249809689143 -0.3831290838777851 -0.7775143464459779 -0.0654429404342592 0.013609172186308496 0.012793166802453244 0.04558793119695794
35844880000.0 -0.019638844363845047 0.04015081756538346 -0.014918053402409572 0.08115045335018561 -0.3960072579642306 -0.776059133922593 -0.15317339532057675 0.10215665978031785
 -0.01584783432343133 0.08063405012120166 -0.010288739200080561 0.03425461734776019 -0.15435674002859923 0.09772475875329593 -0.4055497310694618 -0.7844947882456428
 -0.3978345797628914 -0.7766379090960097 -0.15062803402128117 0.09440564775539763 -0.01669560223720676 0.013655560029787536 -0.056406210345038836 0.016710208259444755
 -0.1565088515542176 0.10049772827894463 -0.39355301282318617 -0.7791633642519988 -0.06174066236646114 0.007999098781360155 0.0005762117801021693 0.03877113749489794
35914870000.0 -0.017488722766748465 0.04760652989431881 -0.015639722234959724 0.08184968975107854 -0.3969025529528442 -0.7741057709731094 -0.1562834112596618 0.09885592903487918
 -0.013931497151558576 0.0825992192477274 -0.007590184036664436 0.040988899742016464 -0.15096141094944726 0.10095114918903803 -0.4075784767992563 -0.7751519843597802
 -0.3929787587084886 -0.7701540361353892 -0.15028047664252137 0.09128001878782617 -0.020381246654277027 0.04417282244506941 -0.05550794168492178 -0.004060469623047123
 -0.15515498347627535 0.10102005499788148 -0.40538093260079705 -0.7774204892708463 -0.059590736727805634 0.033290352794612635 -0.018707966826630267 0.03111584593456237
35984860000.0 -0.018980269393428537 0.03919987239877682 -0.01757297008646906 0.08204673277805558 -0.405399946703614 -0.7725236116789322 -0.15634381006011724 0.0992195644536508
 -0.01513857492580275 0.0828009986402125 -0.008142799022180541 0.0319834863322517 -0.14899078328046653 0.10218885432474906 -0.40868428166698356 -0.7783925371014715
 -0.40399743190024295 -0.7714078612340317 -0.14834458177905827 0.09816479810584473 -0.034965987190469186 0.027480751542732773 -0.05308074401177094 0.02653104905811268
 -0.1569084545170834 0.10347306517125603 -0.4011674212697889 -0.7818725137471468 -0.05037978915682109 0.032544022733288956 -0.0018591335306026998 0.020012369002751735
36054850000.0 -0.018975556068047336 0.04423639606154292 -0.016436259856958336 0.08274084227123168 -0.4069184630727923 -0.770758856398004 -0.15656323315770745 0.10269737210876193
 -0.0150149113538318 0.08282302030798247 -0.012607917112740947 0.04001935049815943 -0.15115710679272337 0.10137664501548653 -0.41866613786365525 -0.7745620676396823
 -0.3964151530755102 -0.7684614648937211 -0.15556099274008336 0.09275835596704934 0.0033317361425413304 0.044196049880737415 -0.0499026567908215 0.006620144286051126
 -0.15478913175405276 0.1029402035538538 -0.4107677268915535 -0.7840622657558869 -0.043597562763854125 0.026069458651183295 -0.02545489226441317 -0.014242179641646788
36124840000.0 -0.014090544049147448 0.04792342318744521 -0.01579458699486177 0.0835113933668451 -0.4043800431097052 -0.7678518521976777 -0.15321431636463562 0.10355459306150586
 -0.014761235832616551 0.08300839514534322 -0.004234340218736243 0.03983846744434393 -0.15303193073801719 0.10315684441552078 -0.4139110859892054 -0.7660461287812013
 -0.408491644514139 -0.7613103674163433 -0.1576563107407603 0.09504845707284468 -0.039449966927430295 0.040943919592275654 -0.08817127278898905 0.017224694839909047
 -0.15061666406309937 0.10287011727333376 -0.4100478271235446 -0.7735214521286087 -0.06910303505338947 0.03141242815019165 -0.023844673317916152 0.021052695865226772
36194830000.0 -0.021480148746864762 0.039787098736421195 -0.016738493871632728 0.08617311063331845 -0.40968614985362317 -0.7637957399584339 -0.15393627404701637 0.10463697960408541
 -0.016840472255647623 0.08539472778571519 -0.013526286203701584 0.030192433081997726 -0.15060588518288334 0.10334415799902678 -0.41445025985296136 -0.7703520796917958
 -0.4070754294976708 -0.7689420338746179 -0.15931649918048968 0.10379373478410009 -0.0349003341305415 0.043959295279128556 -0.045208941933197196 0.026988987558273843
 -0.1523303283733312 0.10562727050742043 -0.41044249203700245 -0.7784108866403249 -0.05204995744871151 0.041825912336000165 -0.019193177789375196 0.04645219092666695
36264820000.0 -0.019059119415114126 0.049159227552371405 -0.017815900282366792 0.08452130328125103 -0.4131700149505819 -0.7621854013388946 -0.15533392452105743 0.10477050500469036
 -0.01731072905167458 0.08429245656892634 -0.007399992564011489 0.039006231799330965 -0.15260075865506043 0.10123881264283276 -0.41588700092915404 -0.7700693720336776
 -0.41172116138972636 -0.7606434963155742 -0.15645675350949426 0.09880010728453475 -0.005408820959184609 0.03182283059319019 -0.05234202380380485 0.002859206376927687
 -0.15262220601391915 0.1013704694209292 -0.4116568783241412 -0.775045937270471 -0.06446790657627635 0.0391228571882627 0.010477854878732616 0.02165358949192343
36334810000.0 -0.014842262610151686 0.0451919060479017 -0.01768356301825051 0.0859313351537962 -0.4174051793045353 -0.7619167563567828 -0.15414269387236093 0.10736713312302701
 -0.017595735077520176 0.08672051939960884 0.000915456224167163 0.03689651635711534 -0.15351491612861226 0.09709010796057775 -0.4233805611018738 -0.7660959127551192
 -0.421308633707274 -0.7678107589807288 -0.15455020955198268 0.09689091138003858 0.009860919976224328 0.006318069414281841 -0.03827584424974692 0.004725792157218457
 -0.15675349927115448 0.11062250609560592 -0.41310068069664463 -0.7728051036391332 -0.045911874345660714 0.011553905655189742 -0.07262042242855868 0.03510545839736552
36404800000.0 -0.02361019901971342 0.041258953493341036 -0.017888207856499326 0.08657976726509878 -0.42047392179532894 -0.760770559921544 -0.1538871266954427 0.1061941084758607
 -0.01748591180877091 0.08771557491524215 -0.014571894372810206 0.031726191992046876 -0.1578730602907348 0.10585886846025983 -0.428742428438223 -0.7629394688081352
 -0.41654769622618615 -0.7663048974118677 -0.1544222274098718 0.10865744708788173 -0.002911280654734094 -0.021955054810160392 -0.07538694729243929 0.023086666391948826
 -0.1503687924375965 0.107561413962924 -0.42479518580487063 -0.7734540487079109 -0.06169757872423443 0.012101899863881067 -0.03235639812509998 0.042776619662602336
36474790000.0 -0.017815170594731054 0.04840639776809566 -0.01867309101557717 0.08787487293375142 -0.4220409012744575 -0.7613976104793629 -0.15418635254501875 0.10717188526534878
 -0.01805607591598389 0.0872055886013237 -0.010237747818277066 0.04221170873805967 -0.15162453024013042 0.10383425405962099 -0.42633021519477815 -0.7651437976541388
 -0.4271876368213503 -0.7614667268712322 -0.15420590292430023 0.10555971041832429 -0.006185830226612815 0.02386847072783613 -0.04371150816198321 0.023775807054574112
 -0.15568584530361895 0.10614515322815449 -0.43426536819194766 -0.7804035645837605 -0.07805596477868713 0.026786187124655532 -0.02692301546286719 0.013067017215543975
36544780000.0 -0.013066511688179499 0.043093468662275924 -0.0180349396899875 0.08669644982026077 -0.42454221761033556 -0.7567264760714019 -0.15523517536990983 0.11026771051517018
 -0.018219432005368835 0.08715526712317141 0.0024099754358408534 0.034768761238210794 -0.15559786723614433 0.1103750463226142 -0.43220246480418795 -0.7603441919835184
 -0.4307587727720088 -0.7598682321783874 -0.15464377038191107 0.10162834049135679 0.0028717422405665225 -0.024435192635095228 -0.06385913144887181 0.02386210500839835
 -0.15534335079416345 0.10735478184907317 -0.42542596724474363 -0.7657385367629862 -0.07740375085338157 0.023802891130965575 -0.007579208117529935 0.008194606494778305
36614770000.0 -0.023929892936300656 0.04603361114342414 -0.017389824219199965 0.0866238536855402 -0.429522876816293 -0.7523135755767745 -0.15538501475035058 0.10814266927633578
 -0.01784493428583287 0.08745825817186995 -0.013584898120522017 0.038147455141661075 -0.1531254502126953 0.1122663631550769 -0.4344347715963129 -0.759060381290347
 -0.43014699400346873 -0.7490616953462327 -0.14459794895291267 0.11612724550128245 0.0027205796920660775 -0.009024364349078733 -0.07832932825883404 0.02702081203966611
 -0.14725172493634722 0.10605485536480337 -0.42787938018613353 -0.7519016897553481 -0.06444932134844347 0.04060915724333972 -0.010001679015198536 0.028107070110868777
36684760000.0 -0.01487897216824867 0.04796600527553975 -0.01916970906103628 0.08853697531603714 -0.42996070875107645 -0.7533521944081399 -0.15522513783699107 0.1098925088402591
 -0.018817556969190272 0.08844917939919095 -0.004950868788341269 0.044806121717364054 -0.15193077077591113 0.1107796695973487 -0.4347029308944811 -0.7535470435522243
 -0.42770462289064853 -0.7469473748422938 -0.14627300888341993 0.11211435106186406 -0.021311656407272703 0.020091307162509755 -0.05322038698239484 0.04140648090802538
 -0.15355288308226359 0.11154386542393997 -0.42876565799947036 -0.7558479600400667 -0.07693633610578976 0.028861931799491255 -0.05798393722963973 0.037163032866928306
36754750000.0 -0.012626551266052687 0.0402578843811002 -0.018860363326229004 0.08882479230954257 -0.4328033042216735 -0.7478457359997418 -0.1528586219739788 0.1099683541103357
 -0.019320631507537885 0.09154991876434336 -0.004091212426487258 0.029799928649671004 -0.15482728366361115 0.10973786691794311 -0.44056830594284757 -0.757270042159659
 -0.42820486743976877 -0.7487450279467484 -0.14722319095040567 0.11246823275172693 -0.025490706868893584 0.03226965329378141 -0.0682182838907461 0.021603296586579154
 -0.15970644226908245 0.11690884997548082 -0.4349449679887948 -0.7647587307859872 -0.07712306014899553 0.022447926742097148 -0.002437678334483733 0.02759385766101884
36824740000.0 -0.02319132032193098 0.049063168865003996 -0.018110470155618497 0.09033533471823237 -0.43694543929957924 -0.7441363997448777 -0.15226247734936016 0.11283165905062152
 -0.018755991054757996 0.09082147602912169 -0.016339706195805243 0.038583211901424795 -0.15126258314305602 0.11232972574127062 -0.44227915342572727 -0.7564638652016625
 -0.4362775866438088 -0.7485898286159258 -0.14851598129519125 0.10959628383951434 -0.06739307618715797 0.05035063445453175 -0.05098028870837604 0.029448077510027842
 -0.15324125213140924 0.1160195257914543 -0.44734713680561816 -0.7587813796365588 -0.06889789898117309 0.033223211891786696 -0.020239357735001535 0.006956446681075932
36894730000.0 -0.014124545683246911 0.04870075119397706 -0.019985989823890816 0.09139881314939835 -0.4392171058535469 -0.7474552974905654 -0.1536582354874666 0.1124105911716119
 -0.019296270404932224 0.09032744856799034 -0.0036036175101661367 0.04693449486710083 -0.14994059362782164 0.1150505536535794 -0.446719615875607 -0.7526218826193438
 -0.4374856547694695 -0.7466373139410188 -0.15235439000628903 0.1062744073213974 -0.036571844923762566 0.05506006148217879 -0.04677922113030335 0.04028096008408763
 -0.15091578354255003 0.11203868130736015 -0.438746546407443 -0.7578771267583173 -0.06682483181823211 0.026515178051047184 -0.0167058635949624 0.02020253364136406
36964720000.0 -0.017273424840393802 0.040618717456065004 -0.020440372239799914 0.09221046191219963 -0.44413445801844864 -0.7491509489258373 -0.1499394865565251 0.11658313341482865
 -0.019779364234545824 0.09233482520451776 -0.005601175490794203 0.029994756190495225 -0.15293902877429552 0.11211532153476815 -0.4489721301506866 -0.7533281401726486
 -0.4484737507298074 -0.7535771256378282 -0.15240125078100047 0.11339005350191912 0.004339621325537831 0.006995319157852536 -0.08483432101278955 0.051030448043291536
 -0.14987799736163476 0.1146260323689571 -0.4466891913202073 -0.7462627513875172 -0.049232793429898655 0.022819062732465405 -0.04195252097507333 0.048363560110388684
37034710000.0 -0.02037001868892267 0.0514293868299714 -0.018886236263418062 0.0915207048745157 -0.44182698363400785 -0.7438375167272064 -0.1540954570971539 0.11591824653096064
 -0.018096362903558854 0.09231383260058125 -0.012488856040320948 0.04207617156481083 -0.1499632433700279 0.11185123916763948 -0.44922080807432896 -0.7487622633137948
 -0.43735881503168994 -0.7390563707718035 -0.14622538048342185 0.11291312087380212 -0.020868844740393723 0.054308812383828384 -0.08486200104785065 0.031463493509599774
 -0.15295383025315823 0.11723417447732205 -0.4470251949803586 -0.7489255408838916 -0.03980483469770858 0.048508546280920994 -0.01758851625082493 0.03958102792966745
37104700000.0 -0.011665743190032198 0.048231452401529075 -0.02178687443444545 0.09209962477606175 -0.45105347979981775 -0.7411851458689463 -0.15170733787543544 0.11371929479831357
 -0.01990410473009779 0.09259123016008845 -0.0002676321565693743 0.04582517091790418 -0.14784485792107055 0.11405001620740375 -0.4551951043480859 -0.7435913959239117
 -0.44517250452311646 -0.7424785768610748 -0.1413915092719518 0.11774151992827454 -0.029714840091389274 0.04942643821483098 -0.0784542808048307 0.054989394114283725
 -0.151069155340999 0.1157122172300848 -0.447354917932912 -0.7447179136224819 -0.05088486579947919 0.030251433360991748 -0.044807562598592865 0.03783865760618586
37174690000.0 -0.01829517947627064 0.04315937137657467 -0.02164794079783015 0.09498522206907475 -0.45067558483911907 -0.7390819895754416 -0.15248953116515096 0.12367098436380837
 -0.021239569340950323 0.09381214353973971 -0.006933754797016059 0.03539723288547795 -0.14968694882346195 0.10701524041534724 -0.4626423466370017 -0.7416463872119468
 -0.4495353690871252 -0.752280449228353 -0.1519290669069279 0.10223688280313939 0.009919012653279805 0.07974000054789014 -0.06374559857781086 0.008593933651749814
 -0.1485748570969256 0.11680187703073588 -0.4535845060643642 -0.7330101254855045 -0.05989570693925575 0.021780130988625787 -0.06377778527993287 0.045949104337442696
37244680000.0 -0.016277441131939078 0.0541477051672045 -0.02044165868667013 0.09367771405040569 -0.44960006846974393 -0.736311718784719 -0.14938834949008878 0.11792689942578918
 -0.020084241491323127 0.09496642078305488 -0.01038885143928048 0.047096368873265744 -0.15009100179619644 0.1102402995741982 -0.4556227205604237 -0.7454932622380769
 -0.44369303591509146 -0.7356867208560947 -0.15388870756851605 0.1046231039654981 0.006588383305364432 0.07727342893420347 -0.03764193784177295 0.037139046566411045
 -0.1522301683876749 0.11790234178888293 -0.4483409721140353 -0.7438161040998829 -0.0482403095605074 0.0388884757861346 -0.018327274471308885 0.03333815329455239
37314670000.0 -0.014721136582878484 0.04840679299167801 -0.020062085884585447 0.09586711058648409 -0.4544608302713162 -0.7332874478488386 -0.15736830742948477 0.12011882033484526
 -0.02119569243276238 0.09446080923459801 0.00042343967034213673 0.04529273241279166 -0.14963768965981047 0.1169901288349036 -0.4604615964048404 -0.7362862325593995
 -0.4577685904487887 -0.7348097967010898 -0.14816590140905334 0.11874446016671275 0.011665476380279507 0.03824479845116316 -0.08566457197197377 0.013119385742271464
 -0.15005450112212207 0.11858076472787442 -0.4693805598379654 -0.7349754161471732 -0.08777515575588948 0.03685474234134515 -0.043963798207548456 -0.006278974820705544
37384660000.0 -0.016610510587954503 0.04633554387052702 -0.022679132086843152 0.09587146434105577 -0.45543927070376905 -0.7316197819009531 -0.15178333852719408 0.12081265873847338
 -0.021542280424835636 0.0958183024737935 -0.007874795967152607 0.036324143584866284 -0.14613755206665865 0.11727017380449602 -0.46572673466594405 -0.7396130327524019
 -0.4565747184116909 -0.7310129277525198 -0.1526663799732369 0.11214091300829372 -0.04095019511656309 0.042745308710836316 -0.08382337440597713 0.051063849712002285
 -0.1567131900017141 0.12100248701772676 -0.4658587880090491 -0.7405936452533969 -0.06701871199022406 0.028513350017908654 -0.006489182035545745 0.01550095682523159
37454650000.0 -0.013471817587840669 0.054037330496663885 -0.020221050972717494 0.09491830471380351 -0.4560888174676762 -0.7290647943748262 -0.15142984972137563 0.11619705029776824
 -0.0210296032845907 0.09588988406281414 -0.00492671689766148 0.048738416614340835 -0.1506977660792775 0.11966742712881208 -0.4636603217685991 -0.7382359687372764
 -0.4634908674167781 -0.7322755711162383 -0.1437715730818427 0.12054719520882604 -0.029584412774738333 0.03177939999333681 -0.07043749648368335 0.025904507731779623
 -0.14832590341287394 0.11797910160277882 -0.45804302888623677 -0.747352881989082 -0.060466112524794884 0.047367706743110825 0.025510699485850098 0.05923543760538207
37524640000.0 -0.014619329321271907 0.05080423686040889 -0.021194573679452152 0.09712971517868921 -0.46160494628428794 -0.7244072114021495 -0.15260907245088778 0.12279077041740148
 -0.021282402060881812 0.09573457415260755 -0.0016367396663408739 0.04114035864835902 -0.15241880617190448 0.11976655449603418 -0.47088408164804624 -0.7312435224837642
 -0.46484864248377095 -0.7277139479847666 -0.14524803683827645 0.11736497597293334 -0.009858176684302614 0.04989940689324117 -0.07140408695412274 0.015866780131327557
 -0.14959066460559814 0.11679148978129761 -0.47751771238308965 -0.7417924181934324 -0.09625290620443208 0.0015409635452548437 -0.04132521627818055 0.01280889108157447
37594630000.0 -0.018998055505861866 0.052614640463323405 -0.021066836747118015 0.09799427710540853 -0.46907059921303307 -0.7206933562061905 -0.15363899189387248 0.12287466079073807
 -0.021257976946608404 0.0968310563875941 -0.006521228336352611 0.04120511205827674 -0.1490553805735331 0.11796923234981044 -0.476570612028783 -0.7364067041100923
 -0.4688516149146797 -0.7264873408599918 -0.1519544527966329 0.12168666449641923 -0.017462544375908943 0.0024858789122095873 -0.08779413111197873 0.038501835420391886
 -0.1532160315507782 0.12037871990517188 -0.4686322820396272 -0.7389536488551445 -0.06733129094820345 0.022726223496978008 -0.014791835130474005 0.016119056773027274
37664620000.0 -0.010647589817338099 0.05505098057529869 -0.021793915115160583 0.09618967047017493 -0.4686184526034221 -0.7201993540904854 -0.15312652013130523 0.12100235366698504
 -0.020594778284498263 0.09551042514587751 -8.902750498914818e-05 0.04960029967598854 -0.14951430208569233 0.1208545285659488 -0.4761149959324888 -0.7293762622267469
 -0.45726031526471866 -0.7161375535327988 -0.15289145106690247 0.1137925036221368 -0.005868027451605895 0.05070727538797603 -0.07590660819770154 0.025863633862308923
 -0.1509504928438668 0.121263242326415 -0.46718020505900576 -0.7313358400479045 -0.07178420549931913 0.03332629653371705 -0.0024881281931623672 -0.009835224484622039
37734610000.0 -0.016812706348328543 0.05026304208998969 -0.021825402913240602 0.09821437551257507 -0.47077520815515805 -0.721837200590336 -0.1494260295532598 0.11929377238382817
 -0.021677698796838236 0.0991733946613751 -0.005188605738628639 0.041354698501819394 -0.15408064164595547 0.11998781425665704 -0.47836379304459636 -0.7263564203813007
 -0.46951477152561294 -0.7223102099708059 -0.15457465614219323 0.11098032222465314 -0.01533086179352317 0.05107580795053838 -0.056841208739334875 0.019206521760333158
 -0.15527015201714678 0.12120912140774673 -0.46299065375039294 -0.7328714585588902 -0.07736453806962587 0.02145479442416383 0.005045111732937046 0.053964770911806084
37804600000.0 -0.014385387921622961 0.05789245441037919 -0.021549529286375945 0.09857713477814428 -0.46847853069443157 -0.723714331263857 -0.14689201697748255 0.12426351604756214
 -0.021955872058802128 0.0987599740737305 -0.004815437341853513 0.0464988866053244 -0.14859852074341848 0.11886134357016742 -0.4806198215318596 -0.7309395796370808
 -0.4701911642251931 -0.7177096865862659 -0.14541282495183208 0.12343646137697768 -0.010300942646974879 0.07064967155857732 -0.03958561671435049 0.05626136687535501
 -0.14700908206718336 0.12298931358182622 -0.4715545798110634 -0.7324335829284957 -0.09121056916623586 0.026322956510737607 -0.027645083758681056 0.05327654690406042
37874590000.0 -0.007827539480001075 0.050682591616743086 -0.02218650886525052 0.09866687959949261 -0.47229960008012084 -0.7182859625826743 -0.14822864104285108 0.12646505238484856
 -0.021800629162122463 0.09843140052889567 0.001669532137914143 0.04644731601533147 -0.14911501258719617 0.11965734047346208 -0.478682124221437 -0.7186335922557293
 -0.4762633094716117 -0.7233566353828744 -0.1477727241592552 0.12725454375482356 0.009955061871783058 0.0331271993506896 -0.09432500879665863 0.04018166683545353
 -0.14694478765308985 0.12520449625917088 -0.4770695601983119 -0.7135185751148803 -0.07266458336073027 0.04169240272200265 -0.05039632637036686 0.05535261400995483
37944580000.0 -0.020085807229958518 0.056232898099592955 -0.02178166983135249 0.09925620261161103 -0.4768781396892542 -0.7127502617189965 -0.14446910907899618 0.12659656891287344
 -0.022081767048550787 0.09981297109106528 -0.005312774656503354 0.042514715350924576 -0.14876580407632972 0.12467234016217117 -0.4878246269620154 -0.7118873712913297
 -0.4794077008009341 -0.7197446632720084 -0.1458733413784904 0.11643498654061205 -0.023088261961035552 0.031029949709054518 -0.056929537192674545 0.02854461106538638
 -0.1490041004437609 0.12761770766236596 -0.4862057706926277 -0.7161046712207406 -0.07825463027329621 0.03805158774831816 -0.059863895485503874 0.019938904057556873
38014570000.0 -0.009052155631521385 0.05891414772118467 -0.0232456686420321 0.10035716062223185 -0.48016553093178876 -0.7133158715481571 -0.14622126002035246 0.12833331755645705
 -0.0224928302206586 0.10010341605688829 -0.0007879034101862331 0.0492017808296573 -0.14922454306789262 0.1223046702114605 -0.488181675276232 -0.7177526298883132
 -0.4741702330644587 -0.7120242898759913 -0.14595318097726828 0.12164935900877868 -0.046853577988770476 0.06499062253836749 -0.07930475430537781 0.05509792048106629
 -0.14947892128617882 0.12373795807875723 -0.4772168668903707 -0.7253615685935574 -0.056868817503719256 0.016250170420969205 -0.028196082336757376 0.036445564641004013
38084560000.0 -0.009401285775804824 0.04721177586674038 -0.022348368054118044 0.09957260944719948 -0.48489375570116267 -0.7132879208395722 -0.14741077260809893 0.1294524817096589
 -0.02127984053990545 0.1010124086604189 0.0025952105263401305 0.04445516416847995 -0.14726208533724625 0.12479986533028005 -0.49004232675926274 -0.7189222080779244
 -0.4805997374232538 -0.7122073370789266 -0.14056557303897338 0.12138861499309855 -0.015929997416731803 0.05371026005405339 -0.07909332149426909 0.05704935880047846
 -0.14528026586090864 0.13197579762637027 -0.487003590612838 -0.7152256905694178 -0.068333659721699 0.04939446882504552 -0.02362026940259448 0.031910128413084535
38154550000.0 -0.016746964341808848 0.061453780503912134 -0.02219067204578497 0.09964699908889568 -0.4859251230939448 -0.7091446032570845 -0.14915337720458857 0.12766570365800398
 -0.021023369330586753 0.10175947405911906 -0.0032604405382427107 0.0447640172865598 -0.14572690144557576 0.13058350179945774 -0.49458027599311544 -0.7171812701552809
 -0.4971847680129902 -0.703432446584469 -0.14114242018463954 0.12489949555660602 -0.05619732215767262 0.008106768300994825 -0.07762228851460858 0.0562056850329321
 -0.14995183581772073 0.12838813502884938 -0.48646162144101357 -0.7263467955938848 -0.07346830362285883 0.046468606755221006 -0.0003690645432334385 0.05539248651639048
38224540000.0 -0.002744133520902017 0.059454317791846574 -0.02263908819518177 0.10310403813244873 -0.4884621053979926 -0.7089949767252217 -0.14882855722778854 0.13159460823757455
 -0.022138402090912657 0.10171070690015954 -0.0008441687158381125 0.053216016804963635 -0.14969575860743806 0.12739567059756915 -0.49780783959838515 -0.716673244279999
 -0.4882675028358385 -0.7009339324620661 -0.14634504548579583 0.12816052657127344 -0.007905698162817394 0.05173812919773946 -0.09147568339961888 0.04221830563593582
 -0.1398566318329434 0.13349773881265428 -0.48889517154766643 -0.7129745079298557 -0.08064165241772714 0.03785961465179339 -0.07342047794814581 0.004168345536411922
38294530000.0 -0.015509085602763394 0.04580356152759027 -0.022622967679439596 0.10303319667668692 -0.4949530562960797 -0.7055418672359604 -0.1472038539835453 0.13131524128161176
 -0.023733469575464346 0.10311373181754 0.0009406123825156637 0.04129185077620577 -0.14737713281694192 0.12891264635900643 -0.4908329953073721 -0.7064449979066393
 -0.4892792758317601 -0.7107916479706436 -0.1512573905716282 0.12563429003700347 -0.002671724603002109 0.055193607383593794 -0.08254484112569417 0.035285520682724836
 -0.14980568930822258 0.1315987122009933 -0.49012059768349947 -0.7133672574526084 -0.08469126505113345 0.06615521480949954 -0.047337379477620886 0.0756545306885321
38364520000.0 -0.014462142308161641 0.06478381659885579 -0.022694873480756855 0.10248253283968639 -0.49529192604286304 -0.7018505652534536 -0.14962219220024134 0.13339707151610417
 -0.02220897826125505 0.10277008982132346 -0.006198002068709382 0.04654568209729762 -0.1452984370973979 0.1285139393356836 -0.4976820168184806 -0.7138617241430513
 -0.5018147846294733 -0.7025349378521664 -0.14498516265394587 0.13049849802212213 -0.051125967628470784 0.01196663703396645 -0.09934647854458326 0.047030464604824934
 -0.14657635521069906 0.13149835710527044 -0.4969849864562272 -0.7145832239459867 -0.059564116879066945 0.04356353940934231 0.03608528768470039 0.032302511771799235
38434510000.0 0.0021090492050504193 0.05409693983998279 -0.02058272003046357 0.10350653334410855 -0.495751927278117 -0.6986515539399862 -0.1459670590982534 0.13414415293498594
 -0.022105730202115172 0.10293606725942933 0.0016288173889189102 0.055170549715603714 -0.14151002882955455 0.13409286851740693 -0.5095452242195173 -0.7025477613529866
 -0.49284478340314103 -0.6946804578846213 -0.1355979830782566 0.1376448707817279 -0.04660231548781772 0.07919624257643297 -0.0958807368229219 0.058416343216723496
 -0.14446578037406682 0.13104549727606335 -0.5139839766866364 -0.6994536177131483 -0.07605507355697647 0.06381574837409919 -0.08913504018093048 0.017337721205644557
38504500000.0 -0.01822850477714123 0.05060723056819674 -0.021989808068718173 0.10592034485814412 -0.5007168110562281 -0.6948410568978017 -0.14146805820374211 0.13415247832951632
 -0.024242804569001065 0.10510755221715436 -0.002076643957372576 0.03830847252911928 -0.1466340235449352 0.1295402370912407 -0.5061021675322626 -0.7071611106800526
 -0.5062564769686287 -0.7000833529494175 -0.1549710588122464 0.13758345668818664 -0.03146200387949089 0.03141580228945032 -0.09211167386242403 0.045672745083691374
 -0.14353851978977486 0.13085246150280025 -0.50298640148796 -0.6970385311567294 -0.06028932225910021 0.03465487746925316 -0.03968751261217429 0.07903075462952243
38574490000.0 -0.008729146302435691 0.06631258748770988 -0.023204181562987283 0.10499418969937223 -0.4969581541783579 -0.6975359322775442 -0.14514206003763636 0.13440631508654963
 -0.023325457820571594 0.1060434934119738 -0.004826799098788457 0.05096374789342411 -0.14500688679599127 0.13565707294473692 -0.5093101666125257 -0.7013270139273666
 -0.5078227927621043 -0.7007182952933956 -0.14020814340126628 0.1288232583814633 -0.03549959503946915 0.04555742384755797 -0.08440504002056683 0.0423697604085636
 -0.1470534804671012 0.13410141903343534 -0.5007855491587082 -0.6997065580409618 -0.08355083291822453 0.06222108639317878 -0.03499434474572632 0.006552616975567621
38644480000.0 -0.0024979998021547973 0.05179340599660598 -0.02424199355715657 0.10442471501232911 -0.5034689759135044 -0.6957272739020265 -0.14821086756375568 0.1321954463089294
 -0.022423498154592734 0.10441576428956821 0.0069710061209459035 0.05109983304315997 -0.1426421181912626 0.13376165284093852 -0.5090173542802636 -0.6939682100508668
 -0.5091226215016739 -0.6977208457218533 -0.14141828836576587 0.13498414584176782 -0.008976182627433923 0.017084065676442745 -0.1038366224801594 0.06970194418354918
 -0.1493129176444617 0.13082041045021592 -0.5033357822539126 -0.7117370547321651 -0.09032609770818993 0.04621583382571069 0.015331431813603963 0.05929949702487308
38714470000.0 -0.01687722873020896 0.054287308633532955 -0.025334707743702854 0.10685259751047071 -0.5038843962364186 -0.691433892111456 -0.14873184638998435 0.1391072959739294
 -0.02354697814350916 0.10578969125850168 -0.003518475352242467 0.039567874618357146 -0.1437115911434192 0.1344156671864385 -0.5137957419183509 -0.7042541273998787
 -0.5075542555798567 -0.6908401910492313 -0.15109235671936086 0.13552315635455997 -0.03604735029928959 0.038715209554949157 -0.11238535142824889 0.0545808483985667
 -0.13959098610451154 0.133836287630771 -0.5204333042725963 -0.7054421980436897 -0.08698763684478376 0.07049425628359128 0.01933029783909582 0.022376799711889748
38784460000.0 -0.0012769341747621511 0.06361749021453116 -0.024038641498537183 0.1066548452818564 -0.509623909299679 -0.6880489016675133 -0.15215249360023356 0.1319320845379683
 -0.023388193481796993 0.10544332489649842 -0.005721755684545341 0.052372769872569114 -0.14574019709224825 0.1341286314233576 -0.5172518413875543 -0.699130368220384
 -0.5074080555627901 -0.6883925188993485 -0.14215363352656377 0.13966228975377148 -0.048737817897414513 0.050363307223801404 -0.06795841981626029 0.051239916579743444
 -0.14539435893989575 0.12924243135282693 -0.5089132597614184 -0.7045546392412322 -0.07195137630226754 0.05337893546826293 -0.00781559860979051 0.03652056877688027
38854450000.0 -0.006175839281768992 0.050229973158403975 -0.022909674994050604 0.1068067861617219 -0.5057068938194696 -0.6869527744538878 -0.146116661042406 0.1398347372561004
 -0.022990408228241457 0.10562065290061227 0.007306863988882029 0.05107076752812315 -0.14711899611992887 0.12946163110571304 -0.5221773747818625 -0.6882500382486979
 -0.5114929057110861 -0.6848798124160933 -0.1386854515414943 0.12964704121597495 -0.04154450029714624 0.046526080347920634 -0.06262606534303664 0.060332548904932226
 -0.1438300998448536 0.1381055488883482 -0.5214512271133142 -0.6716237542152742 -0.08526495938618989 0.039543591142908556 -0.05428825337399012 0.04964362112428641
38924440000.0 -0.01494950545943231 0.05956795554135752 -0.024275793530845705 0.10820086005984877 -0.5148419059274124 -0.6856850986085287 -0.14255286073921652 0.14280138131786638
 -0.02210166753400374 0.1084094263758667 -0.007634262718286163 0.04172994778130407 -0.139005702442865 0.13606361997442928 -0.5257500553780972 -0.6850494981658196
 -0.5182226480979617 -0.6840238013918312 -0.14464320824980942 0.1337611240441284 -0.009837744386912666 0.01852838862365098 -0.12259523159747163 0.06203450312958933
 -0.14747864071563546 0.1446710591119337 -0.5199290738245418 -0.6974494460389978 -0.08567467131875073 0.04905006506703092 -0.015105457546386225 0.01748447338841086
38994430000.0 -0.006776207415589332 0.0595991345717884 -0.02396478912608267 0.10932741988716929 -0.5145485070555104 -0.6821128132213536 -0.14751512824603416 0.14212369258027407
 -0.022691911748923394 0.10891821479138193 -0.002932871031748117 0.05306794412393641 -0.14551215862805822 0.13416758407798665 -0.5227178807826373 -0.6908135351953298
 -0.5174364803091289 -0.6882496041893283 -0.14774788847652007 0.13666141185220174 -0.019941755588021616 0.07420395192793934 -0.08552183144264626 0.056545366888970945
 -0.14360131854323585 0.14148807938554692 -0.5223740760652524 -0.6918260433633525 -0.07792009852578481 0.03744180476303691 0.009764526780490319 0.021919634508596842
39064420000.0 -0.008306509411917868 0.05470916052613873 -0.025265442247334742 0.10976611844759256 -0.5246924507412656 -0.6850889095020072 -0.1419295595465354 0.13755564418519017
 -0.02337490455498951 0.11161489371158258 0.004900178285296869 0.044076804617349495 -0.14705716981144706 0.14108731273626948 -0.5296388414668496 -0.6908777104821757
 -0.5269384034139417 -0.6775089140985623 -0.14298907539443972 0.13226987128624962 -0.01660322539925369 0.0025978284806185375 -0.06010388018926391 0.06694290197950069
 -0.14213576717816537 0.13808880367897125 -0.5240277933142783 -0.688812097120518 -0.10249377735733828 0.04152445760376414 -0.0021300720938181067 0.04197314162125213
39134410000.0 -0.00847175953839877 0.060445264995518236 -0.0234311763700303 0.10980992387131117 -0.5298495890728118 -0.6734952762994165 -0.14054741848992214 0.14495367867063452
 -0.02328054618408418 0.10897258961098225 -0.004419388742817785 0.04605482297426491 -0.14903366047403707 0.1456859139250443 -0.5267163355865428 -0.6809384824933613
 -0.5279621520417292 -0.6780898109706553 -0.142899376815885 0.13685089172297493 -0.007252175388869685 0.0038840367843236356 -0.09770151815856105 0.06622577341996723
 -0.13982807656430088 0.14103199869531 -0.5388252578473174 -0.6771026285367971 -0.10199419889788652 0.06539266999283348 -0.054506432152962615 -0.0037743712070739273
39204400000.0 -0.007298463894206842 0.05873187285994842 -0.0238425842223338 0.1113152438662221 -0.518997920773468 -0.6778839430383915 -0.13837399286873395 0.1460861637178797
 -0.024109655166586582 0.11044812213683661 0.003655807345342516 0.053464013559807774 -0.14535344187536145 0.12943603777266285 -0.5336196639062271 -0.6845078363694933
 -0.5317575259662113 -0.6813389393962045 -0.1416184516506193 0.13510908697150292 0.009382746597377523 0.08203597576220054 -0.050459859376340906 0.09102862385609678
 -0.13650485367032877 0.1507943876489596 -0.5367338585635427 -0.6736681472252262 -0.07796234514010222 0.06205493807888926 -0.07726087724926536 -0.003386793125973784
39274390000.0 -0.008571997052723655 0.05765659735796915 -0.02490313049089128 0.1115574394810114 -0.5284457805593777 -0.6720825384268785 -0.14038352087930714 0.13755387987690124
 -0.024545277731128957 0.11177598626822706 -0.0010857390190271994 0.044823434449889205 -0.1345297207638031 0.14270756473639037 -0.5345461673631484 -0.6764061307082622
 -0.5245779166152008 -0.6728246459346752 -0.13588154688835125 0.14512138081407236 -0.0644729432561441 0.058780126179167745 -0.07279868869203628 0.05070671827280237
 -0.13696660326867555 0.14000444633699627 -0.527585027671045 -0.6833371875323633 -0.0720650160233465 0.08122387249773391 -0.05352334635927327 0.06165823410909813
39344380000.0 -0.006214008700134705 0.05791585764890469 -0.024288689547000548 0.11244985457055255 -0.5296239504964662 -0.6702569896495929 -0.1424630969996301 0.14271445006574512
 -0.02296232105258982 0.11160162624160633 -0.00028710609640853613 0.05421823942401024 -0.14340313302907562 0.13914747309374784 -0.5384898844677509 -0.6769891176680288
 -0.5312983954133028 -0.6770544045344973 -0.1455696688393453 0.14535488668542235 0.017022592396847114 0.05900699875769737 -0.09669377704377677 0.0512503181093475
 -0.14455060246580295 0.1454084002784907 -0.5519598654512624 -0.6869291580798789 -0.06824780261773516 0.03760490531285074 0.009466127523766835 -0.01653641220210402
39414370000.0 -0.01122627474582255 0.0574777643365148 -0.02291664348247295 0.112000390688782 -0.5335622718666846 -0.6711595219942583 -0.14003499923057167 0.1440866611949731
 -0.02371259284010224 0.11246789093407429 0.003225474312028638 0.04784492117874128 -0.1403877107408437 0.14091746816702874 -0.5393413542211332 -0.6778215798587385
 -0.5338174822715436 -0.6693339104305327 -0.1472147242330834 0.14727794459439117 0.019824325022382124 0.03299801794009471 -0.09577083101827245 0.07394190957953868
 -0.13736241485416886 0.14627764958259645 -0.5288444088262015 -0.676909457160401 -0.08728181300694512 0.06773053347887582 -0.03162819705825287 0.04577414730448191
39484360000.0 -0.003951397630680389 0.06329075056193792 -0.026891232769794986 0.1128225506159593 -0.5309642237782138 -0.6656323798593182 -0.14307805141570604 0.1446024326728966
 -0.02624026664851771 0.1120633215249475 -0.0006382803795611485 0.046633963085003005 -0.14021217926436197 0.13887508183819933 -0.537601960583641 -0.6677799639527393
 -0.5407020607927264 -0.6715131639980438 -0.13906707896992823 0.13869669976480983 -0.01952292387483666 0.03796272586635182 -0.0544215331592591 0.05232273569088864
 -0.13727930898523158 0.14303955540935184 -0.5314207416915268 -0.6628969906399866 -0.08950210727699441 0.05668282180497176 -0.07492817252775444 0.03869451448594296
39554350000.0 -0.0040107368084676765 0.0541050156625721 -0.02245010755395461 0.1126916116801898 -0.5333279168709428 -0.664296647623648 -0.1444021475898701 0.1507011652581663
 -0.02286231277537701 0.11244116694542536 0.00303820394082347 0.05463602068218524 -0.1429327221031578 0.14091046582746436 -0.546102596824627 -0.6710477161268799
 -0.5418435087434489 -0.6595219959653822 -0.14791880227221338 0.14311119096188749 0.0004539971303655845 0.03805932693054356 -0.09842022201683245 0.006256231641216578
 -0.14318110357915545 0.1468092226628292 -0.5376643714641556 -0.6689132372621271 -0.07959882642086283 0.04831753180694448 -0.012557903832016683 0.0521034773087122
39624340000.0 -0.01286153202134761 0.06284525172128715 -0.02537410309568317 0.11465498425284658 -0.5437609769179822 -0.6669401992684627 -0.13960987576864942 0.14680785363959206
 -0.02433139216955529 0.11440147200223807 0.0034788412571503946 0.04334562390071874 -0.13842188704089817 0.14541014299880742 -0.5518478617361043 -0.6702072774807782
 -0.5400904294190557 -0.6577204436817278 -0.13900385724049297 0.14105438404329765 -0.0291649104634884 0.04374615396686959 -0.09080328331123268 0.06471604467579828
 -0.13959844482873007 0.13864757578774528 -0.5320879512881764 -0.6721975261210662 -0.07475134992897951 0.07578099902488686 0.05291741838062124 0.05563462001363605
39694330000.0 -9.938232403062058e-05 0.06239516666472852 -0.025166122149979788 0.1159862331523332 -0.5358139458777536 -0.6561774159634814 -0.13790823231579102 0.1512242604227981
 -0.024737978036743588 0.11606922219310631 -0.0038795344584175327 0.054061566554737074 -0.1415638911484228 0.14808277428616262 -0.550171110495561 -0.6639329801538553
 -0.5412046622232279 -0.6615997447702759 -0.14030136342973906 0.14495685666992947 -0.019711749778771655 0.07394455081957042 -0.07898232623850196 0.08843534680148729
 -0.1369593062650643 0.14823023899358811 -0.547294885518149 -0.6691019716289772 -0.07758721991054275 0.04495656294607442 -0.035383367413413705 0.036235143135116395
39764320000.0 -0.004488056570519293 0.05119755259090682 -0.02573229958737632 0.11597606523955976 -0.5468744412036547 -0.6565631491332168 -0.13626321547620013 0.15073460505734526
 -0.025139708101534847 0.11547054685262846 0.009031949539039708 0.054052543360292596 -0.13722484443038604 0.14786340824989433 -0.5481470859810301 -0.654424481715958
 -0.5435735330353646 -0.658362608808336 -0.1372595658388057 0.14961628687719308 -0.024795659056117084 0.03969476027286012 -0.11426634108137503 0.04309562473986829
 -0.14075660135285997 0.148803267743356 -0.5429245013624645 -0.661312958110196 -0.08289063719453453 0.08070310029757201 -0.07535299863828343 0.07966740583746149
39834310000.0 -0.012519770551013457 0.06668764057432314 -0.024392635959640467 0.11714290427120991 -0.5427794629232084 -0.6586666202117344 -0.13826825528467948 0.14940136790635933
 -0.024243360137137838 0.11656159108496085 0.0008814900332093805 0.04384875451982167 -0.13660848433913322 0.13801382281251035 -0.5516955603403166 -0.6593783648953025
 -0.5501442324283791 -0.657927783100944 -0.13335557006476983 0.15372203995114772 -0.0011177663827556627 0.03945656754117246 -0.06510102291710389 0.07555665626747783
 -0.1389183542538373 0.15345569218085633 -0.5481466434805515 -0.6635428227513589 -0.09686350657824955 0.04667244705037109 -0.020482316057160336 0.044294085754041375
39904300000.0 0.0034369253146276403 0.06833045657118215 -0.024419576660235576 0.11734206229648907 -0.549098189338318 -0.6540002017266862 -0.14302085232196807 0.15232944090486047
 -0.024298438398223553 0.11714531647271717 0.0005438693372802469 0.05926649097843465 -0.14201167834464856 0.14682490919058408 -0.5599452641814026 -0.6573428238238879
 -0.5491358531478227 -0.6575516482113043 -0.14094415559627052 0.14553708663287446 -0.05374522147020258 0.04661651927544021 -0.07785943963133127 0.06511283460816279
 -0.14146547506455887 0.14817386058155665 -0.5508305838631979 -0.6557636920437377 -0.0882796783449037 0.050215277741234216 -0.01147352692404372 0.012059638293164697
39974290000.0 -0.004030990360021097 0.04902747551639672 -0.023491317994164655 0.11945150858393071 -0.5558734228209873 -0.6489015488901246 -0.14149953601123122 0.15395615251378036
 -0.02209608296945695 0.11900070839310643 0.00999508426123709 0.05770706404247976 -0.13761300174972263 0.14783703523595745 -0.5642593938563459 -0.6517412612839905
 -0.5500646479799062 -0.6480038585593654 -0.14003906347442022 0.15072899346395924 0.0029687774631030218 0.08528566439565996 -0.08625408248670159 0.04570157200322536
 -0.14103701107173763 0.14729881591170568 -0.5619414243630256 -0.6595322800848031 -0.09996323637162145 0.02939822157951221 0.011075222334972929 0.008244591678448964
40044280000.0 -0.012027142768533262 0.0725194446973068 -0.025840425314545078 0.12036773318339786 -0.5481106551493458 -0.6513498183285924 -0.14312121268141098 0.15543884146208192
 -0.024663145955313843 0.11991569802893834 -0.0002354541535153171 0.044829047339834276 -0.1397931237059808 0.1519216712248086 -0.5621799225612922 -0.6486321586842586
 -0.5554640098099934 -0.6375508018027832 -0.1420800227723565 0.14388430007418335 -0.07196805709632106 0.09721985125538195 -0.07121683969631423 0.047842560522481294
 -0.1368996137501185 0.15706373528230858 -0.5477316511056995 -0.6687542559786143 -0.12542109155237255 0.06707837709161309 -0.027146520318655328 0.0066859134206509975
40114270000.0 0.008865479178857579 0.06592514985950815 -0.024235246837216277 0.11847848710800916 -0.5470377670105885 -0.6395942186790874 -0.13354679323250196 0.1532948393727946
 -0.023048799832479056 0.11922446646082885 0.001848416479612399 0.06648071764446849 -0.13601552610787004 0.14956351866306059 -0.5592783061461337 -0.6445089001063944
 -0.5612687255715053 -0.6394570301742207 -0.13380439954964446 0.14854226490717534 -0.050640579651436354 0.017396722322186132 -0.06981569488107642 0.07490563945262808
 -0.1322416811445863 0.1485432552226709 -0.559984093532353 -0.6413047235874104 -0.10025471936996448 0.05530523030549526 -0.07053843761657988 0.04300278989616615
40184260000.0 -0.009484017358256139 0.04842633247000738 -0.025782995976894537 0.12222221217035918 -0.5572507747096426 -0.6441093334644292 -0.13723681346158775 0.1553402091257156
 -0.02659147854792211 0.12121428615359112 0.016585767678466867 0.045083774101590694 -0.13903010466218618 0.16011466833245433 -0.5559801755468453 -0.6504839223862644
 -0.555539761496322 -0.6519635351192874 -0.12248300426760429 0.16534273617449974 -0.04340870480704584 0.04004658176063085 -0.06613982630362739 0.08667271987660015
 -0.13846675099810282 0.16147149325518617 -0.5604641314659344 -0.6543391211402301 -0.08655206665105857 0.08815908507925758 -0.07849431174876868 0.064800111089416
40254250000.0 -0.010753202823824646 0.0760980958842685 -0.020404677592867605 0.12375393160273276 -0.5561226516107698 -0.6456399476369112 -0.1339432766952543 0.1507467879695646
 -0.024493774690655553 0.12165639178013513 0.0009357356735377554 0.04936168549096329 -0.14290729122765278 0.1514746448289605 -0.5643122039522536 -0.6449855906831957
 -0.5523043006554441 -0.6445142382149146 -0.1505929545767165 0.15383523712655622 0.02304983886116885 0.05758868192046627 -0.08653613181255371 0.046015177248171744
 -0.13104929482936933 0.1472747732417342 -0.5636189463560337 -0.6451628135513949 -0.06313557252046079 0.03958122673167504 -0.018389665401398535 0.14020599924587346
40324240000.0 0.012847637872876815 0.06456052222975238 -0.024763934459794815 0.12099101177970153 -0.5591924704383856 -0.6399764282228523 -0.13611879646130048 0.15932057170497527
 -0.02467953032674061 0.11996140688822825 0.007726356868397699 0.06830853684569135 -0.13535629356460235 0.14553485226075313 -0.5768610897529227 -0.6447649152657929
 -0.5409426837808724 -0.6435450162575589 -0.13951119847321686 0.13542635889969484 0.10509619777449329 0.077644195297408 -0.09466840229393494 0.05512354520724712
 -0.13330389688742175 0.15548328489151303 -0.5566145461994532 -0.646110671458483 -0.052311131489384106 0.06782252433620056 -0.034655020051524016 0.0764362803303668
40394230000.0 -0.014511391677492928 0.049431271124117805 -0.025028144978903856 0.12624293398489228 -0.5619462681122894 -0.6313910397155827 -0.13483227262966255 0.16851024260432693
 -0.025591946180049136 0.12290568187540818 0.00987545537038179 0.047517182056711904 -0.1346508936100471 0.15225564601247418 -0.5662435873924674 -0.6377867120150785
 -0.565624588280158 -0.6370693480473876 -0.13112844436219467 0.14376362710725835 0.023887371727829124 0.038976479118939346 -0.0615663762953689 0.08471428159117608
 -0.14125165332448797 0.17108592800850994 -0.5787723619305473 -0.6517174437927149 -0.13370541866230787 0.0736717944395763 -0.03294720482463542 0.026514194572951646
40464220000.0 -0.005795449093721107 0.08354299204196355 -0.024288521307953066 0.12318270847429424 -0.5542287036382024 -0.6325354811778894 -0.14078839785776168 0.16656105924876258
 -0.02355010321591673 0.12090127774562907 -0.0017120072486062426 0.057095101343107205 -0.13612102608683332 0.15315305312413205 -0.5837158912301155 -0.6356830681264216
 -0.5682027435416397 -0.6376785165811427 -0.1412535927535146 0.15701628176637536 -0.04777649539676847 0.062344835573043295 -0.15130469222221052 0.07814702186829764
 -0.13530579584999836 0.16125059674826164 -0.5713364886754664 -0.6596340175931088 -0.08632901964951825 0.0464995206485587 -0.03959795058994763 -0.04400762719945046
40534210000.0 0.015537621374142874 0.0631385416583938 -0.02343019595818693 0.12127909140016922 -0.5734210387103915 -0.63042238506215 -0.13412960706318378 0.15006376160788654
 -0.022731643198865698 0.12224289822059181 0.012982903261933942 0.0652928083302782 -0.12861455499474297 0.14912605930104533 -0.5723377664051108 -0.6289799657434016
 -0.5683657277340045 -0.6172514652272846 -0.13324802358580262 0.1533789061714467 -0.03247379613657982 0.06731884182576557 -0.10183682489162516 0.0024255265427719644
 -0.13864979757665166 0.16442289530700036 -0.5727442448527917 -0.6405525777944598 -0.07847704446414712 0.092457106262152 -0.017118777836282344 0.09806828688796285
40604200000.0 -0.016671292450611646 0.05806358625091006 -0.0255766355022442 0.12638824415417568 -0.5779018402276631 -0.6258233795148774 -0.14160438812945725 0.16611948782927644
 -0.02235190098314204 0.12297260598810962 0.008474845203634602 0.04133699053017041 -0.13075491370619033 0.15120977678336125 -0.5923870602160585 -0.632485227091286
 -0.5858243103264335 -0.6343961426327301 -0.13221574991461302 0.14960522043678237 -0.06707192145614957 0.051641704040221094 -0.1070072987194838 0.06591245306197031
 -0.13445194853461973 0.1610801837873777 -0.5949965843559789 -0.6536497324579715 -0.08351816852240719 0.046180419866905215 -0.028607965281126538 -0.0748341510001679
40674190000.0 0.004762390366334528 0.0859470159343337 -0.02208750800672265 0.1218261345270261 -0.5747942692055084 -0.6223687581419812 -0.1295514790645306 0.15459224201402935
 -0.022666032496184305 0.12235455595243973 0.001196317644615491 0.05682550189269316 -0.13142183324970944 0.15202017005246415 -0.5866589828878701 -0.6290641069783149
 -0.5815535142893407 -0.6257604063673401 -0.1343662635025724 0.1560884083524771 -0.05194614241903773 0.010446632477142071 -0.08135535268758537 0.057447322821432265
 -0.13804130732846118 0.15450418846786598 -0.5718809349595162 -0.639957862462075 -0.08851915321743803 0.028258406874258523 -0.043028600069343385 0.07430143862301906
40744180000.0 0.01244329533050269 0.055860368791842 -0.02365951822975252 0.12266151069988723 -0.5771730341148558 -0.6238512567400774 -0.1343304097973141 0.1496553510398757
 -0.021944597207056632 0.12534224019928436 0.01615138311363938 0.06427134563170057 -0.13580910654301603 0.15660384170752 -0.5853919928692424 -0.6283626403244084
 -0.5815377240023452 -0.6206083616990743 -0.12775693874110322 0.14551228260929902 -0.03880346045117433 0.015364316934146499 -0.04087480569161653 0.033816382538470136
 -0.13675263583057184 0.16155703374549493 -0.5825631099368176 -0.6312999089985574 -0.08314793766630545 0.05628734391430885 -0.03138516904345603 0.04037806968712056
40814170000.0 -0.015910087612260815 0.06358913972154878 -0.025962201431153183 0.12408362393691406 -0.5731275127506293 -0.6201252633089442 -0.13026997303107868 0.1599392403707218
 -0.02594003924598732 0.1273423652059691 0.013015045433098296 0.04215021581928987 -0.13486111980060153 0.16220584258737278 -0.5778812342356222 -0.6249076651790599
 -0.5863003024677854 -0.6282045242542877 -0.13583232331813977 0.15798544691985147 -0.014503787920904567 0.02554830828451934 -0.09952458369007004 0.05283218531955631
 -0.13005498747435726 0.16296606505466285 -0.6006656507541134 -0.6376605944960658 -0.11809743878664065 0.10266596555007389 -0.023521498696205477 0.09706683770143841
40884160000.0 0.009919780159770783 0.07697376468852554 -0.023746748765607145 0.12421271929544439 -0.5889996950535807 -0.6253810961606964 -0.1316816457371767 0.16347431289417588
 -0.025089216071725588 0.12268162806225934 0.0025170192287914967 0.05902016548596577 -0.13372202808335423 0.15336731267141226 -0.5878235999408438 -0.626890998756216
 -0.5913459995588932 -0.6197019345062303 -0.13497353537179285 0.15760320833551122 -0.019492659281021164 -0.02007801819380655 -0.06621290818166899 0.07201255508503857
 -0.13334177101285463 0.15749293864229627 -0.5907283309672986 -0.6221910509576822 -0.07577706261560267 0.06986557989414134 -0.05818511073707757 -0.0007401521758862561
40954150000.0 0.006527245292777959 0.05744595810133425 -0.022287030805487305 0.12612697957385047 -0.582286598330023 -0.6201156237040358 -0.12950192394462745 0.16258827491650785
 -0.024857523223794854 0.1234898018517762 0.015608661054580326 0.05724753546258988 -0.12307127041634121 0.15219369146914535 -0.5868647300203013 -0.6291834441243671
 -0.5728645824652969 -0.62124672367692 -0.13160752989417962 0.15442905532858464 0.0018945162036116735 0.09362020670591005 -0.06089554304175068 0.08962323886420857
 -0.13170680149466796 0.1590670704836619 -0.5877642233974076 -0.6168768337008314 -0.07760588647448773 0.08399503432317956 -0.040381562174658756 0.07588627305073464
41024140000.0 -0.007862044471720583 0.06982392188856777 -0.026464619043819384 0.1274097773235936 -0.5839771524890827 -0.6052247308924423 -0.14527231083564204 0.16197744008990356
 -0.023629003812417837 0.12602688232078155 0.007749694163510352 0.0452844194165512 -0.13295709067219044 0.1666920515185529 -0.5908181475315539 -0.621861656393143
 -0.5834316001338603 -0.6175313353037496 -0.1412042344885278 0.16575081918690596 -0.04784533584491576 0.006788016474441765 -0.125701497361132 0.07354028158265098
 -0.14042965879424182 0.154833230922278 -0.5818296721943618 -0.6437858570918412 -0.12288283316013122 0.03842036772574007 0.05061890781041394 0.029033781665216942
41094130000.0 0.012547917852286481 0.07146887291920478 -0.02419023560055275 0.12627196722165202 -0.5778031174764588 -0.6099084567361183 -0.12393927847039839 0.16614533187673294
 -0.024970707337015875 0.12683144566535456 0.005981354390018736 0.056471387176774336 -0.13674078529658243 0.15839392631069066 -0.5935792954521706 -0.6288897029153361
 -0.5828828910645892 -0.6070797609995995 -0.14999941810878467 0.15533979551074953 0.013382662454951403 0.09096775913211759 -0.11300369072339743 0.06988735374324868
 -0.12810752893351432 0.16120911079036013 -0.5809447830025187 -0.603317807389252 -0.12237355828588785 0.06786544194412664 -0.028251702678486708 0.08154922282845042
41164120000.0 0.002713662454125311 0.05593666107748728 -0.025441844338607147 0.12665659321610773 -0.5867463889416309 -0.6112296156852576 -0.13481070802119838 0.16312503151099864
 -0.024171981917958493 0.12940915873404246 0.008940930663693026 0.05354980283337429 -0.13601144621136038 0.16045581926896277 -0.6007532967316014 -0.6083164409910485
 -0.6034821824996904 -0.6094137914969854 -0.13902871352246762 0.15714890107906654 0.025029241099879525 0.07107679772843485 -0.14984049046047934 0.05713073733163648
 -0.12537896537304272 0.1586075680791546 -0.5730742827492933 -0.6345855781501462 -0.09642004914012388 0.11296960847370897 0.018636157680774104 0.11532863127812655
41234110000.0 -0.0008566658230686823 0.07330023084019156 -0.0278707501184934 0.12982522435478838 -0.5836924392149261 -0.6089006843962443 -0.13183763648743418 0.16782969011994656
 -0.024508937711146324 0.12912426842076055 0.008879270417101532 0.047674454161401966 -0.1317999811522019 0.16592282519172208 -0.5931260575882937 -0.604041656427685
 -0.590974560957998 -0.6040947030156759 -0.14401302824518722 0.15937902118377223 0.03727901740914978 0.06738909077222738 -0.10930702968151675 0.07224618035298706
 -0.1368056788818032 0.16872467374757033 -0.596413349678237 -0.6266066057556321 -0.12962569608243427 0.07310531929230793 -0.08011722390236278 0.033318742512943735
41304100000.0 0.009608031681366926 0.06459389393229047 -0.027347462636462625 0.12830618877181377 -0.590012384965662 -0.6112339815406947 -0.13213849002365768 0.15850076514173833
 -0.024844932099489247 0.1276483743295113 0.01225714549287525 0.055815903781981376 -0.13360038143695577 0.15517789466352586 -0.5958015097258038 -0.6189585406078156
 -0.5952220611081859 -0.6071696096334217 -0.1356991616307586 0.15711971201297562 -0.004928567816173868 0.05976671000371435 -0.07381754261275145 0.06414622116699327
 -0.1348410413914271 0.15818971819671188 -0.5813940191317927 -0.6219262029474038 -0.07582888097280419 0.04762621954993621 0.04297175771536291 0.06282850857773006
41374090000.0 0.0009937058326141563 0.06517244635210086 -0.0253979420737333 0.12781348207519486 -0.5967483131457768 -0.5967358150092129 -0.12679571991258565 0.16536826429873241
 -0.02422231573039451 0.12749518041823218 0.013420878697699992 0.05000294761596342 -0.13372500185832212 0.1626298493575132 -0.6017596420745439 -0.6095886395689082
 -0.5997127748641996 -0.6046609783641153 -0.13373770887491634 0.16930364151512226 -0.011041916728717054 0.027107416748408848 -0.10968237579107214 0.09034863932190587
 -0.13129929322944472 0.16448284911538558 -0.5825441811339115 -0.62279475327087 -0.08119290028789299 0.04824236416368933 0.01098960777578604 0.04722812508784506
41444080000.0 0.0045211122455683294 0.0681025839081756 -0.021954392790949462 0.13023701538662733 -0.5914413117746405 -0.6049117626219163 -0.12396116417257265 0.1785900957183388
 -0.027526624918980485 0.12731460681792212 0.01273315244084858 0.05425323095022454 -0.13700602068028497 0.1578771072235803 -0.6039153351430162 -0.5970005756169431
 -0.6040096158648551 -0.5998409857142776 -0.14124119414220737 0.16811245804698133 0.02535639571561475 0.01360830712116317 -0.13661528015992846 0.06742871661491008
 -0.11517274738623685 0.16125778031305804 -0.6052192102262134 -0.5848107429090174 -0.0723839406063762 0.11303229964745466 -0.1515962614457196 0.012009423858531286
41514070000.0 0.006564010288734287 0.06265666789457225 -0.02296713856688164 0.12776369522579056 -0.5989101577039007 -0.5880298043231539 -0.13107323192615009 0.16889640522676347
 -0.025748194482644392 0.13117783717018833 0.015588720189507672 0.054606072005684736 -0.13992321870045446 0.16150159219050303 -0.6024275241815756 -0.593823339264887
 -0.5949686811619815 -0.5895870982015579 -0.1317407063270586 0.16663799397313436 -0.039181517492328344 -0.01565919492816662 -0.0986938492192552 0.05388719884533103
 -0.134691333911376 0.16728593786130086 -0.6078642317235265 -0.5823691815908546 -0.07651212304411724 0.07137068242687586 -0.10076950393607964 0.039271166925136845
41584060000.0 0.004014994373153407 0.06890129845533112 -0.019876519837749684 0.1324642019875802 -0.6011086391216215 -0.6017783585934239 -0.1335030916115365 0.16138038328408638
 -0.020356052618391504 0.1312250098124878 0.01101391643764284 0.052178521342225115 -0.12678999285521847 0.17476918726067783 -0.6168086110772004 -0.5979880317338258
 -0.6080118789567638 -0.5941383092431934 -0.14187924670083094 0.1880389681003162 -0.030464393903878628 0.0467647501440258 -0.06298756918671448 0.03255988704953007
 -0.13305683234647156 0.16925763957141815 -0.5926414645479852 -0.5986169577684685 -0.10595890629789771 0.058504041197497844 -0.00048376856224196146 0.05714186839002902
41654050000.0 0.005346586977187097 0.06399952792249583 -0.02156305982234452 0.13443441827838043 -0.6076419529549661 -0.6000117841419839 -0.1278353055767519 0.1694338947404603
 -0.02191301657277239 0.13044473530686776 0.009841514763824881 0.060637608464094925 -0.1268857100698945 0.16123255272017392 -0.6075920681571684 -0.5937239315610723
 -0.6017680834809551 -0.6148916482645732 -0.12406448140389476 0.16793430916661164 0.12638326684634713 0.0740335046925916 -0.06319014710922899 0.053685534934641045
 -0.12029144697770583 0.17023304435377698 -0.6218745670972012 -0.5947914427126669 -0.09351238313008783 0.08447269014413984 -0.012332055013789011 0.04530168033275891
41724040000.0 -0.0005965745274780273 0.06264808639540645 -0.025314329663647696 0.1296714036405597 -0.5972682152875922 -0.5855236779455645 -0.12321186080563862 0.1741439924829218
 -0.026817092397327977 0.13420034231211153 0.014442106313663581 0.04793399152957152 -0.13518829080505113 0.18057452793390802 -0.6153452495074809 -0.5991100791197188
 -0.6076185437721091 -0.5920666805857973 -0.1215786799843302 0.18063245452074425 -0.018268712814906784 -0.005889684679400314 -0.12500864782825089 0.10449935936213213
 -0.13243424746891758 0.17343690403190787 -0.6167969938426233 -0.5957275593794463 -0.14229271066733193 0.08692266794337075 0.0200642717753712 -0.0039016220975342276
41794030000.0 0.007544649966416667 0.06775124770443093 -0.025023716979428883 0.13654483448179233 -0.6101573008984872 -0.5846110091448012 -0.1267817046286764 0.17999650263021982
 -0.024131856617677416 0.13216348872580472 0.004794833965812206 0.04585227069015538 -0.1252044164336124 0.16482883129245404 -0.6145076329810248 -0.5982130891776697
 -0.61300682141495 -0.5909780135601379 -0.13414936603626765 0.17119345707133893 -0.09044966957858089 0.02558274166979072 -0.09312776689985755 0.08182856664875691
 -0.11984298225625639 0.17904499609835853 -0.6131646152823587 -0.6062328302650468 -0.10182688645146042 0.06662197204310748 -0.014105334935106727 -0.03559369831583592
41864020000.0 0.0049177564904596864 0.06007840454972337 -0.02228764278705598 0.13362952476528575 -0.6044647487025323 -0.5809685030229351 -0.12032512345799648 0.171686425280104
 -0.021196351215775636 0.13306765219378638 0.0119643373365694 0.056939431075705906 -0.12708468801321834 0.17568646356766704 -0.620445590215222 -0.5815072343789698
 -0.6139320068984045 -0.5747446163850555 -0.12544347908045833 0.16615515512223258 -0.010450951263872316 0.03145869269231606 -0.09758280701012371 0.08714434342148461
 -0.11562592409989268 0.17223895995311705 -0.6157767631407928 -0.5960939032026384 -0.15300157191124544 0.09095515781310025 -0.06665709936530563 0.020588697493171496
41934010000.0 0.0016554383390981848 0.06518414762390434 -0.023303986377056017 0.13621082939547835 -0.6080114361812017 -0.5834450915634822 -0.12288246522459086 0.17765356114425668
 -0.022204316083272935 0.13583776401350536 0.012112302689341057 0.046256964927573876 -0.1360570630919869 0.16888921758703865 -0.6189158182919359 -0.59095299948498
 -0.6081981220842553 -0.5885663080362309 -0.12856180406762802 0.17400983376528278 0.02755097152477662 0.0867955816133452 -0.12027778311417765 0.053276170805705396
 -0.12712480062451667 0.17786231798217797 -0.6170221442072478 -0.5916140773881416 -0.11115352378819618 0.05369063893763609 0.020595384800869265 0.040463622939052604
42004000000.0 0.008092593873363146 0.07040628700567704 -0.019773290418611342 0.13348978397897437 -0.6193434302894719 -0.5791011195445999 -0.12527183803526734 0.17670205767541614
 -0.021102132280717164 0.1330634649891901 0.012608153917518215 0.05568958808375115 -0.1240302498390494 0.16458413802268515 -0.6238931794515723 -0.567949963773773
 -0.6178848498239826 -0.5982704053863256 -0.1296524859648095 0.15268205643744828 0.027072709505695628 0.05393601810554602 -0.0736289265751542 0.08536346669427773
 -0.12451661040163807 0.16593402659319573 -0.6124387928088748 -0.5600337327272494 -0.07010264366513974 0.0782698968403719 -0.050797063157849674 0.030795066690061358
42073990000.0 0.0011424114904132932 0.05978568738783003 -0.02520959755185567 0.13362766689598343 -0.6162460288847176 -0.5731163239381674 -0.11935980926394331 0.17213085448817597
 -0.02463020025703529 0.1350515130976865 0.018921930436752044 0.05508275747011912 -0.12905048974477312 0.16951404478241994 -0.6102020071024397 -0.5773743321546796
 -0.6046827140285798 -0.5722940000659928 -0.12774249290067177 0.16710683949632935 -0.033742388291665044 0.04002597483679222 -0.13751541317745714 0.08820098877070205
 -0.12231256898545986 0.1725265874417619 -0.5958308078312555 -0.5772671477506881 -0.0661613197589339 0.06508127025759054 -0.017225337094868468 0.12421274978209085
42143980000.0 0.002277200496675439 0.06586338945007146 -0.022912459788214972 0.13800127220475175 -0.6121750041714843 -0.5720681341721918 -0.13826035626041808 0.1790952803716432
 -0.019965876948759096 0.1357343256633963 0.008246042822622602 0.04820521714968154 -0.12112748150953492 0.17106244846094204 -0.6217468525112572 -0.5776293780598022
 -0.6067768546112855 -0.5756789226334466 -0.12688210169545655 0.1721873952205819 -0.06955801045403595 0.14836370479138639 -0.07451720597369181 0.07105508233054049
 -0.13557595689478233 0.18654883038640832 -0.6224243332973632 -0.5719256225448588 -0.10523787942200713 0.05089822687070289 -0.004654647077833243 0.029800002294154037
42213970000.0 0.013782802748506028 0.06610751848428476 -0.02387276166423177 0.1380818146850215 -0.6164637542982583 -0.5689559928859046 -0.12343271291437535 0.1734199043526175
 -0.02118078146184962 0.13850805024572374 0.010554011762654443 0.056603937249660785 -0.12677877289340925 0.17244451851739204 -0.6204384333966271 -0.5717707052279649
 -0.6196971001762076 -0.575138951479746 -0.12720183272522775 0.17373181610381178 -0.002483947803827513 0.09022605793094782 -0.07501101438221702 0.05657823965341134
 -0.1302783760257465 0.17846643379797827 -0.6079303992335855 -0.5758728140053802 -0.08030622678293438 0.08166031924318926 -0.016724241337041944 0.07582575879710236
42283960000.0 0.005735493053414799 0.06328469350241663 -0.023560192523645843 0.13824420114549363 -0.6216887137872831 -0.5624330113291167 -0.12135956927866585 0.17419671444055038
 -0.0236089913640334 0.13698479667676045 0.014660146024841468 0.054924746203540986 -0.12308896105068068 0.18619157880119688 -0.6231489608917807 -0.5753052783985967
 -0.6119037383759486 -0.5671927197785525 -0.11729619754490846 0.17128368843205052 -0.0516057850802598 0.011944211818150703 -0.09918841968692585 0.14211770932517395
 -0.11600368433540326 0.18204583575019537 -0.6167331251013469 -0.5840214492232125 -0.11804784678300131 0.0989605491726514 -0.021849857778575163 0.06893499499453906
42353950000.0 0.006656345358058352 0.0699739482112477 -0.02016905148258451 0.1367159764552797 -0.6266709933226748 -0.5521000312039738 -0.11945579053936044 0.18047938122124116
 -0.02170011817882561 0.1367559504214837 0.006153383257162216 0.0491057998268223 -0.11923880402525043 0.17347407713014565 -0.6284847512684268 -0.5725331394301288
 -0.6236302774172223 -0.5588543666832974 -0.1242035048848577 0.18903287083520928 -0.013719161984713098 0.009067951990647038 -0.11001667522941229 0.06729871601281748
 -0.11463423315771742 0.19097059008777714 -0.6259358939874182 -0.5783539681349549 -0.1378067525806983 0.06813647277290298 -0.02856312621661361 0.03871208489539866
42423940000.0 0.013069450769933244 0.06663887969701639 -0.021847798653704974 0.138038713714956 -0.6271883931942327 -0.5535073333808853 -0.11713364891569177 0.17801206855048424
 -0.020469771153914292 0.13871148000877576 0.009551515139820926 0.05797694966970922 -0.12507158756511372 0.17886513772343376 -0.6306777479102084 -0.5603652564444517
 -0.6276640073641436 -0.5519464112498891 -0.12097462618905445 0.18332210704512233 -0.09298720788813293 0.033997940552576655 -0.13695477543097914 0.07726297936093403
 -0.12295572337166472 0.17618473554976952 -0.6282057741251529 -0.5573747627276121 -0.08991597870788741 0.08325057549759432 -0.04530443449973674 0.010547173321748418
42493930000.0 0.007861764649025648 0.06786435682606343 -0.024361931557000286 0.14058524061561947 -0.6226966926405232 -0.5554793733330193 -0.1239565666221061 0.17588707487640431
 -0.020995447324624692 0.14071497968626628 0.016118172860588455 0.05287367101876954 -0.1278507898335329 0.16752952478742575 -0.634772053269748 -0.5595323394247536
 -0.6262773583351932 -0.5542977884450025 -0.12215532156371949 0.17940911963836503 0.0075543620449275775 0.015084088188257575 -0.12108723505600479 0.08309001735346623
 -0.12871651871327272 0.18390479057825015 -0.633117941309823 -0.5755155692849986 -0.07313227877027852 0.07198038544759439 0.007708811137772422 -0.004519705621814171
42563920000.0 0.0058638261535807435 0.06664629105899064 -0.02238121851803331 0.14063563889434455 -0.61988955007251 -0.5533794938866592 -0.1209507230194987 0.18190836991670767
 -0.022232045843242926 0.1394494255782847 0.010675080474852383 0.05469267389742069 -0.10887473591563283 0.17760270689837473 -0.6355535157514499 -0.5602290594830629
 -0.6165055305896274 -0.5571610455265689 -0.1201219798609256 0.18070093768800896 -0.10286342036369227 0.055187015622713505 -0.07273919089040434 0.07815296116735633
 -0.11472243469348488 0.18823573072384334 -0.6217097332626733 -0.5589888337601497 -0.11457765760194458 0.08762626938447086 -0.03783003260016593 0.05371222912363756
42633910000.0 0.012457062080389469 0.07209094089951258 -0.019924450994881934 0.14173985894001065 -0.6254737613605095 -0.5477016667015859 -0.1224541068067792 0.1831499373384531
 -0.019383580819528755 0.13920538096944265 0.014217195159187514 0.060483255444397435 -0.11430840607504805 0.1749393326565095 -0.6322078344083168 -0.5526010628098593
 -0.6288094739674689 -0.5569500240022252 -0.12357378888902519 0.17370088114371546 -0.05003358915167166 0.061663669424877186 -0.10000823997186478 0.10564932184426074
 -0.12025111042145958 0.18996143127645976 -0.6319867764202244 -0.5518963114832123 -0.10013887927009316 0.09245275468769103 -0.05320750434113872 0.026011872714719855
42703900000.0 0.011910837755582592 0.06859054599629977 -0.02056550327131274 0.14226616455624574 -0.6286746256583838 -0.5508128423563504 -0.11808327638542522 0.18030383181448878
 -0.019291771186871302 0.1420542056604647 0.01544691526056945 0.057931890779281965 -0.12030339169063911 0.1778678576904235 -0.643425358681523 -0.5643284979799638
 -0.6306030816056171 -0.5488244784512359 -0.12788124129149192 0.17579912030417524 -0.025915545879674443 0.04969094155335202 -0.14222143924585495 0.06981613021744569
 -0.11534997087009904 0.18202288314094422 -0.6370858193512486 -0.5510907916214977 -0.10468127286930076 0.06317843515719974 -0.002713396124065487 0.059150583950044036
42773890000.0 0.006410122725918832 0.06905905549925144 -0.020809743453375145 0.14161092545444207 -0.6304178385586686 -0.5460754326764431 -0.11826697951936933 0.18409816457944378
 -0.021140330990698647 0.142135879583477 0.009945737457275354 0.055465358293942585 -0.11498952787596943 0.1856435559617701 -0.6352984217286126 -0.5607099757269448
 -0.6216054472049494 -0.5467072224382199 -0.13069115371400036 0.1826222087355381 -0.0741937144504298 0.03397871646097026 -0.0902706624917281 0.057049545099595436
 -0.11537502326366737 0.18125186664129828 -0.6499401780683377 -0.5792404184253284 -0.08542405612065503 0.09939179741274083 -0.026825417825097602 0.018635264750413393
42843880000.0 0.011155221901953984 0.07435315730638302 -0.023785143808542943 0.14263214338743663 -0.6325773218801704 -0.5471464670922256 -0.12136367980207828 0.1843964352557913
 -0.019347492235856453 0.14109343708804037 0.014774704342639581 0.057411869473371194 -0.10834978075309187 0.17643522575255613 -0.6364174309994097 -0.5432119075737665
 -0.6340684331166664 -0.5469116258219304 -0.11823354533533816 0.18136574071655726 -0.02070262202464239 0.11564740536199297 -0.11238778581378946 0.08781391138077764
 -0.1253158958202616 0.19062510025563517 -0.6454046980376241 -0.5655425689438267 -0.10425198815931802 0.07992542769844861 -0.07563581768741286 0.039266028410494105
42913870000.0 0.018606449556849553 0.06810712211994417 -0.021666292298124817 0.14335559889832653 -0.6342714708234948 -0.5413247410453454 -0.11807114407827128 0.18410265826526306
 -0.020148027381717833 0.14161490433293064 0.009875208378087476 0.06039895461510454 -0.1162801419731939 0.18281463062865505 -0.6499842005712008 -0.5523275956033264
 -0.637018380117406 -0.5404067483896626 -0.11622812406211887 0.16599897981208322 0.004384524398954606 0.05716719787454641 -0.06910809742871939 0.09634005420392895
 -0.11956622578856002 0.18170963064384132 -0.6312886275199178 -0.5499577212972164 -0.10273643335573374 0.07522778053205269 0.04184322356434236 0.09177989512009224
42983860000.0 0.005849618583204644 0.07247353298609015 -0.01795887720622569 0.1440480132918875 -0.6346051633682517 -0.5440146361432946 -0.10978881864741682 0.19183870380927479
 -0.020266150553587065 0.14321421069032 0.017572039388064804 0.057241104647114065 -0.11310159646035978 0.18037701171007514 -0.6401577522712025 -0.5445338099624345
 -0.6450707559255704 -0.5482531961925743 -0.13146764016287185 0.16394474664737146 -0.04438313925645099 0.11732835639238016 -0.11287934284429228 0.06058651688039239
 -0.12164222655053213 0.1898064409255593 -0.6448010621218798 -0.5524661670262258 -0.12097652171855129 0.1368266375180317 -0.046389603145490135 0.0809850803569754
43053850000.0 0.012643522319816622 0.0736626147581578 -0.019898743701191452 0.1436970756708139 -0.6345722240139008 -0.5324277989497954 -0.11390393591033014 0.1824650551084604
 -0.02098900281487356 0.14637157816642712 0.017740041304540096 0.057409605924668046 -0.11932752051655793 0.1864724968385936 -0.6442374509405653 -0.5406138979641616
 -0.6474458498816053 -0.5291135945337814 -0.09477970224539796 0.19552622359035446 -0.0839727699494919 0.05922420178364968 -0.10481674971853053 0.06582256958063609
 -0.12207880380423615 0.18640752580680237 -0.6394583777379026 -0.5537443371958634 -0.09924205748910594 0.11700317321183162 -0.015064982001511861 0.08492714026098251
43123840000.0 0.02123088146591686 0.06650662790536058 -0.018859882621311663 0.1440157700831081 -0.6396324995639875 -0.5388114045652326 -0.11894645691425629 0.18642910151004288
 -0.021859219572912092 0.14117735806751233 0.01876681279444355 0.0692785096608486 -0.12641572961010697 0.16968066397477322 -0.6464430004757187 -0.5422147820661305
 -0.6383156582826579 -0.5370491750500671 -0.1280500417620427 0.18181810059037617 0.08786372411299867 0.01209142239214569 -0.1398488260901956 0.05226062775714859
 -0.11374518829405894 0.17702338796272113 -0.6336345958352458 -0.5510528950103698 -0.0876712428298667 0.0763970063839948 -0.0004512109289003372 0.13508405136705248
43193830000.0 0.007482283255879294 0.07381072226731207 -0.01694053425513058 0.14602100621934305 -0.6481464886970946 -0.5360333712535184 -0.10525298316984322 0.19710641716251734
 -0.01651562199910127 0.14107354268678507 0.026189307641939583 0.061593832883189335 -0.11077977832977898 0.18045858383962562 -0.6439373034172033 -0.5329460455923051
 -0.6415149156039393 -0.5377208769560031 -0.10378057831808395 0.18494086609313026 0.011184089283704908 0.09672912813199312 -0.06097470416933592 0.09250566151626548
 -0.09716846993572473 0.190026120865222 -0.6631357701725937 -0.5338592977114803 -0.096687275420371 0.1074427977783814 -0.08080166205343221 0.07783109230598168
43263820000.0 0.014724635733943819 0.07664930817517099 -0.02118378454394376 0.14523121352135843 -0.645890300095348 -0.5368018988329889 -0.10973143391348066 0.1846017675081394
 -0.019945318388868476 0.1446390553058572 0.014036911729930988 0.05825282201653175 -0.11973780926898796 0.1800971156936867 -0.6609384384727952 -0.5235829417379528
 -0.643030692184593 -0.5344765025577589 -0.1172714011992409 0.1777859146592635 0.038263825349771165 0.08685200257428949 -0.12039230394681208 0.1236517696552654
 -0.10977172102816037 0.18690250890959487 -0.6535875639832295 -0.5508262482616121 -0.09947938104952672 0.09252416160574731 -0.03315294647795157 0.06054907433898744
43333810000.0 0.02258823960901334 0.06731327315741384 -0.022114307050226958 0.14247781840992438 -0.6472149251741826 -0.529167959958722 -0.11342757354188068 0.18370580734966824
 -0.01958144992174205 0.14123341239796763 0.021780346873750626 0.07210969515837595 -0.11029615669747864 0.17725334749316 -0.6514082512776818 -0.5281686093297621
 -0.6485959278265403 -0.5361630158356652 -0.11849853809729827 0.1654151238928051 -0.007535032026593217 0.12232737431428353 -0.08575318480986162 0.09119148145196639
 -0.10969587623387458 0.18314261918157654 -0.6472709631482222 -0.5298191028686222 -0.07929069706417605 0.09368217745635138 -0.04315827778871705 0.07652176376517722
43403800000.0 0.007214559551268056 0.07108635943745555 -0.013710592541938372 0.1495541946277198 -0.6485816084753787 -0.5262727286069768 -0.09918702111641277 0.20124913637659583
 -0.020914436567659598 0.14738415295778703 0.020103182375600926 0.055901362646881496 -0.11565318171019942 0.18251896488768946 -0.6558323115136211 -0.5221455687161215
 -0.6509564026522248 -0.5248692878556249 -0.09145657852932843 0.18080305193924245 0.0016536371657321946 0.05221897575494909 -0.07347286428504023 0.13653668413188197
 -0.10962388584075182 0.20183991073733376 -0.6925948969823897 -0.5157424327405418 -0.08904601475779705 0.11530729854654378 -0.10856024028958457 0.06876638474998246
43473790000.0 0.01782624771405225 0.0771395730302333 -0.020029829523232397 0.14748172719689903 -0.6539087989067086 -0.5179176109826906 -0.10833011107368617 0.18442584202835532
 -0.017774313003196505 0.14876702089631594 0.012824368294342 0.05956176821952609 -0.11518004222960328 0.1897443723671919 -0.665290758557423 -0.5295185321148063
 -0.6600377252028563 -0.5206606189735499 -0.11069554046553386 0.18472383109806279 -0.015209878038845501 0.027815400291527695 -0.07904490345937057 0.07953673808132489
 -0.11181931730684208 0.18742763504858617 -0.656669409718028 -0.5326757001219617 -0.12829696314954256 0.12539138141191544 -0.004997767205180262 0.0475783767111369
43543780000.0 0.023216438142975193 0.060125840019266845 -0.018747035263680528 0.14653302672302793 -0.660654618834311 -0.5196337768518933 -0.10195062406476306 0.19464850954807492
 -0.018757083266422902 0.14400120477632894 0.021452307722382824 0.0663744079841734 -0.11957486341995675 0.18517669637051837 -0.6524748527183102 -0.5280055611863741
 -0.6522972550308618 -0.5299998570084788 -0.11604866176095413 0.19303131577563493 -0.0065616754595803906 0.0337644447465621 -0.13045659665727133 0.13810261661459736
 -0.1016314267605514 0.18514693273613592 -0.646346278901576 -0.5067455722310619 -0.10027280558955491 0.09361852181450907 -0.07699254995626345 0.12522206924109955
43613770000.0 0.012691439466107457 0.07640082934486607 -0.018415645076992553 0.14712645780063147 -0.6488083721117093 -0.509938707377098 -0.11708123652645983 0.19464499267861776
 -0.018328224136959545 0.14602928606165733 0.022835148912852845 0.051273579174643084 -0.11272789678270875 0.18520087297296753 -0.6566531257625345 -0.5218727980599809
 -0.6617953045545754 -0.5074703135863892 -0.10297391874383903 0.19384774804900606 -0.14294103712198206 0.1046327329592326 -0.08981530534679341 0.0816497364486315
 -0.11663740515408708 0.2013963698138015 -0.6740333024567491 -0.5491407210852396 -0.11956892662614262 0.0815445163836097 -0.053667236343991176 -0.020738169867153267
43683760000.0 0.02238502484507231 0.08184337958824658 -0.018057241910542803 0.1467632977843374 -0.6594854292087626 -0.5183565373618798 -0.1029767834273632 0.19219020852556132
 -0.017995115495852792 0.1424682034931171 0.013566131136516927 0.06723787338822923 -0.11656760180309592 0.18320090047712434 -0.6620725056430588 -0.5255466335726263
 -0.6616303753460329 -0.5127823146536158 -0.11737049911588432 0.17154756803888882 0.02980275280307954 0.06575846020534692 -0.09413667051536255 0.10675305232146959
 -0.09341385982078892 0.18782610462068466 -0.6758322205079115 -0.5326932762526294 -0.07155605169058323 0.11022287332842434 -0.04605252158641898 0.0739022037967223
43753750000.0 0.022403370600827727 0.059357028901950236 -0.023148334275224478 0.14393620858049444 -0.6467497099806571 -0.5138621336054161 -0.10908081521862534 0.19243590302729738
 -0.018339451895796065 0.14377800232341384 0.02638053708365877 0.07235660311135876 -0.10478545652326388 0.19492382169632227 -0.6547768719346321 -0.5177985278949995
 -0.6461850238586423 -0.5020187228086262 -0.09070470106517564 0.1802255297088617 -0.070148928934607 0.0988332863686391 -0.11097369807911342 0.1361384950701099
 -0.10104041324134827 0.18580395937519348 -0.669203429606171 -0.5090621595629585 -0.10972462258982489 0.11764055082812011 -0.04715547295007843 0.08013116198201188
43823740000.0 0.011808230324089088 0.07493262854321284 -0.01943617227597211 0.14261905788715218 -0.6528895712425283 -0.5148296830407529 -0.10555740125262061 0.18350768463722084
 -0.015765629752698213 0.1508743008374089 0.016381217096482055 0.058783682612809314 -0.10592898204553591 0.18806042055604089 -0.6735682167822271 -0.5170394788312513
 -0.6692244999845858 -0.5123384816932788 -0.08714199992483802 0.18819647083172514 -0.035905855208128425 0.06692150116438285 -0.09066233642242093 0.130074589204978
 -0.10786354478884674 0.19255770448628165 -0.6781527148291276 -0.5349465100261076 -0.08934187213689326 0.11053575094203674 0.014427457138123776 0.07599052009739114
43893730000.0 0.024116658586083525 0.07982595846950448 -0.018908007321058497 0.1457088309441751 -0.6585905665882476 -0.5064674085722812 -0.10786778957136232 0.18743337347987257
 -0.013878447653495433 0.15099120201920327 0.016197823357611513 0.06476330255581993 -0.1055749399759934 0.1893290968175622 -0.6810232705904324 -0.5130965354837473
 -0.6716267078177504 -0.5135363987662925 -0.1106246291740571 0.17366595053227038 -0.025284167616998282 0.05653246457935604 -0.09259699140472304 0.07541456149975617
 -0.11447380797189348 0.1955151882173287 -0.6344621526287608 -0.5156961511875848 -0.1116580685456882 0.08945370130896152 -0.0011065295570754083 0.05056383818309978
43963720000.0 0.016616547589921826 0.06144178784754632 -0.016661707665854796 0.15083948380149015 -0.6666034832369677 -0.5073268684847966 -0.09666875086702303 0.19978112441700363
 -0.01897923525702327 0.1502951844568035 0.025730694446861685 0.06083889609140261 -0.12643966876686452 0.188277758105442 -0.6743435525541557 -0.5034700576352259
 -0.6662011924695007 -0.5227234201628741 -0.10895042882250058 0.1786941753665901 0.038901171772237744 0.0794407187417062 -0.09845175270976965 0.14349646625021611
 -0.11594663022050315 0.1931836706975941 -0.6636292474360773 -0.5093678648876167 -0.0865915112843537 0.08216164916567693 -0.04718953731470704 0.12278944141049954
44033710000.0 0.01462863729183928 0.07448275767501958 -0.014754496827933014 0.14497645320846575 -0.6721007778192994 -0.49234488755248845 -0.09480055311711495 0.20688680537769655
 -0.01609015233617412 0.14866964035590136 0.02196405963859466 0.05328917259834287 -0.115097635035192 0.19687842657544746 -0.6634573564787358 -0.505129992746103
 -0.6731665501963127 -0.5044216654514212 -0.09275191679615123 0.19888809526381782 -0.04061262924657018 -0.009147237664746977 -0.17331247954139026 0.18081573984270147
 -0.10560034532371898 0.20692725274075677 -0.667441922252583 -0.4911157115042943 -0.1299707910425304 0.08478605821421877 -0.09795625146350846 0.07130451815135512
44103700000.0 0.024861311725635042 0.07484714997488673 -0.020683234130271937 0.1522818516394235 -0.6572260112593236 -0.5039337531825764 -0.11262262437589096 0.1948928909142841
 -0.01683408834005381 0.14980265099859347 0.017658621278991253 0.06272633909418772 -0.10327016158159752 0.1899097882944998 -0.660119249476493 -0.5076796623962436
 -0.6659655428700244 -0.4992581129758581 -0.10405422634675295 0.18656599795838882 -0.01736105456080164 0.14226616190998242 -0.11094816208814459 0.14413416236697457
 -0.10427769336840728 0.19376838396545956 -0.6735521010025621 -0.5027711414111675 -0.10262181689957715 0.08638039677933115 -0.008405285937135855 0.08460288621081571
44173690000.0 0.017038499867875083 0.062004829970817764 -0.019222039757010905 0.15336127227299703 -0.6578536055393825 -0.49189745647353783 -0.10198522107717714 0.18977433279617587
 -0.01834945413526997 0.1527238184970068 0.03315382284690474 0.060532014211700305 -0.10345002182884144 0.19512031847588265 -0.6789453003674918 -0.5021345739847638
 -0.6621552292220313 -0.49019805624968016 -0.10925844221940618 0.1832849238964806 -0.06718085845218369 0.1292652271914722 -0.08977309840157902 0.09218105397644595
 -0.10286161129735073 0.18575912820051255 -0.6639769668588785 -0.4900199134600559 -0.11200856786084358 0.12802388184441726 -0.0018296545543051972 0.17191604270011157
44243680000.0 0.019843326870486636 0.07286415423859616 -0.018286687278737355 0.14651219496740334 -0.6693452828093271 -0.4884977133626134 -0.09777319585453152 0.19176491856193303
 -0.01703563078269519 0.1482972906240473 0.026137897005923765 0.05735570676690442 -0.12312235826320912 0.19731195640444527 -0.6946768646890911 -0.498389518894133
 -0.6579184779773894 -0.48583255484775245 -0.12143922359748566 0.17564500146441722 -0.022544804795311364 0.05542179118998805 -0.0899920303201033 0.06940709025527027
 -0.10309570471711199 0.18560358386690753 -0.6476698698091103 -0.4870943584283255 -0.10798789799137624 0.07319276827646654 0.0006911035391516572 0.07540267599572173
44313670000.0 0.024490062515300864 0.07314072755080903 -0.01703012560957508 0.15462411559980152 -0.6668441121344638 -0.49107242096972364 -0.0981916431462198 0.19710304119981173
 -0.014484672697895197 0.151740606125807 0.01807311056709307 0.059077048071371936 -0.10236747590524518 0.19554899684072585 -0.6770086808093149 -0.4973014017014159
 -0.666050721626079 -0.48638732928133455 -0.13521891892817578 0.20667001777033778 -0.03492479813470381 0.04985277644811208 -0.14846446407430391 0.11010071815414287
 -0.09275218494558328 0.20639934976229476 -0.6683861789920622 -0.49881515045220887 -0.10215069305610912 0.14284158522309232 -0.06098269840139004 -0.00880153944611497
44383660000.0 0.016029440004608066 0.06604458560352966 -0.016916482116195224 0.16178313096158467 -0.664814371797141 -0.48659907643015954 -0.10851670622386386 0.21026527489684949
 -0.01914673958414985 0.1520143739279226 0.025922953288326032 0.0577742031904501 -0.09535662640086555 0.1853036180715552 -0.6754948117923859 -0.4908405576830168
 -0.6683689392480119 -0.50122389123578 -0.11288881441508969 0.18293107481973903 -0.11003871618738297 0.14021204300631238 -0.043234173312342215 0.0808610057499689
 -0.10591468495677583 0.19451079667293353 -0.6618267482743039 -0.4811930400046541 -0.06480993803364911 0.06476289940078755 -0.15327902583408967 0.021151985067219863
44453650000.0 0.018738038667980662 0.06532531741071604 -0.01059465677248684 0.15318766602473063 -0.6739149056455934 -0.48970511781402554 -0.10837290608584493 0.19787500684048745
 -0.01324425957411519 0.1525589062640247 0.028610907209408374 0.06478002280445995 -0.10803974651454815 0.20374019337360927 -0.6740998673185788 -0.4929619259858345
 -0.6836893983360046 -0.48946811965737186 -0.10958635836872695 0.23515548857517402 0.008926062937556108 0.0313425577568616 -0.123023519874323 0.0676984756397718
 -0.08745837205286976 0.20375899087324165 -0.6910078013418126 -0.4818869923338789 -0.11708445601875507 0.13093803931370512 0.00701380031101297 0.07787348474525203
44523640000.0 0.023581482185550624 0.07198601104047533 -0.019315291863119304 0.1609701087882904 -0.6761848993893044 -0.47533650069049227 -0.10267987149202602 0.19862123921835084
 -0.009906424395932147 0.16079827068593136 0.013643449601300671 0.05510146400205644 -0.09922481334981005 0.2035266576378305 -0.6943110126877897 -0.502684157757371
 -0.6770718438784744 -0.4743567836091823 -0.1173318503161328 0.17537414674409746 -0.059207617941865916 0.13175522489248023 -0.04627178028188975 0.1043950866528124
 -0.11039567679959544 0.20699526060122286 -0.6987013711545733 -0.5573448206899435 -0.11102787192534462 0.07483061547901908 0.04369062616647489 -0.009332199637885149
44593630000.0 0.023954658608976217 0.07318964897140161 -0.013283965549412162 0.15676999156483074 -0.6716596622661841 -0.4806235309518082 -0.1019924936111764 0.20047505551522585
 -0.0144085004847499 0.15534161680242134 0.021294145759403707 0.05353982489068813 -0.09471994673813124 0.19565692855162772 -0.692107119979821 -0.494300611502102
 -0.6728498720495546 -0.48403144230036804 -0.08839067656951531 0.203325396200864 -0.048716035761336346 0.10184511548056804 -0.12506679790149966 0.11766673152467064
 -0.10740487790203675 0.19271590702806723 -0.6796982760434725 -0.4864116456904701 -0.10498682080155662 0.09025542128608825 0.01580091532586286 0.07812458139900273
44663620000.0 0.0180577871230625 0.06222259353521714 -0.012375069030754155 0.15458929460528556 -0.674437496253039 -0.4731150956113294 -0.10322774049703518 0.20122905856672216
 -0.008570849243500003 0.1554549038092861 0.028955646742996693 0.06199476187228512 -0.09643591727607642 0.20494696908773669 -0.6850334992258655 -0.47164184131798237
 -0.6937782635497225 -0.4804038023526486 -0.10735252547862595 0.20505956750469118 -0.0461942403225858 0.06711637702096722 -0.1334738183272383 0.10828916370818255
 -0.1051665167513412 0.20521478051870304 -0.6901199784388039 -0.4742779459643256 -0.12376167848590906 0.14103523334429185 -0.024699177530560935 0.05532498892684083
44733610000.0 0.01636711160669186 0.07660259320767601 -0.01259452835458914 0.15250799184017305 -0.6805802573447234 -0.4588584573368298 -0.10682472855315062 0.2074254782681174
 -0.011493899151050802 0.1521178895817681 0.0332223856651363 0.05609741259225637 -0.10478378366046555 0.20116174860830655 -0.6965840764747375 -0.4737322522529518
 -0.6678827648888922 -0.4779719898937031 -0.10770169690936904 0.2108503732556722 -0.06626162734070551 0.04707663453484761 -0.1558127857072151 0.12123231809775646
 -0.10461988391909127 0.2001219327251064 -0.6856336846093052 -0.48805639351752367 -0.11754758252855758 0.12081100187622104 0.049623274636881196 0.009082769631483356
44803600000.0 0.03264605762250404 0.07315192950187585 -0.01291448092758577 0.1580492604546119 -0.6830612386537369 -0.4810330070290448 -0.1006014191665629 0.1954872775164867
 -0.01135229355816303 0.15574580749658645 0.024597882815711854 0.060028829152178824 -0.0957330742172299 0.19971104008442397 -0.6964578666520553 -0.47326785484711836
 -0.68291012761611 -0.4715744586675343 -0.10019618085501573 0.20906001119712356 -0.03979441997970203 0.09474864554211983 -0.07970317533888126 0.06280359944878737
 -0.0998501588242725 0.19803888396641978 -0.6913331660097621 -0.48967777457707434 -0.07088057433763817 0.12827450188696224 -0.00038910528364240535 0.06315347565797927
44873590000.0 0.019559136290252594 0.06008316606528886 -0.015395139255325025 0.15261296861605078 -0.6811730866160148 -0.4618601572060494 -0.1045126847683497 0.20125300897877463
 -0.01072392628087922 0.15309664067742781 0.037914947154437585 0.06032053127289981 -0.1044098607404395 0.21763645570521623 -0.692879597556496 -0.4656607183053568
 -0.6852827894324416 -0.48504567100109436 -0.10739336210339231 0.1962783359333667 -0.020769536934350064 0.041340375178431865 -0.14449718618438792 0.14450424782158222
 -0.09971575903171723 0.20226406873377517 -0.6882146666354226 -0.4675346329226447 -0.12378392777889619 0.09797492721757892 -0.012953736562891628 0.0043455502905262065
44943580000.0 0.020815975187365197 0.08368104584489451 -0.009768501746003418 0.15270834034079067 -0.6766219597415273 -0.46355122448315056 -0.09775785555803386 0.2107948761864971
 -0.009695587728004187 0.1551148088451195 0.03187872248681625 0.05763992470127533 -0.09192570548704163 0.20199369423210986 -0.6930374699864822 -0.46591608637487564
 -0.6766744487782829 -0.4647125570137958 -0.08023669132385726 0.20159517573354854 -0.05113263557995003 0.006816192080772344 -0.10861179488850523 0.15580317380828929
 -0.08606060832312798 0.21579906506504748 -0.7182392279155418 -0.44442178212637806 -0.11300659447774328 0.15104419278708286 -0.02810800861855286 -0.01799995445430592
45013570000.0 0.03760196478844782 0.06643565161068464 -0.009404363478720715 0.16026643752037484 -0.6873950447155663 -0.4572941079663857 -0.09758982198017756 0.2132293802898852
 -0.006878027243276445 0.16181304137872835 0.014919516041332835 0.06660687287571779 -0.10671920254792049 0.20392171143551469 -0.6901475741498628 -0.462388661239657
 -0.6935910329700141 -0.4599697459794798 -0.08627512284684895 0.2075352108205763 0.04724761637896923 0.00880359527782475 -0.11416561231179878 0.13473050190578834
 -0.11184611799546483 0.21333029490204306 -0.6877683152927427 -0.4632491889311834 -0.10503358135639439 0.09779812881603898 -0.06026750411072369 0.08273712844550168
45083560000.0 0.010617065659850393 0.0648448456442363 -0.016345811421187833 0.1586381815108676 -0.6860754717116486 -0.4623004656945733 -0.09580336241328934 0.19201080564094475
 -0.01382896747344194 0.1613274458915343 0.03662187713099944 0.05342865272323514 -0.0953973512300209 0.21155632285040568 -0.6969309842543193 -0.453093951211323
 -0.6932468601882945 -0.46155369555248776 -0.09621969817550265 0.22122363260721056 -0.03129120481309669 0.11389388700623594 -0.03560868053194238 0.1282390797883883
 -0.09339376187497045 0.19208851061199217 -0.7003373079327891 -0.4595336168088365 -0.12076392830588994 0.09093177925905323 0.04293503615419207 0.04500976645997291
45153550000.0 0.025453099924399668 0.08164365100485423 -0.012444606701408822 0.1572199797593405 -0.6866572130634649 -0.4502950185328443 -0.08744060321459278 0.21009459637286104
 -0.010797705319925955 0.1590195836633647 0.030485739358864342 0.05661016154294961 -0.09470991041616635 0.2153659727146303 -0.7074859168924674 -0.46627604166817477
 -0.7135523404736953 -0.4643873382771337 -0.07078756041150454 0.1792641342622324 -0.02151787164045712 0.0036009726046916895 -0.08641838807461819 0.1956499484303402
 -0.0925644159728403 0.21586074371277772 -0.7084686841914767 -0.46301753098078874 -0.1509686281031954 0.12272650653617449 -0.01023733878897657 0.0342751284052911
45223540000.0 0.0403360649143668 0.06507017049081308 -0.008079182499100133 0.15435792461600198 -0.6889980059136286 -0.448078513803454 -0.09042480945735099 0.2054573730073564
 -0.008193659356948052 0.1572427692552225 0.018485310786033417 0.06192877603376667 -0.09872913941859515 0.21596073509530958 -0.6961264118440069 -0.4494521439433487
 -0.701201833036007 -0.4518504429779284 -0.0943601116388838 0.20527249265738726 -0.04418817320243376 0.07823991598314456 -0.06537742620691468 0.13896369036897455
 -0.09782091197526453 0.2072234316057002 -0.6952472929479142 -0.4795079533605927 -0.1411354295459461 0.08122400752875492 -0.04165798464262014 0.07171486162931273
45293530000.0 0.013349406279522821 0.0704350318329359 -0.012122620795461315 0.16105350601907073 -0.6893953874041061 -0.44820683555406154 -0.0954678995127831 0.20645908326687393
 -0.008370571208336418 0.1563653832361988 0.04511728775498142 0.05842201332665348 -0.09201606306589498 0.2096840661093999 -0.6966685000980608 -0.4580800937056363
 -0.6938172240136447 -0.44236620618155525 -0.10575941910556313 0.23285792723207283 -0.005416694050315923 0.06481840303150901 -0.11388098135838551 0.0743395137873283
 -0.08935739158470862 0.2274521029678794 -0.7209823837952053 -0.47374102407738805 -0.1254631152229456 0.12900619088770682 -0.03909253300023575 0.06317997566234984
45363520000.0 0.0284984263703791 0.08468698326341227 -0.008853942831542231 0.16082956565775441 -0.6960643188449331 -0.4550494093842797 -0.10400476041168033 0.21518922692592235
 -0.006367884926576823 0.15574740021081945 0.028246306874028508 0.05608064928551259 -0.09293753385437759 0.20169986171263443 -0.6986733875049131 -0.45370126551186724
 -0.6809183401662269 -0.4468698676137731 -0.09745249768802011 0.20616887197501457 0.024626772764449516 0.13186054135061923 -0.09926709263160066 0.15891671437781893
 -0.09735881170350945 0.21875777881297767 -0.731113691032722 -0.45391762507609296 -0.1458835900403688 0.13000814187729914 -0.004338686288374176 -0.005721563337058967
45433510000.0 0.03742238577345905 0.06264550621306862 -0.016724353419816658 0.1578323171152873 -0.6914245037049336 -0.4497303875183591 -0.09856280001603972 0.20453794211560192
 -0.0116208685760355 0.15857159695722836 0.024353034001598575 0.06872250861144691 -0.08565771012230762 0.20486173027115642 -0.7026331040024005 -0.45229041347816956
 -0.6820394346082563 -0.4428962020659973 -0.0850316165570294 0.21485737344923803 -0.04344529177719579 0.10737706221329266 -0.0996180174350401 0.13242103955603082
 -0.10206489060285341 0.2095266382621717 -0.7207328919498301 -0.45360625415807415 -0.07406458668435027 0.1369630177225346 0.009477163586829387 0.009911485971160308
45503500000.0 0.015836349357552716 0.07198064340463486 -0.011607844714157541 0.16248774928719273 -0.6909780321779833 -0.4429803624965524 -0.08932554578494462 0.2230046409343112
 -0.010526141130670722 0.159441039786552 0.04206028830290247 0.06585370157406797 -0.09681598662372654 0.19693303364268944 -0.6999615352263588 -0.44213661046466335
 -0.6950553402405792 -0.441715188290468 -0.11130689082410078 0.198856947672494 -0.028727920971166124 0.10723801750477988 -0.10838430682924327 0.10014733380757995
 -0.09687093336286737 0.21275867319023417 -0.6589063345842426 -0.449145214997227 -0.10903792472106374 0.10223632199847565 -0.10052057460478443 -0.02059844333587227
45573490000.0 0.03180208903572036 0.08284705828687541 -0.00996990561166588 0.1608025240302999 -0.6828045207443256 -0.44782815565213213 -0.09456791675520547 0.20058616961528944
 -0.01000142068500237 0.16137192918441962 0.02919161106954558 0.049626759360440496 -0.08377423493259704 0.20853692227187257 -0.7048765436879932 -0.441690065671434
 -0.6896583920333629 -0.43985174950263856 -0.07820995317600679 0.20539873056237312 -0.02229882130633887 0.11788122740251751 -0.12515042017035358 0.07563684195328436
 -0.09509693821384389 0.21379504608625674 -0.7163466647033723 -0.4344469531038307 -0.10817718793518169 0.1260489997162898 -0.05051776289627366 0.11073073619775238
45643480000.0 0.03579844200071185 0.06593562930041448 -0.009860368522150616 0.16621536089271452 -0.6925169290498914 -0.4364489885349232 -0.0912664207024698 0.21828747769441073
 -0.00518265618052784 0.16209070775056988 0.02356827382762131 0.0645882246035051 -0.09132591112028886 0.21311629567373966 -0.7033755444491508 -0.4394939235160316
 -0.6980660619839727 -0.4251169745411265 -0.08137594638958708 0.21722789032409076 -0.02885766836380559 0.06300185120133861 -0.1236795721880648 0.14815646386529277
 -0.08872675183459854 0.2235758798565691 -0.7007636787503562 -0.4323444111274653 -0.09111087698491509 0.17566863082818313 -0.05311954581222355 0.012630664017260018
45713470000.0 0.016921349271327348 0.074545598077917 -0.008527985461778628 0.16049028118656353 -0.6984559776934668 -0.4354798641943721 -0.09156899347820292 0.22060956711663973
 -0.008683838572860151 0.1628231763262983 0.038850422608975976 0.0567739336400487 -0.08667589772045566 0.19929525760606384 -0.709066538477181 -0.4332867304387367
 -0.7070431319305742 -0.4559080005100467 -0.08840256953434346 0.20194953012949893 0.027200971250306107 0.06058714290739319 -0.0891053856000764 0.10068415268839764
 -0.09036732187639504 0.21026075951173176 -0.6826985201796275 -0.4198593320677839 -0.10801710991733886 0.10530426899877816 -0.05678288644345537 0.006972866571674774
45783460000.0 0.035026920640870624 0.07870927432231316 -0.004981840994735999 0.1614406206254477 -0.694325386297965 -0.43021650064473343 -0.07773650719387609 0.2114273824796502
 -0.005887639107703373 0.165109879347514 0.02351583275042661 0.052909202881137415 -0.0930226800963527 0.21514402414469624 -0.6996055710872704 -0.43997534378008646
 -0.7214752566443112 -0.4430287235258565 -0.09298801056655331 0.2075594127388173 -0.05554743684963557 -0.008348506763263786 -0.1394457962228536 0.16399491841860753
 -0.07503034259049118 0.2201381921518279 -0.7032023710999605 -0.4357270313169432 -0.08289992714483342 0.18728784293748857 -0.035720442884360756 0.08767283411815036
45853450000.0 0.03695599675977406 0.0648577085439217 -0.009515548955988882 0.16010071846482818 -0.6930790787831075 -0.43156990294550723 -0.09604174671670834 0.21863367005487064
 -0.009188005145484979 0.15880303798262269 0.033385329021519 0.06583375626124681 -0.09112808204730213 0.2054301811942808 -0.7102378703657298 -0.4307014249453642
 -0.7072239046588004 -0.4546644140501513 -0.07051033587601259 0.2083329706537921 -0.012518809560782745 0.0886503171548115 -0.10114493474040354 0.11261236110347177
 -0.09384413302789117 0.21217510203894696 -0.6941983635967347 -0.4214820270333995 -0.10254729455820809 0.14060579063547146 -0.012555027593645853 0.0026532209442325216
45923440000.0 0.02796905231364387 0.08019402737648262 -0.007335543894338263 0.16056105815550117 -0.7028007199590566 -0.4161336869992309 -0.08868771645384724 0.2098071315527558
 -0.005519513178423483 0.1636528729285986 0.04082912004407687 0.06535618969716753 -0.09462590041908243 0.21662413646710746 -0.7135248116359116 -0.44054600829672463
 -0.7173817719171268 -0.4302340033863947 -0.08988745698417822 0.20976864943213078 -0.0010413901328268228 0.0581552437061448 -0.12721982443041785 0.10339796429073599
 -0.08381215226762899 0.211706923218918 -0.7217745998250487 -0.4538258279341793 -0.12907153862595747 0.14265498745741978 0.037784885285947804 0.09927837882310435
45993430000.0 0.037238898205154906 0.07850048786907478 -0.007534486851303384 0.1607240339353212 -0.6974764821311842 -0.416494164356893 -0.0901391924061599 0.2092536118552324
 -0.004915555923218576 0.1660964678999094 0.03076053201695359 0.05406384174133128 -0.08603932098284435 0.21974175280206082 -0.7182286425873805 -0.4277544282094514
 -0.707461972314153 -0.41149487088662035 -0.0752143542698195 0.21586973824919145 -0.05818492587148586 0.06135335230796223 -0.12461227815403315 0.15685568487357238
 -0.09324056280703602 0.2234967418331534 -0.720460135453762 -0.42991684941367675 -0.13466169528555244 0.13330258839789996 0.008343481428173379 0.014708060152376998
46063420000.0 0.0357598048516379 0.06422990729305048 -0.0036569592418912657 0.16498970526514722 -0.7082847079859932 -0.42158097178467474 -0.08372307373889332 0.2187986173392883
 -0.006574917188065356 0.16138656797511888 0.03092339776327238 0.06952277322730303 -0.0832670960672328 0.21285085835021 -0.7147021332662715 -0.4171965647450298
 -0.6950786845012485 -0.4249858492672857 -0.10456709130228543 0.20990067020680375 -0.015336749327405572 0.0658209234307618 -0.12207003304988671 0.1281028651833826
 -0.08659287849255673 0.23286984546745448 -0.7275637493070867 -0.4060918623743883 -0.1376604249677185 0.13156541009313677 -0.03641014777612991 0.04370345334090994
46133410000.0 0.028194748811890744 0.07068575046131394 -0.011098763883217524 0.16203153500562623 -0.6987723435743645 -0.4192259792984237 -0.0903553987765704 0.20872404225409544
 -0.00885782592360508 0.1667102606767887 0.037701567279993374 0.06184813957835774 -0.08953825940315735 0.20872628170680704 -0.7103521042661852 -0.41779335504937126
 -0.6835950821935656 -0.4405908733684733 -0.08430966617854421 0.201325649135118 0.016554253699527215 0.12325941104198762 -0.10916547736662574 0.11641340445311406
 -0.09587303418847878 0.1998759135679053 -0.723356725480668 -0.44260005236970545 -0.09040322227949608 0.14110497176002323 0.03952717955976592 0.13464169378633473
46203400000.0 0.0437545942731824 0.07381410372532136 -0.004411738649311818 0.16310759873108185 -0.6944210369864166 -0.4176512002859197 -0.08695842305663395 0.20023911832486935
 -0.004613501158763001 0.16168576138533183 0.026689995591760763 0.06275039855463439 -0.08474128336173439 0.21385210030924304 -0.7199370811193996 -0.4198111168516877
 -0.6849017806373743 -0.4059522320667366 -0.08803411753044425 0.2153019836112341 -0.050719409194714495 0.15797530493718254 -0.06463107469569207 0.12035127542615863
 -0.07037866699448167 0.21445775501502093 -0.7078871433036187 -0.4097587519626384 -0.14109425418049776 0.16256176269887268 -0.037630658945295034 0.07339770951072391
46273390000.0 0.03837470399248534 0.06844190861263093 -0.006579559358373907 0.1648528165330696 -0.7133312751497539 -0.4180204450987916 -0.08667225288705979 0.21933401533772331
 -0.0028159496879750986 0.16148231919584688 0.03535916435570744 0.06072367488069515 -0.08164145662299992 0.2199042798642279 -0.7224602707498688 -0.4142510232230922
 -0.6971869425841518 -0.39555368745316616 -0.10507755300113053 0.2215612148094851 -0.027627922574693854 0.0765813654150585 -0.11673985336310251 0.12562484555531536
 -0.08301861976054549 0.22749859516902673 -0.7302335758913566 -0.4176537466376637 -0.1233658496834892 0.13361306599316367 -0.05492534687932316 -0.0025463085125311626
46343380000.0 0.032490542764863885 0.071744760261255 -0.008548505350692188 0.16374402659442772 -0.7094164664777906 -0.4113898537406376 -0.09131278079726855 0.2172266441973058
 -0.007234510028164212 0.16265835215532504 0.032340020044945454 0.06063373225038375 -0.09087387517779813 0.209420270648591 -0.7270003026940773 -0.420571682821602
 -0.6913284732572634 -0.40549621001053854 -0.08860216936357662 0.1952852517718532 0.012143152603881664 0.11454141351922409 -0.1232200972147755 0.12460552866451467
 -0.07809836663797208 0.21212803607849642 -0.710177076950749 -0.40881207255834967 -0.11792708638074281 0.14538537074272953 0.022684818764578164 0.0810023800159628
46413370000.0 0.03924458319732302 0.07109053071993351 -0.00956867303817253 0.1688141960172849 -0.7298693483712541 -0.41440953461668345 -0.08889610276069523 0.22175197641801994
 -0.00616524386914708 0.16593823056805623 0.033161545829714874 0.05550053302586058 -0.08131566600552491 0.2217257378622024 -0.730533685624032 -0.4120378337498498
 -0.7182215625009034 -0.3936727663947686 -0.09882681227111188 0.21118466597854668 0.04023667210523422 -0.017958395867362524 -0.12914479449352687 0.10240551954992086
 -0.09416925610523966 0.21642776253782436 -0.7217696583325662 -0.45622565474198495 -0.12046488548786258 0.1597636541391807 0.045104456288733684 0.021536512332082525
46483360000.0 0.039207452288296876 0.06548838826555559 -0.003331251523497371 0.1646554596203622 -0.7344100032949623 -0.40081582616625394 -0.07165883283265916 0.22642778905917668
 -0.0072145850185461845 0.16153710198792767 0.03738953324547856 0.05944945590709976 -0.08788170858530761 0.2008989994753393 -0.7283895895125675 -0.4072834088199212
 -0.7211739681382906 -0.4152831890929568 -0.09976709924518162 0.2158346557333393 0.04588324387207204 -0.0037587595541203134 -0.12300614058480423 0.1505616501786106
 -0.07514321551232464 0.21729866962724018 -0.7335438576233901 -0.3777999122027118 -0.05598737609354335 0.13488639788194043 -0.07023954186019084 0.04032202164246387
46553350000.0 0.038905951279700646 0.07037555350209011 -0.0049689977888816034 0.16604301775935568 -0.7105711059634111 -0.40521549342088714 -0.07816399516356992 0.22128539935566574
 -0.004645884135057844 0.16332356923349278 0.04237874122669986 0.059286007764826065 -0.0809760245196475 0.20828653713575468 -0.7236924401107763 -0.4032802946052672
 -0.720789642136326 -0.4044750491701702 -0.0912590082249046 0.21687723435201725 0.009255146766378205 0.08223847131933337 -0.13756785152779002 0.1555643728237133
 -0.09276065060591912 0.21640699347664175 -0.7218859168457277 -0.3923795946665735 -0.08764105561281542 0.14003464904026428 0.030221609301859468 0.062888843583603
46623340000.0 0.03791510054354848 0.06893057392332859 -0.0045485328678808385 0.16707216884658901 -0.7091894517957809 -0.40684071187053766 -0.07544151383042767 0.22378483187056497
 -0.006056581473767139 0.1682782133818323 0.0366137187672751 0.053756698854355314 -0.10160730476327 0.21356491126017357 -0.7268820790178209 -0.3978244112249325
 -0.704318426125527 -0.40915001687737146 -0.09003518892805426 0.20410622559134936 0.07405447292398727 0.07768505290167985 -0.10299541589851333 0.14115811621647326
 -0.08764862004826804 0.20724002353097007 -0.7062198313867644 -0.4186194286568457 -0.08779585998052748 0.10274780220796577 -0.030594487538085493 0.030948956247606955
46693330000.0 0.03720482615477364 0.06687958438463396 -0.0030441534412903553 0.1620816746131088 -0.7102414641753693 -0.39404661246183537 -0.08288277620240944 0.22088640521170042
 -0.006117697909892685 0.16518223952164912 0.031591068228597016 0.05810341329891851 -0.08167626910515588 0.2276134021246821 -0.7301766981749319 -0.40264864672268025
 -0.7108153868617432 -0.3790507576419896 -0.0622085265757104 0.24272584684268173 -0.08847433983454746 0.0561438411476308 -0.11277139827885467 0.12765645442975698
 -0.08055212424971638 0.2123295395491969 -0.7446706468976254 -0.41933154787927335 -0.139897771300517 0.13810973075118432 0.02221693316647849 0.023273532403657163
46763320000.0 0.03765051772616633 0.06677439814299496 -0.0008395323950752739 0.16439811637594853 -0.7235033541612963 -0.38866124991715567 -0.08136665905831937 0.21491418950343807
 -0.0014300179337764507 0.16683360971580682 0.04058718966996885 0.05823580532090024 -0.0866309325212211 0.22211323057926244 -0.7291615095341484 -0.3922207695885418
 -0.745341071106391 -0.39736842993627264 -0.09902149011964197 0.217193417333484 0.02645924130225372 0.02764687968992167 -0.11487646418196965 0.11176008239459476
 -0.07724721194752439 0.22356615556235782 -0.7298565277513261 -0.38339776405279163 -0.14206182453631946 0.10686012754914358 0.01891634993158361 0.10825126161341811
46833310000.0 0.03851839876290978 0.067152976994209 -0.007907643588914218 0.16804581444669017 -0.7189765366973737 -0.38995494119826707 -0.08481096516007124 0.22639985915196292
 -0.006471063187010198 0.16746285858962454 0.03896809070361169 0.050393328010322674 -0.07573481861044726 0.21983396161856242 -0.7323426830161108 -0.40069674831189156
 -0.7214251074850371 -0.39907150862675905 -0.0785309167812801 0.21611041041903697 -0.007409728842340493 0.049425156596358995 -0.13952940769644093 0.09593786188956245
 -0.07249533915908388 0.21652506083814055 -0.7456895269351373 -0.4182133387712331 -0.10761830886053479 0.16079716169916278 0.05874979994703944 0.06774541564589776
46903300000.0 0.044666917199331135 0.06709730264596314 -0.004764208731168211 0.16199505785170687 -0.721560781151713 -0.3880722111943316 -0.07567635294573581 0.23264809361040362
 -0.003367829009053408 0.15952187118645034 0.03484923016722464 0.060577336974902314 -0.07354391160095869 0.2238733772747877 -0.7268876750139834 -0.3793375595066182
 -0.7210693445492394 -0.3804839852305561 -0.0724754661774837 0.2253022461247273 -0.015622565422366808 0.06559189974953653 -0.14755685005797275 0.12723244274822368
 -0.07186551386640803 0.22277107105724706 -0.7670652230693626 -0.3813019309352801 -0.12049761623495255 0.15635641028444203 -0.09368786061915982 -0.0005571061359495997
46973290000.0 0.033780008575214945 0.06575901988743507 0.0019604362601330734 0.1657362925191912 -0.7230414529330982 -0.38438321376243767 -0.0807053491143098 0.23490865728068758
 0.0009341026696822819 0.162811977915887 0.03911429735345815 0.06342943550405443 -0.07000160522062543 0.2060254993289107 -0.734213450237208 -0.38974246680155256
 -0.7400163395407745 -0.36994761030400775 -0.08733165167549534 0.2168865477557052 -0.05414181071902881 0.07178889373977193 -0.10733270006342785 0.14118188253329966
 -0.07277590994515795 0.23501675713139933 -0.7604485778452558 -0.3921808406827274 -0.07954629359120172 0.1359625996705443 0.028117304177473993 0.008300580087440928
47043280000.0 0.04052453531531069 0.06573670126612832 -0.005337705378100726 0.16495338983690672 -0.7218684687537408 -0.38111990464998413 -0.07085770580769063 0.22932075401890104
 -0.0019806377594097906 0.16697595996738407 0.03930702023018056 0.05284905496653583 -0.07215448741602212 0.22203307585919 -0.7343398787199701 -0.38586083234231733
 -0.7165331113671382 -0.3697733035609225 -0.06024933649274305 0.2238032935105745 -0.042055096691052986 0.08246588706222596 -0.1607515010179251 0.1548211256345738
 -0.07977612466175339 0.23111914140391582 -0.7316662745028817 -0.39039118766365644 -0.10280455938704894 0.16661147963367504 -0.00126719152675756 0.04856246183412203
47113270000.0 0.03994605535661412 0.06344661807532365 -0.007110152203844364 0.17154152414820542 -0.7258399141445342 -0.3745729537408777 -0.07791444359186553 0.22442188021593218
 -0.0028631951621078877 0.16243366427814615 0.03399023622442283 0.05547465234976561 -0.06669095368261417 0.22485231117644797 -0.7190917907224821 -0.3886152446325065
 -0.7350297924064378 -0.3676985062999616 -0.09151473939817764 0.2076271154881781 0.004933321755951199 0.00907811209662531 -0.07712838246413732 0.12085215462509616
 -0.06264994654216995 0.22908975045586547 -0.711166563315145 -0.389884864818254 -0.15432597044354776 0.1639661565884346 -0.028136475955014905 0.11198457146550081
47183260000.0 0.03496609594843999 0.06673159443499443 -0.0016909208322277796 0.1661651770807836 -0.7312579316992512 -0.37929750167567056 -0.06947261682009755 0.22153426864375375
 -0.000757497720161891 0.16986080641387719 0.03966345410312429 0.05756098064388525 -0.07422693443039885 0.2255117633556417 -0.744834176526517 -0.38603423988341445
 -0.7234918699184812 -0.3799754291371879 -0.0652936062446278 0.22301938308531732 -0.049245269194782684 0.0639439766784823 -0.15787140957055434 0.14707278269698695
 -0.07624529183207542 0.21743765541324464 -0.7525917507505246 -0.3860111518438613 -0.08533343692005732 0.15739581354158622 0.08942115029890442 0.037118650608141734
47253250000.0 0.04237666821842498 0.06638636683846616 -0.00993960103020215 0.16379318108552157 -0.7192324149087073 -0.3744023150315259 -0.0695248315584878 0.22628063682459515
 -0.002216128304608086 0.1669985742228265 0.0408475347847408 0.05287440901604745 -0.07668833250602188 0.23416728882089802 -0.7254722040021268 -0.3752703116201372
 -0.7142606924106164 -0.37175562228230347 -0.06368810151260045 0.21968378725020787 -0.09154458215955462 0.07331297529733292 -0.09937058176681768 0.15110305323400056
 -0.0732811469768236 0.23201421302333078 -0.7219142541013291 -0.36953825957022535 -0.09155680188067962 0.14262915945479357 -0.06012988134240254 0.0326223200108449
47323240000.0 0.03958618691951411 0.06578499010606857 0.00027353316533117444 0.16695730167266545 -0.7316394005926047 -0.36117458482746195 -0.08404084113284109 0.2385631745409283
 0.002385504393354883 0.16626919965229853 0.03222704805041212 0.058474199017506556 -0.07833214846456561 0.2206046272122227 -0.734857724005183 -0.37521744021878656
 -0.723762339376544 -0.3651643357439849 -0.06824834529723187 0.22429534010548288 -0.006707701741638546 0.04520258415654155 -0.11763690765732789 0.11932848938409579
 -0.0744678855992317 0.23489475486905015 -0.7476627013737297 -0.3685977560000567 -0.13051141433925992 0.11903010080117693 -0.009867303406093896 0.03292764142512234
47393230000.0 0.03783479960336612 0.06547327531123112 0.0005523610274192659 0.16752866951558956 -0.7313553340694922 -0.36786699926113164 -0.07609595736748047 0.23002423506251954
 0.00015693250863140079 0.16885573378631147 0.04228275796340361 0.05202571235528882 -0.06915709281195564 0.2292907324747494 -0.7332597686908595 -0.35589841754754065
 -0.7290383373433149 -0.36105760231575507 -0.08395625879500299 0.2554475706424505 -0.014782617081981838 0.018883020113074897 -0.131171025209946 0.12088778362230046
 -0.07438448970488692 0.23733361451778695 -0.7455459937876437 -0.3577771332165836 -0.12573704981952125 0.18205541358870608 -0.07455263267415092 -0.023545843816747652
47463220000.0 0.043331497978365885 0.056539083525717584 0.001147508551448095 0.17337280971173777 -0.7323163307872734 -0.36026810614750693 -0.07483815980807576 0.23151549867628846
 -0.0011910401101404837 0.17300601732784895 0.03937281585327484 0.0526286418511574 -0.07074983657868934 0.2244704098842165 -0.7424486622545043 -0.3615006460769483
 -0.7343483735929549 -0.3659165799723335 -0.0948194034559379 0.22784614846662668 -0.013803704341396512 0.06030447675813075 -0.11585963193012018 0.11265755310361089
 -0.08275803719949612 0.2161071070933426 -0.7399700383562035 -0.3717989031023147 -0.09140195063715291 0.15181813351169213 0.017917365129543873 0.01587613469030707
47533210000.0 0.034413264519943976 0.06892782696016185 0.00025565130625159735 0.16867491546606608 -0.7340016557892929 -0.3605897844018852 -0.06800806711367033 0.2408889549546282
 0.0007944295138560954 0.16614509920730028 0.0380031633247101 0.06020158614691148 -0.06074786848005721 0.21125032733639884 -0.7458379710292556 -0.36546780536871304
 -0.7191639503036448 -0.37722373465543174 -0.05324144943125674 0.2237665719082601 0.001351807253805619 0.0845677005850452 -0.11573428057653691 0.17475467770600003
 -0.062303477805616216 0.23885686301283635 -0.7395448617763128 -0.3611859857651278 -0.14575268879510325 0.15122631419444765 -0.04864118907628501 0.06071043691633753
47603200000.0 0.042182541815185645 0.07066442131372273 0.005431442977685272 0.1754540940511937 -0.7317796906996608 -0.3599914119701642 -0.07973997387295083 0.22293925575654078
 0.0032572817162365686 0.17279009662047373 0.04528968479376998 0.04872532726582862 -0.07009022001058272 0.231425769862216 -0.7489267629645731 -0.3679755234559145
 -0.734139334891183 -0.3433773929313152 -0.08333851480732632 0.23534070583124186 -0.038819309925781996 0.028350723003625376 -0.059016624261098986 0.11664582541754323
 -0.0597466054914007 0.22656246912032674 -0.7692125943163746 -0.3697291968517577 -0.11781006343312145 0.1478674287671149 0.028391159683449022 0.10256593511017292
47673190000.0 0.03568379216154898 0.055977982716506676 -8.898301064291603e-05 0.16915562335547257 -0.7318763550957544 -0.35531850246204744 -0.07495819926380781 0.2298129120013805
 0.003387048427791264 0.16848500772746638 0.04394905239330367 0.05120893172332682 -0.06495909839026855 0.2411238914140681 -0.7312013849767912 -0.3569356900753782
 -0.7457093916762108 -0.35472225913293876 -0.07818065121672253 0.24594569353841983 -0.04660375423572441 -0.001976172882343125 -0.13096219990812275 0.14132831176982716
 -0.06692136380149334 0.23108381360335872 -0.7389842992202856 -0.34180620780002746 -0.12785290286100928 0.1288682186474731 0.008842160360574688 0.035814580743413656
47743180000.0 0.03405383055052788 0.0715476722453305 0.0009455574217885592 0.17227686440741227 -0.729637393128607 -0.3499485639891151 -0.0715383418873603 0.23274424453047085
 0.0015072075440850765 0.16990529470216484 0.04418229192140823 0.05608123953881042 -0.0702409866452753 0.23020048905093096 -0.74406102538045 -0.35227704591945475
 -0.7287447772734361 -0.3543452617651876 -0.0899775744626745 0.22165463055508217 -0.047003208044169985 0.012921248624223204 -0.06173966641321456 0.1824974258228357
 -0.06480215755243339 0.234068754187978 -0.7146595437798837 -0.3727101678021016 -0.09667387649386751 0.1440184295679856 -0.02103162042636411 0.05442522922318374
47813170000.0 0.049196469648584394 0.06468098917781478 0.0014959243040757178 0.17203530507241346 -0.735507817529059 -0.3503387503335618 -0.06912543117904847 0.23644109056155369
 0.00292220752259422 0.17073808291007822 0.03425337622920924 0.04903769170929083 -0.06666357592686731 0.22877330332475856 -0.7360761101423953 -0.35603281591095187
 -0.7165900371362544 -0.35282819071277366 -0.07210502110962834 0.21847174612016554 -0.05167222828024265 0.07959836095266389 -0.12529147214864764 0.17760145448704917
 -0.06824652906797389 0.24645647224226128 -0.7261671798834343 -0.35233222156710475 -0.08364695707002123 0.14304085801419578 -0.03588552840806407 0.035374721397412344
47883160000.0 0.03306539745558167 0.054013440250337316 0.00412863444864023 0.1688280786832365 -0.7348920456356984 -0.33677640247401724 -0.06154836659086321 0.22865254205142052
 0.006112688098890889 0.167203349335503 0.04065793533787771 0.05902579001984675 -0.06933207560090852 0.22384435350529835 -0.7431887312373424 -0.338850413705044
 -0.7392186471100025 -0.34981227594985365 -0.06414702572839817 0.23031985587229145 -0.02707348591228722 0.07500393105703183 -0.12453928345784968 0.17806285649197875
 -0.06607824582763391 0.25011379771871267 -0.7562704706446534 -0.3382169302135512 -0.08858241511838899 0.13266014835032677 -0.05229173663021417 0.03028527425023296
47953150000.0 0.03731887939397842 0.08080715759892255 0.0004533756817808195 0.17472559898361917 -0.7279546377618514 -0.350946681246219 -0.06433393017997002 0.22417743319495462
 0.002961048071976581 0.17236394482129186 0.04274883094002825 0.05094952204293181 -0.058405219803468314 0.22883408886414722 -0.7484671763269805 -0.350246108346555
 -0.7223403418557903 -0.331347834553272 -0.06085616677796983 0.19839128609192805 -0.040613541286554346 0.17636450563917044 -0.06396856570896119 0.14415760049711485
 -0.060384399400428036 0.21814711791890912 -0.7239608278994621 -0.36807943554414596 -0.06610727320706146 0.14714892712686095 0.00276793667214634 0.04915566373552562
48023140000.0 0.04749282486044972 0.05918384726673049 0.006303138737707473 0.16950536355061194 -0.736914531961559 -0.33578470312600905 -0.05353168997575753 0.22857624062746087
 0.006103295456658567 0.16940503912232358 0.035216129938808405 0.05210751522055096 -0.07912137461021543 0.24004312994037313 -0.7421591194152022 -0.3358808125237253
 -0.7405952535203388 -0.35537430804818776 -0.05591873985409602 0.2323340883082651 0.002251042539003545 0.02769399141214335 -0.133195012030054 0.15677450365526086
 -0.055026021911434214 0.23869929292208578 -0.7237770469293459 -0.3514737896174026 -0.12395362120792404 0.11011850864261766 -0.06840454594200628 0.047652966525194705
48093130000.0 0.023459987845809608 0.05882070076224106 0.0015359101703195635 0.1742310789295288 -0.7379057265636222 -0.3317022900667479 -0.06931183465135121 0.22792471720286453
 0.008813022955927976 0.17599595261332537 0.03958869724548747 0.06353163702662255 -0.06289430609361778 0.2368032501571799 -0.7478726335304702 -0.34855918357505433
 -0.7394066186342158 -0.3096584028673111 -0.06887542521577088 0.23094232183996607 -0.013516896118745285 -0.012794498650415258 -0.08675087158039091 0.14981215888160573
 -0.07294402591078665 0.24576810286354503 -0.7337570535555092 -0.37277324146198704 -0.12130971379124768 0.13939846446051565 0.06068625053823089 0.04075462765117478
48163120000.0 0.046808824573973035 0.08390459907351454 0.003130702654323277 0.17147512543035284 -0.7404673735786049 -0.33560265610878126 -0.06545460943619176 0.2369013287702077
 0.0008862252869115181 0.1696338712485311 0.05741875543272251 0.04208627443329649 -0.06826153131274831 0.23474973497206186 -0.7556948251236264 -0.33219572300266376
 -0.7298828081844428 -0.33002411626236605 -0.06858849897128869 0.2272190653319203 -0.0012811303945026318 0.0032113903990924424 -0.10354178266594763 0.14167103113827892
 -0.06979445325975558 0.2353837466072746 -0.7433603663244397 -0.33131675814448325 -0.13245361478996934 0.15264465584588252 -0.009256635826905403 -0.012530332391824385
48233110000.0 0.051378100884688346 0.05481876029187123 0.004454083050036505 0.17032859389468902 -0.7425537738542921 -0.3303360715156322 -0.06270340071720934 0.22560109437963982
 0.0073693098448829935 0.17104555794663379 0.030553791096166166 0.05660535182930515 -0.055256112648080925 0.2311747398110049 -0.7482065445760169 -0.32908627849502126
 -0.7452955466055005 -0.33807634857779084 -0.054544348690707796 0.23792032340528207 -0.00972868401425059 0.0425063005835204 -0.10075874060499922 0.14139735316970917
 -0.060118979108887624 0.22713184745789014 -0.742819383499926 -0.3317565284053491 -0.11456842895236401 0.19615545401597234 -0.01816867521030946 0.08915532920202056
48303100000.0 0.028882355115251862 0.06834106566278703 0.005152270315449361 0.17097058142805796 -0.7417830699669339 -0.3394566486163023 -0.063791641159467 0.2425211039558543
 0.003930202268968877 0.16860872634967886 0.052046958460598106 0.06724129818656399 -0.058457145070529196 0.22102647352842483 -0.7460221021810495 -0.3318649713346152
 -0.7349239415336072 -0.3298470719848289 -0.07103960968437291 0.2319054622389157 -0.010267743666100232 0.09164049923566914 -0.11059281425601508 0.1538971176449829
 -0.05729204227459803 0.24227928690959652 -0.7582653948272411 -0.3385391217156117 -0.08974348835641693 0.178894527552381 -0.03945284559165213 0.05119783849209214
48373090000.0 0.054532262026676846 0.07906374484069126 0.005041073151362288 0.17021511531398667 -0.7365327724645683 -0.33045640664534953 -0.060258180212598614 0.24376565992986152
 0.007263212880850852 0.16840323915977742 0.0506906605725809 0.04726009732490979 -0.05776773965773066 0.22664178754730996 -0.7449188047739919 -0.32420141626600585
 -0.7260581894032944 -0.3276707234992926 -0.0750368960433169 0.23606300283974793 -0.008532799349136285 0.07552219002958445 -0.1259178600104089 0.1907224428755603
 -0.06079220933964164 0.25303488726767837 -0.7610085967548594 -0.3371388425755298 -0.09219355871893375 0.1486802407164572 -0.060089562215489466 0.02870812505070747
48443080000.0 0.04745933610992156 0.0531976489699041 0.007188362427511987 0.1724515225923742 -0.7451121168187637 -0.31828923723865427 -0.059957080352868154 0.24213577235327177
 0.007706217447134428 0.17474816311680422 0.03040325560188966 0.060298214750252876 -0.05978299453114847 0.23363146988382386 -0.7419775346511439 -0.32478987387527963
 -0.7365116312416848 -0.3138632401741915 -0.06210237950224775 0.24547665780030192 -0.013422042970053677 0.03839607016942067 -0.1669718063044176 0.15688802313639053
 -0.06129839499827883 0.24455392264598738 -0.7458618859108107 -0.33031960751475326 -0.11405000764184753 0.14152659846318053 0.005790949167182795 0.07472471328145319
48513070000.0 0.029989678422167754 0.07090821549569522 0.007976866921364166 0.17206887764720752 -0.745589819190159 -0.3196587915747159 -0.05996061684327811 0.23657656269978633
 0.004543295506718494 0.1715053487204877 0.05245535328553386 0.06053563929457972 -0.06651356122406053 0.23344200069933446 -0.7481742558764053 -0.32354843700366753
 -0.7427309426385146 -0.329559629690382 -0.05357932220641074 0.23075053845939555 0.004544062302591863 0.07725436466596634 -0.09118622029070851 0.2024409989321
 -0.06064111935370354 0.24423311182199625 -0.751409349658756 -0.3349875195384884 -0.09296918786997899 0.10858786061874286 -0.0017705639125638261 0.02816694003255987
48583060000.0 0.05858682852329677 0.07205309225507185 0.009172790143051477 0.17588597065173825 -0.7436651848859239 -0.3225957892921261 -0.05057536043177596 0.25702010455693125
 0.008067880743841255 0.17032654784750592 0.04648650406801008 0.046419843301227066 -0.059594429731453215 0.22521523106092337 -0.7506591380528208 -0.3143185241989641
 -0.7368826441667671 -0.3193052291510744 -0.06976264043494268 0.2558353749741132 -0.02308648569342257 0.08043478194002227 -0.10404102244561263 0.18695400149496566
 -0.04633014779205614 0.2606387043182595 -0.7833643721549048 -0.3337939190422505 -0.09426835176879302 0.18791683806501813 -0.12322599791677244 -0.021194470256247155
48653050000.0 0.04420375279869159 0.05794563996706777 0.005761897803538561 0.17106997739298832 -0.7481246751605765 -0.3129227837353095 -0.06508617028602857 0.2318045510831273
 0.009087105755566012 0.16969447544644395 0.03730659915484215 0.06639863464203984 -0.054704583170104876 0.22498565146002236 -0.757881607025444 -0.31765372026141364
 -0.7394613988248413 -0.3180952624421859 -0.06767489938216949 0.2168590945705956 -0.018276139224364697 0.08881010912296193 -0.08052766993943411 0.08907984801392671
 -0.05340998707181535 0.23013976234303976 -0.7265616109108474 -0.32303185754570596 -0.12493492909958924 0.14525128072571808 0.016404711386479982 0.019329801810514677
48723040000.0 0.03889708200978106 0.0726728081913316 0.004914703596759657 0.1713240682440065 -0.7459822713641024 -0.3038724658556496 -0.058878504968498266 0.24435963455630763
 0.005460081002187933 0.17115639306357197 0.0625130983897252 0.057647258484218956 -0.05042249502679002 0.22988173558644853 -0.759348502387817 -0.31063292052960384
 -0.7381136432914209 -0.3137912015995238 -0.05227262876750829 0.23785841734003677 -0.025074218024026103 0.06486200664284397 -0.14168893040897537 0.1627114963144278
 -0.04917985800121954 0.2373491220985682 -0.7120801521969496 -0.32070294132647637 -0.10806593318908547 0.17186445103397496 -0.051253412552313755 -0.004151032871475985
48793030000.0 0.05567435614297129 0.06702508919780452 0.005997168655048467 0.17793605946339006 -0.7506634973085005 -0.31539264043164933 -0.0605081519734337 0.22933665480345017
 0.006470641099522109 0.17376812298822467 0.04274921554814931 0.04451508189678851 -0.05317268191325556 0.22898655906103563 -0.7513395361538976 -0.3044856610981889
 -0.7531855930581529 -0.31238635144617155 -0.08681078259466067 0.23428912943614483 -0.03892010526727242 0.11320417893185147 -0.11406990127907006 0.1086975528376028
 -0.05934272139000756 0.23469066369656777 -0.77172124199571 -0.29927516047166924 -0.08133820334552334 0.1550704338876798 -0.05526697159885471 0.11594616204822984
48863020000.0 0.042837209761604315 0.06121936888749679 0.007808298784483941 0.17493947762499173 -0.7537230206805098 -0.30875865025685173 -0.04960709115062062 0.23739365602702592
 0.009418950725687896 0.17130578117263515 0.04617778964425319 0.06000917396291906 -0.057836008755512015 0.23198308488695235 -0.7467759256152261 -0.30762958683982744
 -0.7431228621704447 -0.31492122819409013 -0.0598209100729266 0.22971024839379028 -0.032586621749999975 0.04844084601363655 -0.15627663218566099 0.10123884312679067
 -0.04798289863489507 0.24095377399168552 -0.7707048722182533 -0.3226046406052733 -0.06995087313040739 0.22141511930701094 -0.08650103087091357 0.07207429011574414
48933010000.0 0.04693581857141289 0.07196109610813509 0.013644820878804215 0.17167181994050207 -0.7522153778805 -0.3068126133480699 -0.05784259949749222 0.24613006400665213
 0.009218257988188332 0.17393156459860337 0.05418139487413691 0.054050354853196154 -0.05389604659290151 0.2371438702914922 -0.7539624831916986 -0.3151265216455071
 -0.7547512452239172 -0.2969149385647002 -0.06282481678571518 0.25601021947494945 0.03762671063502456 0.025747363765029136 -0.06389916143582772 0.16716025433745965
 -0.049413965398228864 0.23748156273514598 -0.7297114448144881 -0.3147723307585451 -0.13478635237620637 0.16803461817660278 -0.05521169652444011 0.03115540491652743
49003000000.0 0.05423241824036365 0.05899175462238736 0.01460247887810978 0.17266024178902056 -0.757292772820535 -0.3041181174577707 -0.04928531568862548 0.25537088888444
 0.0147958540232228 0.1738266690115222 0.04817164153568067 0.052400325234656646 -0.05802485392150148 0.24386868036606535 -0.7655648023706693 -0.2998890150109556
 -0.7596028693515451 -0.3110388036438796 -0.06098698955540172 0.24982430326446928 -0.034663354908176056 0.014114386903702276 -0.14455627693256284 0.16860071377236688
 -0.04666958665736818 0.2660421981226329 -0.771144583809167 -0.25786124431771323 -0.17200046597220667 0.15256534836802652 -0.09112231601855657 -0.038172989091528504
49072990000.0 0.039967104325755176 0.06707152187897018 0.010224181402473548 0.17247186086850366 -0.7519322574536551 -0.29620915330565717 -0.05801442370184777 0.2281285797274987
 0.01455139798564688 0.1792130326357003 0.050561011753493625 0.06141803207304979 -0.05288674507815791 0.24375802979041855 -0.7667907846920938 -0.30182741770119215
 -0.7675149420922783 -0.3049239991786192 -0.053702735878778156 0.24920822349434718 -0.06161995826946859 0.06712303682444673 -0.14294538721914263 0.13999957222685938
 -0.04390437674726893 0.25097826016847063 -0.7715981856759775 -0.3131190264598132 -0.11711041454042759 0.18535706178558262 0.020348798585726906 0.03140392911784575
49142980000.0 0.053067272345721915 0.06647284497750437 0.015535446351149467 0.16787860561155185 -0.7549698512879025 -0.2966708005417328 -0.0486216375107701 0.243471271034381
 0.01453495992687072 0.16949326488694974 0.054136264776718374 0.05015671202207685 -0.05857342956082772 0.23790537544473775 -0.7732739029785494 -0.3014169339547153
 -0.7620163570499695 -0.2990068939843027 -0.06084135108427297 0.2486775577956394 0.002124591643533258 0.07232220923888018 -0.1251055505652397 0.17891437320108353
 -0.04663409756702714 0.2439578562515735 -0.7589279933729658 -0.2762992042296419 -0.0848624404911755 0.14549502236143097 -0.010775713106016526 0.014380579774338655
49212970000.0 0.04937431504376055 0.05723017088652932 0.010676931345962311 0.17850856165780665 -0.758561522682074 -0.2950707503379169 -0.041816870356696546 0.24067709935420745
 0.01030859134069669 0.18174292205122214 0.0333893905400425 0.05029069396732381 -0.047272112750875186 0.23478614963867017 -0.7628614157703721 -0.30386941760497677
 -0.7549547468364307 -0.30014149575648 -0.0703901070290658 0.22489430470915467 -0.01778626403791995 0.09112955780144393 -0.13068353156921328 0.1454646891916981
 -0.061298537479861914 0.2419617638266655 -0.7284384936800404 -0.32224905101986534 -0.046474187544016284 0.1434885935292387 -0.018263685468337773 0.1149946197358818
49282960000.0 0.04567895482522629 0.07798888224952058 0.011623858292608424 0.17048824196246062 -0.7535017170361291 -0.2938947058306182 -0.04039510631435406 0.2460964327001438
 0.008000681194192286 0.1723147193682732 0.05724715851605456 0.057161495449524445 -0.05241840272247153 0.23303683579798998 -0.7752812497506026 -0.3020731353779916
 -0.765472089320939 -0.3001424435178975 -0.05083762693479966 0.23396862887649916 -0.033192909563576366 0.08781699110818299 -0.0858140631607617 0.1979168610924755
 -0.044158273372891466 0.24005673237480776 -0.7589236663709451 -0.33338593714062237 -0.05434853545318006 0.15040678172726915 -0.03242471584466981 0.06426944324461718
49352950000.0 0.05667306459117747 0.06099922243414943 0.014417033691733505 0.17874666148999568 -0.751486312342226 -0.2649379406228444 -0.05740772896457874 0.23531925399165718
 0.014910699500735505 0.1794928482641837 0.05343969027319966 0.04777755994006538 -0.0536376294255679 0.25250122574239514 -0.7726233974507896 -0.28127147818372433
 -0.7727939136420267 -0.2712222843497481 -0.06675994139557759 0.24196296598751915 -0.0946081538020283 -0.038843882738059055 -0.10323643407068628 0.15160992902171067
 -0.05022936673051975 0.2361768127329543 -0.7760135115907396 -0.32731424858057767 -0.12395813891727217 0.16281025621290388 0.0005787186933325879 0.0858272361624502
49422940000.0 0.04077387163013507 0.05729449205459127 0.009342724808828584 0.17766109052694168 -0.7558015145119957 -0.28788121490502944 -0.0555233824517854 0.23488776133787131
 0.018822105382966747 0.17622883093118094 0.0427540793365229 0.0507534547299322 -0.04856435765497543 0.25228835864469107 -0.7697560968273612 -0.2897877703995752
 -0.7487148279788858 -0.2838121157549535 -0.06360925132839014 0.2292106422510476 -0.03441508348041443 0.1009879028989552 -0.10951992732732381 0.17713142885339225
 -0.04989759188281945 0.239123582545959 -0.7134196294370779 -0.29094944339169815 -0.13196066748232563 0.12147461229044232 0.03874803244548339 0.13468151617342697
49492930000.0 0.056852551651249104 0.07608589878803794 0.014178144863238689 0.18090403829003246 -0.7615514401295236 -0.28464303686500714 -0.04138769113301134 0.24425485281924583
 0.013136704155576403 0.17810902029699005 0.06039114665770463 0.05091150598201928 -0.06258772396801998 0.2386550619044085 -0.77093882140951 -0.278439986767464
 -0.7691879017107855 -0.2897961340855472 -0.049071346796110416 0.2518610742786411 0.031274695336134486 0.03788436397928597 -0.05566256080059317 0.15769686275093656
 -0.055190215209472156 0.24786579188264765 -0.7729899132590683 -0.2718276057336488 -0.05250681409172695 0.15515055786318385 -0.0009972642275258125 0.03386844912400392
49562920000.0 0.05887029192925666 0.05453216377215294 0.014079393330277556 0.17774186686913948 -0.7615750308607974 -0.27489429587302616 -0.05038885856685195 0.24520594728257525
 0.01829344282272468 0.17446288621711958 0.049787837243394056 0.0396254128540159 -0.05373065666075854 0.251743483627905 -0.7712745002303744 -0.2683175587783271
 -0.7705812684140411 -0.2785982305425365 -0.0492044873896839 0.24576664270216822 0.03150825939187083 -0.001050160013113514 -0.1209442630871735 0.1497840643528769
 -0.03811470925506154 0.26733593355691637 -0.768399502250248 -0.2825347864533688 -0.1323320636955178 0.13212389886250536 -0.03160001586464552 0.03701678403942379
49632910000.0 0.0412711008472654 0.0663626907929027 0.021334772570811962 0.179938280080546 -0.7639677335254919 -0.27306177338890397 -0.04871445002747111 0.24198035534992754
 0.020562883288737732 0.17718539433009642 0.03466871096868463 0.06462290718194919 -0.05398122839928511 0.24381376121287096 -0.7787826028964915 -0.28313817193308943
 -0.7697197774361619 -0.2656956297295638 -0.06449404713350776 0.23406278207821296 0.018655632367262188 0.10083326865478373 -0.0902896423574184 0.12392746707703492
 -0.03933843011536343 0.2398639914247876 -0.7948510709266893 -0.3100289405559002 -0.11954420782358151 0.20664331164634187 0.03250095680803056 0.037783500516114774
49702900000.0 0.0646572085452715 0.07862951436523702 0.015526848290565602 0.1735329672378702 -0.7704223963175324 -0.2569322418686255 -0.04272776409096339 0.24406396125002697
 0.014222110613849337 0.17904852174911634 0.060221003018166464 0.05002886924181108 -0.0564957045573574 0.2446415992685419 -0.7842412764874049 -0.27214285395144056
 -0.7517063984444998 -0.26823398469518556 -0.03618652843263279 0.23676357071723428 -0.055467821580447725 0.06918045661743143 -0.10758456811934988 0.15019443166507984
 -0.05556661809059052 0.23976885793297092 -0.780598382624043 -0.2713336853047156 -0.09368880195048929 0.15164714084292155 0.003409509654698061 0.018724312876545572
49772890000.0 0.05738248398395072 0.041889974562160676 0.01450578860049119 0.17578847260771568 -0.7655675469369972 -0.25973509955901253 -0.03753572392725434 0.2443272875179365
 0.015695043381159776 0.18450572903061488 0.03519621977490265 0.04220630928804559 -0.04401604151527382 0.240457959481444 -0.758471826714342 -0.256274193987883
 -0.7689255061555894 -0.2588915499545416 -0.04031831563261798 0.2171489583341792 -0.020278875799803742 0.050481691166726086 -0.09756237421261811 0.16924074465638586
 -0.04394984879728081 0.22707979840033798 -0.7352581118942478 -0.2762159790239924 -0.06351495245892422 0.1665594600142507 -0.08689387481323989 0.041446810713359046
49842880000.0 0.03877483548809374 0.06355365439750738 0.022332144682563202 0.1711492446226295 -0.7657587976926499 -0.25322085583160325 -0.03818149344685373 0.25806214492831436
 0.018301589571720463 0.17024184639353598 0.055264727064456176 0.06017236553649129 -0.06011073471873087 0.22897381060904823 -0.7696104041379922 -0.24863523950384128
 -0.7621175484603872 -0.23129477604904616 -0.06232985373304718 0.22881996191330078 0.00017103881374058637 0.002407959462765055 -0.11843996507771186 0.15005714182022376
 -0.04198960612513586 0.24729953355949516 -0.7675918637080733 -0.2435534638389243 -0.08162080227513427 0.18113489683314604 -0.03823189677060118 -0.016239424744813814
49912870000.0 0.07213803079377279 0.07375459426924712 0.012177231935916093 0.1710461057419851 -0.7576904307197078 -0.2744177201951243 -0.03524169247958011 0.24466899641525452
 0.013951685933010037 0.172762287594857 0.06136133955091315 0.04013625489262269 -0.043291376119237404 0.2526137359377615 -0.7634753228959446 -0.24594702740250232
 -0.7560325453112645 -0.2600956034416808 -0.02877400600267062 0.2479057808534067 -0.011116322092476353 0.08513208162205091 -0.1186070408697821 0.11975192260016278
 -0.024842517028221198 0.24527297747371118 -0.7468894799433942 -0.2501913100676851 -0.13169884283676825 0.16321966254182413 -0.1289124637237216 0.05871102905681244
49982860000.0 0.05312616924298148 0.03912651417451041 0.018929030695101566 0.17727859613853417 -0.7658087571797934 -0.2614768871341368 -0.03958387057768178 0.24315385396881375
 0.016036265868398004 0.18299885679619513 0.042133984871562606 0.042355857599846815 -0.03831079989976556 0.24463452276590156 -0.7798827048718688 -0.26565474223222996
 -0.7654709474580744 -0.24537535737645075 -0.008015152536919574 0.2549003334392479 0.003507225781802001 0.03518123757994593 -0.12750302566789384 0.15229896987278846
 -0.03608097566640877 0.2419575510799825 -0.7870510551900304 -0.28362118674160436 -0.15367979712352933 0.2153588891493266 0.01039615698193087 0.15262469808424983
50052850000.0 0.037245764219923004 0.07510626632471681 0.021722126078926603 0.1757303099689936 -0.7665159163178077 -0.25686542419089786 -0.017121132480669075 0.2479522880685319
 0.02135381681588984 0.17691277098138453 0.059464433583048176 0.05828661214668374 -0.05357844295450277 0.23768440385416245 -0.7772596435033522 -0.23968366111537892
 -0.7690535438410474 -0.2657420885519771 -0.041281425434534946 0.24709365690193427 0.02646612866152284 0.10126716599158296 -0.15508369959152815 0.1422006739302831
 -0.030950566869433017 0.23399017223509302 -0.7727856328529257 -0.2548698532736637 -0.08656057114367259 0.17694295932474463 -0.06798505460913991 0.04198481942024236
50122840000.0 0.07024903359272165 0.06228089581743886 0.012710238675061521 0.18129016700127978 -0.7696268152762004 -0.26374829576904996 -0.026363123177348277 0.21408455005040603
 0.01340785336852647 0.1892355052208159 0.05904015346816158 0.042091667218908134 -0.06430025617685499 0.2366871169332142 -0.7931266596104417 -0.24660327849224745
 -0.7763290160794056 -0.2526236353740268 -0.049723612211932236 0.23313876093937327 0.040912332772500344 0.08767125494695559 0.0058714750407704444 0.16423402599091225
 -0.03441691876324562 0.22632001719318334 -0.7688184455238701 -0.2755645259169331 -0.040781732608780985 0.11460499262171922 0.033623642477155845 0.11966160554885244
50192830000.0 0.04868209784785495 0.0398697349929681 0.027023260985735525 0.1818233440589489 -0.7650038340077897 -0.25183267836152873 -0.043386600677354545 0.25767869221446615
 0.02723571044264407 0.17660104184551603 0.03317817974059723 0.04434499227737564 -0.03605813511626833 0.24763213894363906 -0.7713516236995509 -0.24621420652574064
 -0.7566955054227859 -0.2423162409906832 -0.030818606020632994 0.25536066947845987 0.014147637534575564 0.13796968199132134 -0.13141471602723848 0.1399174988463874
 -0.0282452125128381 0.25339059663460317 -0.7478540072013947 -0.27123618788563286 -0.1526985979862269 0.16107563598764985 -0.027411219151402887 0.09671326070951787
50262820000.0 0.04320829689987003 0.07732260128676745 0.01715922168111248 0.179158387753445 -0.7602439164144302 -0.25011134389311973 -0.03671904993230464 0.2608866882349025
 0.022221761185775783 0.17458020155336865 0.06471949584078028 0.03737958528581278 -0.05661608081205138 0.2539331516805972 -0.7708591639504424 -0.23629185131375793
 -0.7514279504803084 -0.23928246295756073 -0.046045378771727076 0.23630158324733425 -0.012822884902520537 0.10930484700235847 -0.11625097674544684 0.17579334835727758
 -0.044171514628465275 0.26050673303793637 -0.7239725002269378 -0.20766004621502052 -0.04868945445397833 0.12346128315121392 -0.04379339332961183 0.052608563007200806
50332810000.0 0.07302650219101367 0.05204715649097385 0.02010461615351429 0.1808162305890015 -0.7677291776979416 -0.2380248880195092 -0.043480139085624814 0.2442813130742651
 0.022031577696154225 0.1784122670435489 0.054241687356416324 0.04156626773237866 -0.02632266051369763 0.25654639644007 -0.7684400206336004 -0.24233834218124461
 -0.750234796681499 -0.22855248738299974 -0.04451763760572166 0.22573812268337784 -0.036105668266558776 0.06485949237535854 -0.12748060693341381 0.1435273338917046
 -0.04262480060497486 0.2521770301286885 -0.7691562466991431 -0.255563084886809 -0.1747670848761458 0.17139572045649737 -0.023863332712299994 0.13164707456846075
50402800000.0 0.041387161957138034 0.04429884465937036 0.025150703765677213 0.18345911230245443 -0.7567271267164128 -0.2486689744837456 -0.028523436996648614 0.25809278615624
 0.02405410950012287 0.1821425945423846 0.04348897847219446 0.04697140504893069 -0.04049669029080105 0.2288389392588072 -0.7894587875305682 -0.24322372356170163
 -0.7564208156835794 -0.2311354636917761 -0.032887354800214624 0.23937507413372427 0.03552670528067206 0.18025103364933143 -0.13197290095945602 0.13923044831327677
 -0.027300463133605117 0.25289049026750904 -0.7925103534880309 -0.24870711151606112 -0.11368491291849597 0.21325141159698122 0.0005348177060477839 0.07799805820627839
50472790000.0 0.05177411189971735 0.0727764528861904 0.021501933473097562 0.1744832161450691 -0.7755106265062587 -0.23696715520363618 -0.02645938756980683 0.24966500315605009
 0.01982635211094523 0.1739637188532554 0.06917930315499757 0.05473577381800093 -0.057253396013167514 0.23312569049149062 -0.7799191097812354 -0.23043338693163912
 -0.7920384549821476 -0.24751012599651473 -0.048086150467082915 0.20366799413108733 0.05342636248718627 0.03348089596659478 -0.057022938904819555 0.2699603481462691
 -0.03131498470185645 0.25516784070030524 -0.7850321123681302 -0.24355315824151086 -0.07899125380170338 0.17061086942302695 -0.03460377706136677 0.07656474921729123
50542780000.0 0.06878467420033718 0.054853125165833794 0.027348963976712777 0.17865725127248172 -0.7716024578476104 -0.23767224827007552 -0.04067253200813718 0.24311593587643057
 0.029531292484058228 0.1778652120999156 0.04918128430294082 0.037159619598345045 -0.023070929047660605 0.2540855959364217 -0.7838556953966651 -0.23129306192930674
 -0.7658557838181109 -0.23939853135056208 -0.04189615812834461 0.2660308774279449 0.07294923482573204 0.06977462772882577 -0.15928498390743398 0.1124198282907686
 -0.031456362486737284 0.23876927193268 -0.751232553128095 -0.23623869594675923 -0.14158324538376707 0.21254897993912827 0.0720730564409923 0.03866875312638759
50612770000.0 0.048202511896719875 0.053335192288850405 0.02665818929527506 0.1824182896169859 -0.7685516552803253 -0.22919699449507888 -0.0394680283700731 0.25589052039720095
 0.027221159076236907 0.17700253556590112 0.04956041633620221 0.056498161929277896 -0.029653530584628572 0.24330905297738892 -0.7718659033713972 -0.2247240965936139
 -0.7541142229366538 -0.22233122868959726 -0.07314853958349975 0.24123390311952048 -0.027993555695128503 0.1372726159256088 -0.07266897991781888 0.16693515749960441
 -0.023064568039165765 0.26375964947032887 -0.7897189524208142 -0.2201087282112073 -0.10788935614491071 0.15686793449194777 -0.0046143052946269756 0.059361020203482016
50682760000.0 0.05855893061314751 0.07360563821612066 0.028068874479392818 0.17848259122421475 -0.7654102603779227 -0.23205921121316272 -0.03491774659337541 0.24516573407452277
 0.027157045193858108 0.17542951027683698 0.06512007060080964 0.04847045788852201 -0.02775509954124635 0.24964034967719503 -0.7776574328529372 -0.226291012671043
 -0.7594643825632409 -0.23601181036638005 -0.04047291499981174 0.24435028192767938 -0.013525275618504194 0.09779019961139997 -0.11977242632633117 0.19145652798868834
 -0.025269467972912126 0.2501030743177745 -0.7918094650887499 -0.23309626011656637 -0.0959218521946931 0.19205190827011098 0.002423691513955608 0.08242383567935248
50752750000.0 0.06236573952179065 0.053482212929121954 0.027136986150118465 0.18459117728047217 -0.7722844328637702 -0.2306507437140635 -0.031957211543556505 0.2542236896428442
 0.02749615003338819 0.18079701369004242 0.04265231305538292 0.04620460130676156 -0.034557639659820054 0.24138022591767672 -0.779704199413924 -0.22167356610869463
 -0.7911486321226373 -0.22946814689224043 -0.027941485292039207 0.24464551457330666 0.10325557320623428 0.1022648339815516 -0.1375160389472619 0.18613220927015495
 -0.036399063473284886 0.2448645956095205 -0.7688363912264645 -0.23159399262134617 -0.08475731586272625 0.13272415643673324 0.006083161952297907 0.08444864055576701
50822740000.0 0.05488842950167796 0.05685898522816404 0.02522322839147278 0.17862333338495423 -0.7675077350866351 -0.21491305135294606 -0.03457635406775961 0.2509041670762086
 0.0289669774964558 0.17653894846238932 0.05463266941365602 0.04933730563919186 -0.021377104501084897 0.24251707273677692 -0.7815740534755821 -0.2206343320615939
 -0.7775911256462859 -0.22821173533050657 -0.04780419079290223 0.27576177428714777 0.0005425200802476746 0.04603544484974492 -0.09905749459900487 0.17656170048154918
 -0.025936882012503826 0.2597600049050349 -0.7641791231341132 -0.21778164877996603 -0.15091288592628724 0.168373615739218 -0.039366992407742406 -0.019275808573747517
50892730000.0 0.06049722485025545 0.06288990385636097 0.02998412655065197 0.17553002151731484 -0.7686284390897506 -0.22483258523599695 -0.02613381186663131 0.2553074975356779
 0.027251276556845526 0.17371296516333867 0.056375220361695816 0.04004823674377696 -0.02724049518047438 0.250507872395132 -0.7758907107451621 -0.22406377690776816
 -0.7658739807233972 -0.21085761401972056 -0.016014215199990467 0.24821871638725673 -0.07298795797316471 0.05949316999990209 -0.08559998204421367 0.17728680461477608
 -0.020736031713723624 0.25345442243468563 -0.7804666311563014 -0.2105787521556217 -0.11742228708140437 0.1836271771413358 -7.226892441234634e-06 0.04770396690211597
50962720000.0 0.05575398938349034 0.05782148322003212 0.02799406039563761 0.176282147924994 -0.7747714241719853 -0.22350323555185392 -0.014810897113516967 0.24011948947045184
 0.028694259610360283 0.18127019086881563 0.05004638833080505 0.042092464278604406 -0.038740982052707054 0.25085558276489767 -0.7779793794321166 -0.23217413607212822
 -0.7638434901484709 -0.21760816211781114 -0.06415946335058177 0.26549943270508713 -0.031145496421045086 0.09964130459371882 -0.09814383228647248 0.13518756607777815
 -0.034958511121976885 0.24298969176758992 -0.7391879837098356 -0.22419077640643745 -0.11073846194690747 0.23232347772630418 -0.006629250361924262 0.1496861109196735
51032710000.0 0.05742968824822642 0.061304121425334854 0.035017057604966206 0.1752867203219216 -0.7725229449753971 -0.20732497427679342 -0.04087852426586221 0.26190753329694144
 0.029663417505160154 0.17300810887315862 0.0620188686433658 0.05154907872523479 -0.02227818519051596 0.23249913675728828 -0.778653278356296 -0.2058657404892376
 -0.7738620181320108 -0.21440004065802637 -0.05225571500333486 0.2623649794042204 0.02347444114048164 0.05345591271986978 -0.163567018172538 0.1613232036048774
 -0.033901836544561005 0.24342975475786002 -0.7953930164996361 -0.19346799068757334 -0.06136094593240126 0.19116052694359184 -0.02339456628305174 -0.029342086113377474
51102700000.0 0.06097157039934447 0.05507408679746877 0.03174562305569982 0.17582248730129427 -0.7845541815651244 -0.21753631655040642 -0.013575681343577336 0.2578245616100397
 0.026003386954135566 0.17219101288001482 0.056820606533967206 0.044353146649913314 -0.03272009804043835 0.2407891370388562 -0.7878628275325028 -0.2097695591158463
 -0.773749087985498 -0.20733846996665123 -0.014130175221830833 0.23117199261127178 -0.0007787058448035266 0.0319661017215426 -0.0707832976827266 0.1726707730519593
 -0.01825337446629075 0.2605139932351226 -0.783740767913556 -0.21511309782152477 -0.10515245108839007 0.2031068524552059 -0.06816756974361321 0.0636367216974527
51172690000.0 0.055106707810541465 0.05961915229134358 0.02908685438099666 0.17938412399562645 -0.7711648103390277 -0.20302499395475318 -0.017755147557498394 0.2609103049786484
 0.02928500661432802 0.1726567585901101 0.05506311800513897 0.046876374489046475 -0.031208322547129224 0.24888184032091062 -0.7747018626283291 -0.20852734702473694
 -0.7607791430787968 -0.2128241997685695 -0.020995226065515404 0.24427400960878257 -0.0384438333998786 0.03169865261020087 -0.09413870880314087 0.18398613007327175
 -0.015002696622323683 0.26550840894279715 -0.7617885019375373 -0.19190645859693992 -0.09741243503267934 0.17827669087204626 0.010834268389764668 0.02305783846038033
51242680000.0 0.06457337711513969 0.05949063920946105 0.03600911977359415 0.18221433735386494 -0.7732070320215195 -0.2046308617262651 -0.022733950231272494 0.26333622901228937
 0.0331582019923898 0.176690941571173 0.06194916125051855 0.05411306336148951 -0.03753036114357576 0.24684277881598096 -0.7825646283103556 -0.20858417153669184
 -0.7727398771854972 -0.2097156287240806 -0.0481622618477505 0.2622531154793537 -0.0005001743680918997 0.019116698849227474 -0.12775894395619958 0.18404164717615062
 -0.017774548175936305 0.2722874576582593 -0.7924412666183847 -0.22187987873922857 -0.1293077419410584 0.19416763257059677 0.05141467317696853 0.0618648303161374
51312670000.0 0.059711690730635696 0.05361368282130316 0.027835364084488622 0.17545461202333842 -0.7737056756664499 -0.20572257181520118 -0.025764705630799904 0.24861499477767685
 0.03346529531659701 0.17789758504025208 0.04922866363122119 0.0426547875336783 -0.021092731819792526 0.2612925696264582 -0.7775786076004304 -0.20875889244966897
 -0.7810947919144705 -0.21471673582148149 -0.026722906304918474 0.2613047119347613 0.039160191489297315 0.039880542141017335 -0.09929454757458116 0.21288254911142301
 -0.018896670629693343 0.2664508230643254 -0.7700503670485391 -0.19135427975975178 -0.08442897266281546 0.2045825724819395 -0.01746763391032498 0.04641874520198471
51382660000.0 0.06021848813444568 0.06457294268464718 0.03193341054649528 0.1780544846974076 -0.7793638056172464 -0.20326328005064925 -0.027748107963891464 0.26230953030720056
 0.030041485045601685 0.17712407071304623 0.05082306061612484 0.050070375483312585 -0.038341410713997756 0.2378304736151526 -0.7815379995761134 -0.20501953473500642
 -0.7741037792195083 -0.22545478460054927 -0.033811922644016175 0.2552389147893503 0.06005346351727196 0.1259220679051251 -0.09637267990806281 0.14827114093785282
 -0.002414209874175612 0.2461816158929932 -0.7757824302499458 -0.18495767263805646 -0.0886238712545711 0.20207573207486831 -0.055721285572883465 0.08748511397004127
51452650000.0 0.07029780121811215 0.05573563179442207 0.029159986396514445 0.17680028784303298 -0.7809001754635418 -0.19453091431918507 -0.028222043166954532 0.2607704527802406
 0.032367170924857545 0.17467352580991483 0.062414601402277094 0.04674994658629076 -0.023002401496056948 0.25204809898529457 -0.7755492548826842 -0.1920022993233363
 -0.7721055839308011 -0.19353987096938877 -0.030969024040752923 0.23401157861907182 -0.03666819248183857 0.08812218596380604 -0.04565658697802667 0.14579021021609817
 -0.01520981275909857 0.2623535122776698 -0.7805015278323275 -0.21841928964904328 -0.10258867488564162 0.1542547063075482 -0.06058471642626603 0.04435787447676732
51522640000.0 0.05742348700452129 0.0482927325464747 0.03357175113843326 0.1788848142095241 -0.7694240760318599 -0.19851959930555857 -0.016954021504302575 0.24932927201117877
 0.036662474840593214 0.17952331156188645 0.04613760409750634 0.04430570231751666 -0.02835840731144625 0.25509227860105615 -0.7878901216331279 -0.19509546595645866
 -0.7580317285146561 -0.20064016829437337 -0.010182103632754425 0.25432363205841124 -0.06156982892715387 0.0827767062602574 -0.10465949657199827 0.20175606391087642
 -0.02542221085460863 0.26100366970878436 -0.8049469694230972 -0.23345199898600733 -0.10629629459146973 0.16422545357376908 -0.019139553684298764 0.05835604820255216
51592630000.0 0.05934484713913204 0.06454761742880294 0.03472917624318302 0.17338610342161245 -0.769567668488364 -0.19584853838678978 -0.017952914528113883 0.25942514116373344
 0.036971558087232674 0.17376957689615247 0.06149699995806319 0.05168593629016942 -0.022409848303868912 0.25149401355585055 -0.7778484956469143 -0.19115004643057318
 -0.7633932933781221 -0.1866359369817541 -0.03701128729306047 0.2513137082387722 -0.004728042883804633 0.08698872265806214 -0.08676318554208898 0.16741318821654058
 -0.019903047862647523 0.2579568875462647 -0.7626892427005775 -0.17289522622758502 -0.08501114527399971 0.21674135172919612 -0.061433478913332104 0.09745207966706941
51662620000.0 0.06774270889377837 0.058698872003985735 0.03794208908182506 0.1778384092172757 -0.7776751158893311 -0.18484526934264417 -0.021509738550364022 0.25151921163531626
 0.039253392168052674 0.175586261595843 0.06913771319138994 0.04898526276851468 -0.028405267079010983 0.2693445726416577 -0.7786063130982065 -0.19774370601946092
 -0.7796740744805892 -0.19286751321778195 -0.020225248942966585 0.2624230440597802 0.03551630647335265 0.05271276022481616 -0.07733036654505972 0.1363675781206989
 -0.01817714441879292 0.2697701324587271 -0.8040874728213198 -0.2170814068244695 -0.09626560368215765 0.13170237193956083 -0.010566642767635762 0.12596556713793633
51732610000.0 0.055562186577792605 0.04963515685159666 0.04039602591928628 0.1756922306444658 -0.7761588637741604 -0.1909143999258921 -0.0207824284365274 0.2642757233175684
 0.03884715880193412 0.1742300893433231 0.05589052576625819 0.042995379643855844 -0.016900893398602315 0.25492748982122476 -0.7823350831208503 -0.18392725479794245
 -0.761736562140348 -0.20285896506413054 -0.033973477884345286 0.2494310436477855 -0.014097424650032117 0.0588244689290116 -0.09194099294997199 0.17923625508903474
 -0.022522384323642335 0.25837155597105965 -0.7905981220152237 -0.184041948625386 -0.09846449716934784 0.18158931586265561 0.020782465251053803 0.061948673245719274
51802600000.0 0.061290829675156755 0.06655417298432818 0.03687810797841485 0.18138046330212645 -0.7757966834697219 -0.1828044935669183 -0.01373995967076703 0.27268697106864725
 0.03360651289724179 0.17891432280153763 0.06344053975887837 0.05377419862377869 -0.03344799333450577 0.24646461166894107 -0.7856907839549477 -0.193386977684268
 -0.7708653907764177 -0.19860163475790144 -0.04741374400474439 0.25134611263413603 -0.015001183506435315 0.11668644509581214 -0.16444181308855224 0.1728832086738878
 -0.01876440851290657 0.26215874658558674 -0.7961784226924521 -0.21464505383147706 -0.05742639478618213 0.17952733827920644 -0.04390956787978668 0.06803647678757424
51872590000.0 0.07434759575493859 0.055800836534976014 0.03586407124436383 0.17118662854801975 -0.7708676191112118 -0.1761699769059593 -0.01860804245693201 0.24702637033899238
 0.03611712482258676 0.17623716676469836 0.06721916783670058 0.040071636126144776 -0.010573422691411967 0.2717361887392659 -0.787146794470234 -0.17889748902953956
 -0.7806647471742485 -0.18966043640218852 -0.041271581591440745 0.24680071278545113 -0.03366914313327517 0.03990035403229596 -0.1382252317955714 0.1964733626289851
 -0.01792224213458834 0.25713258834909386 -0.79768003651054 -0.21715398816889725 -0.1553467702285536 0.16938340606165408 0.01334378407778585 0.022884369372164644
51942580000.0 0.05234140328963751 0.046229745239498646 0.03606713801464359 0.17577189951437097 -0.7760509755517794 -0.17457755191207516 -0.02013476000216524 0.25498858793682094
 0.0377854517762703 0.17601819954802392 0.05168253555071888 0.042775814337087985 -0.009359192877140286 0.26344812732197814 -0.789648753213644 -0.17827945569826165
 -0.7899282560160291 -0.16785832343521542 -0.00689405361355449 0.28706106558912964 -0.08430327768006649 0.0845694267396382 -0.07650307417682595 0.18119812511691538
 -0.002236363021218043 0.24534344465188523 -0.7988192801523172 -0.1737180736694178 -0.08909403375044023 0.20882249048090448 -0.014740815595438387 0.04209010023502552
52012570000.0 0.0626156032385632 0.06697525843056186 0.03357625430281709 0.1807230775916367 -0.7852273685706267 -0.1821619020577576 -0.01992158652884762 0.2496925686594593
 0.035335956027813954 0.18084605713965435 0.06389898533401232 0.045438916967381116 -0.014460769106416048 0.2619904436633776 -0.7825760073501025 -0.17538973408232375
 -0.7760499452438976 -0.19491443380069132 -0.02663005256073165 0.2618597726950116 0.0532826977152117 0.08919146719998988 -0.10342904654083589 0.1518119060800092
 -0.014087958478575625 0.25661321055128766 -0.7878884083429094 -0.17243578922513556 -0.11805983625083262 0.15185948178369862 -0.01889485000868423 0.11619256257906915
52082560000.0 0.07568553973619507 0.054965758647038385 0.04044782966728988 0.1803373108072239 -0.7859612112367989 -0.17211750692203812 -0.010678872337586536 0.24584176192953175
 0.036429557115505905 0.18518783634240954 0.07427474337218903 0.03105785717553769 -0.02166791012088501 0.27299286230383385 -0.7841758131826646 -0.1627504439333183
 -0.7886555470721063 -0.184077361005125 -0.002300172676487328 0.26655929520837485 0.01870535360000044 0.015910195035383056 -0.11808327525654186 0.1975382063201393
 -0.0033707560339767983 0.26666272105057914 -0.804356395189043 -0.17883267242738202 -0.12034483391653902 0.234275337065572 -0.012214829488711533 0.05199491317023795
52152550000.0 0.05164824094182817 0.046193846993414736 0.04010367420569249 0.17430467461223562 -0.780972657420666 -0.16620602160119427 -0.005831701044611565 0.2552773047937349
 0.0375217765961197 0.17737868614734262 0.05422648271449304 0.043826620262463915 -0.011513227832721545 0.25686692749216106 -0.7937428954856646 -0.17300879409109976
 -0.7591307750485249 -0.1749521545681738 -0.026579691335790696 0.25051729850838955 -0.03301974030028288 0.09717939425241805 -0.10152354116931754 0.20640582630279874
 -0.01644888650255299 0.2572093355318814 -0.7659475175117249 -0.20715188872703796 -0.06525919020053994 0.20253329322526487 0.043001357374511676 0.08867735498456533
52222540000.0 0.06440804076550362 0.06472761372504701 0.037799859108708 0.1743684283955672 -0.776990147922147 -0.16554700693739619 -0.0009846663314240914 0.25383308751496314
 0.03482561300126635 0.17688575844825485 0.0755698224102827 0.04668892733769296 -0.023435247263585816 0.2592277502078013 -0.787836706719434 -0.17464332421243625
 -0.7775396269981983 -0.15858514324559184 -0.026419822666027198 0.26053067474970604 -0.016879019383032188 0.08489760296845665 -0.08550001976121753 0.2089076898530597
 -0.014670203876468009 0.24982939327956002 -0.75408584731674 -0.1687765089000335 -0.09196831315511227 0.18897885925869073 -0.03147547134722482 0.08969461316982341
52292530000.0 0.07962524972973696 0.04777130082751888 0.04151799660566536 0.17566032572175877 -0.7752998611395174 -0.16418561135009005 -0.011859628493936633 0.2579395476482366
 0.045044823656036424 0.17769846767152647 0.07041732205849108 0.03763233285235625 -0.011622045071684708 0.262155601471384 -0.7890079659691273 -0.16601263047925713
 -0.7805938883437719 -0.1633532627051333 -0.02661610735551123 0.24963003180350601 -0.0036794826224785283 0.07646271999007652 -0.07293170242396851 0.20668275002905045
 -0.005914853535287955 0.2525974532406618 -0.7971991446380542 -0.12557371373739365 -0.0728787411569503 0.1918949953919016 0.024827669183909523 0.0472201737208595
52362520000.0 0.051711179120661054 0.05272418090976803 0.038258556626972494 0.1749112810583483 -0.7725895430483083 -0.15552600351052162 -0.010815085185318919 0.26476952339618187
 0.04132257130487935 0.17097741949186748 0.04775824632238423 0.04799723534437928 -0.00592653003465075 0.25197613340463104 -0.7803175175602739 -0.16602531142013455
 -0.7715714744486609 -0.14329067068538626 0.01826096485914964 0.2698212616443435 -0.06016363557466046 0.11657439335882772 -0.11647439169393128 0.19128683245702224
 -0.005048166084321677 0.27020925596450324 -0.806939981934023 -0.15017523429957869 -0.07633757581178587 0.18336038185860204 -0.05329791222287118 0.009483439310816019
52432510000.0 0.061090048784474375 0.06010929801864538 0.03636110917529833 0.17552576943164472 -0.7711618188845625 -0.16492440678984702 -0.00839040577820258 0.26401633655479284
 0.03720737999782479 0.17160064234758274 0.08110672747112625 0.05668483983496261 -0.01141612807472914 0.2698722759958135 -0.7887783173485615 -0.16701837413484388
 -0.7598096439822501 -0.15977909380478653 -0.01646922510629145 0.2484117500810024 -0.05125874443504422 0.07644003672473118 -0.05894019322138084 0.1740582723796519
 0.0029401726108179756 0.27012095399510416 -0.7909050741593655 -0.17211119424586327 -0.11590407912005016 0.20485142401742382 -0.007024758460019007 0.0878089266543122
52502500000.0 0.08344290749983055 0.04628570075116517 0.037909148963138545 0.17549230599648674 -0.7792146570555492 -0.15551436127663293 -0.021581928135806394 0.2647317847788691
 0.036791568355111756 0.17747787060957787 0.05994609783767212 0.02969867159241536 -0.015517388626131936 0.2657371815600265 -0.7852775057638978 -0.1490256951085853
 -0.7779649505490231 -0.16959961073443686 0.01704012004402409 0.27989500510931253 -0.0082203819380867 0.025011113637887314 -0.10780386946624568 0.21973464844525978
 -0.02293635445390166 0.2536416395295942 -0.7869249782631691 -0.17922987864300496 -0.033076998230731354 0.15729764832932258 -0.018685736514263526 0.06063386279277697
52572490000.0 0.05423616539856603 0.052041603175994974 0.04489428379152945 0.17470522256999163 -0.7750699181721976 -0.15582404250066065 -0.010748726948582504 0.25722083361044806
 0.04288547380097355 0.16778324798280314 0.051450993567413277 0.04504400208527346 -0.007208580059879395 0.2540831038642173 -0.8010322458162719 -0.14966312872027893
 -0.7821221869891379 -0.1521821549787781 -0.013012782801433522 0.2755766113665906 -0.024794098011857578 0.13927493101220176 -0.09184756801964127 0.17805432667479226
 0.007701756606051138 0.2621655818845794 -0.8042417701569965 -0.1786068634727485 -0.0800053578166987 0.15999571413991218 -0.005282306120631419 0.03749377409133831
52642480000.0 0.07189264860664613 0.06271020981830126 0.03996953126059696 0.17982876768716557 -0.790985893026502 -0.15758086697629015 -0.009352086798745768 0.2623074643320338
 0.04432133884448943 0.17023287119489608 0.0741654031275724 0.045011596584381725 -0.0076459586942589745 0.24692917377044882 -0.792854822923967 -0.12826961501071457
 -0.8012251870318041 -0.16693958469057552 -0.0071452029186731 0.217745056033769 0.02079093331164141 0.16957470326872676 -0.0225451119595271 0.17352277577818565
 -0.006045874888175105 0.26838011237051884 -0.7993899479273836 -0.13150259492797084 -0.06407604577796787 0.18506460557689372 -0.13629102089337314 0.01884818092451056
52712470000.0 0.07675030861561036 0.04154838306949173 0.037004480731204194 0.17025645201318274 -0.7773883383773829 -0.14888965117843775 -0.001044416218959298 0.2551172710608977
 0.03678808831133917 0.17200428677457744 0.06200607730156621 0.03122324159452872 -0.0049772550854882336 0.2500048592335628 -0.7925380876615651 -0.1374022781158126
 -0.7762419449311951 -0.14634692809203906 0.004319150989568031 0.2624845299695078 -0.047844893706763376 0.097749498004453 -0.06701139555293256 0.17959218155452006
 0.00045731035001833007 0.2780045554386739 -0.7840525762407751 -0.1488811346591776 -0.07920325548512512 0.1942745056399622 -0.023174223495016733 0.1459295439475794
52782460000.0 0.060975913920044165 0.04743397197004244 0.04171643621996982 0.1733351929007053 -0.7804304349329378 -0.13428899194035349 0.0024635737767817454 0.25474296087181614
 0.04254186197074836 0.17310148692996563 0.05925084977411923 0.04124575016753382 -0.00885885656387708 0.2654182172377815 -0.7843990903525854 -0.1442217453430192
 -0.7801049503287233 -0.13627357751273034 -0.0015527445273144536 0.273594590254471 -0.06460783287797466 0.06820774828436114 -0.08030301681697537 0.18343359169482557
 -0.010077019830465609 0.2665064741196859 -0.7904870372401722 -0.16655436892025982 -0.06744278620431761 0.13873822352122303 -0.041885732909011444 0.07052650880320924
52852450000.0 0.06657793715023812 0.05881075206036637 0.03950808985972457 0.17508736208045858 -0.7727192183194385 -0.1497129956574279 -0.0011727754277811144 0.25927853091988173
 0.04400139380067613 0.17407027385300303 0.07174241713690073 0.03899725896388595 0.003794727692129571 0.25539304453531475 -0.7807961212585344 -0.14270712594615234
 -0.7878927219284682 -0.13637312061563522 0.014575268707162104 0.25598715491582913 -0.10606906378990026 0.1065723159521475 -0.08653902363360938 0.19677922851542942
 -0.003102113727862902 0.2767009873925763 -0.8026005490444987 -0.1464925901375523 -0.02507637943872099 0.22261529628546362 -0.10013734363058874 0.10188769486464548
52922440000.0 0.08090594312881272 0.04335210163983925 0.04106410099780946 0.17468652013022326 -0.7753954488667231 -0.1525819428378726 -0.0021703971397145343 0.2580284756888866
 0.045461740047926344 0.17359569141941927 0.05866578311787996 0.02896036388893274 0.010015180584806814 0.2621457277579973 -0.7951751960779151 -0.14191721261241425
 -0.8000656195227065 -0.13616280272282333 -0.002727323865911259 0.26726426144302345 -0.006759171105440395 0.09672129764455707 -0.08430061009861438 0.19733072940675916
 -0.0036575264276366057 0.25775777952669504 -0.7881111792416219 -0.13334571923329508 -0.06702606308026787 0.2030198575866435 0.023398550284776536 0.048686599533097896
52992430000.0 0.06567966668892715 0.048180713032506324 0.04850348304545982 0.1731336921510238 -0.764017190386227 -0.13731834240616042 -0.004544266170672017 0.26587749341018735
 0.04651765982876403 0.17082662881617663 0.0572547413884832 0.03650575755608781 -0.0009015732851985808 0.2643339671318879 -0.7848036291937341 -0.11555803025065543
 -0.7775415501072771 -0.15565463725677647 0.003705079389967494 0.2795898298900964 -0.011933659627904354 0.07941567518188815 -0.1324316823379106 0.1802937817461038
 -0.005967012341206213 0.2659596319803806 -0.7892482174897303 -0.11259228831838737 -0.09367970909861131 0.17684135627529626 -0.05715552018227745 -0.016722215204550313
53062420000.0 0.06573249879666027 0.054857608192054576 0.044519405720658024 0.1813191309809273 -0.7786245314913591 -0.1332885494423527 0.003235004333690997 0.2672112110894786
 0.041360391765220425 0.17556326305521922 0.07308814979509698 0.02738301060600592 -0.007173233073583305 0.2598211788521809 -0.7918321781397761 -0.12473398174981933
 -0.7865727501576394 -0.14203279899926025 -0.034340971490827765 0.2505582816075907 -0.01559196577219696 0.0689803981405818 -0.11535786015245486 0.19861666888250423
 0.009776528814225468 0.2690685937088645 -0.7904218591548834 -0.1469912344152913 -0.05899838967093257 0.19415245375101903 0.012697932663902062 -0.046271106037642486
53132410000.0 0.07466840277170991 0.04042084856150032 0.045184206262375806 0.16156738277995242 -0.7876246985439056 -0.1273670500604297 0.0012009844259905605 0.2558784529995383
 0.05196760029684702 0.1741581872394949 0.06114552799302128 0.03238166806065754 -0.006846764822349729 0.2717738861761489 -0.7921227993685628 -0.12466500211235265
 -0.7833964287798542 -0.12377788369779355 0.011595359170870933 0.26350777610283693 -0.029298220585719355 0.05378318501605851 -0.10555347474359209 0.22238925677074275
 -0.011316669644753446 0.2662862034359011 -0.806589023436662 -0.14028930431910633 -0.10611377614456705 0.1765764523332475 0.01333738695837312 0.0901243530929089
53202400000.0 0.06780158961378492 0.03952194449297172 0.04669293665659894 0.17501271402817808 -0.780314897583377 -0.1230271844163854 5.634930819041654e-06 0.2542187037216177
 0.050323674765273045 0.17314776967595374 0.0655458917693334 0.04119241479926914 -0.010903811061983182 0.2641726613591422 -0.7984224562346841 -0.12978675548692048
 -0.7748303692073794 -0.1328743008467564 -0.01944272355910485 0.25243767651301974 0.03988426906650033 0.12037727151954138 -0.015446437654469637 0.17299244106887707
 -0.004817408241121438 0.27398316470074 -0.7968688743618609 -0.13407224488341463 -0.08789225969741342 0.152149217382359 0.012769996370597114 0.11437759095744857
53272390000.0 0.06341909451212517 0.051497721717942334 0.04874272744750176 0.16974510726208897 -0.778013605336447 -0.13051032439403085 0.011202340237849976 0.2722771730740536
 0.04688051941852822 0.17080795590898773 0.06793755577644232 0.03312593717798661 0.00575736919922703 0.2465264935445762 -0.7763334177744634 -0.11265429722515304
 -0.7700070099546149 -0.11503984884257384 0.0152644906112734 0.28531614787832277 0.0009774751173021415 0.1172193748457967 -0.15153780564212696 0.23356992019502737
 0.007605812189192358 0.2700245721961243 -0.7969815772252654 -0.12713080089738815 -0.08923852160880906 0.21462352100963494 -0.04677812370850057 0.0691354366315217
53342380000.0 0.07832437001457733 0.04829310158644411 0.04450773876808096 0.17630466771116785 -0.7770035960335213 -0.12718908926379363 0.004395665036139979 0.25910721962702915
 0.049032587477396194 0.1733472380777981 0.056673157325884 0.030721698040462778 0.004659789421983271 0.25365459244013683 -0.7950925093379771 -0.11299702384610301
 -0.7681120099598524 -0.12980197114178338 -0.006234884427756063 0.25091085991728496 0.03110802011914 0.16644883949337236 -0.1129588574609203 0.23443048784019624
 -0.003695567084350421 0.2686243671908442 -0.7618993036614583 -0.11612159041063586 -0.09001561784753877 0.1841879890031068 0.04410443633719892 0.06736030185054076
53412370000.0 0.06810595726285218 0.03402019067430251 0.04234858051695559 0.16526573631624084 -0.7747009836964037 -0.11837017622046184 0.0032823126091068916 0.2519588698359939
 0.044780389821624064 0.1651109787689651 0.06959465406044342 0.03131056122580854 0.02098734838680043 0.2699138004579891 -0.7920488047541234 -0.10028234820651923
 -0.7729262928064514 -0.10190864388469119 0.024768521929932324 0.27751928184384633 -0.07111386082452838 0.032440836295284485 -0.1216451737866255 0.24137314171085425
 0.003688841368449276 0.2681729175600192 -0.7767026442247799 -0.14211726165602295 -0.10222173865366492 0.24405061694005206 0.022030251914952594 0.01875936682683744
53482360000.0 0.06297099689405541 0.05458411558794305 0.04876840046306835 0.17171420537898743 -0.7813053413864134 -0.11885603754321761 0.010382243943500902 0.2517058844458183
 0.05808364397533488 0.1751820468763288 0.06280339213251543 0.026604737685237752 0.008391946433210689 0.26423331899503294 -0.803467329559145 -0.10073940633988958
 -0.7888136966980492 -0.1357130758450789 0.011555836945811915 0.2732133275570194 0.03559128541080275 0.133115604567338 -0.169467864663443 0.1947870036587182
 -0.005136877126609497 0.25761590831625475 -0.8036155670848661 -0.10164137876534152 -0.1005972565496848 0.1580320269172017 -0.006457202030958159 0.11011604084261896
53552350000.0 0.08780578251005258 0.0449363373384479 0.04544925265069429 0.16956659509831398 -0.7789866617728836 -0.11704310957376014 0.023819225030177738 0.2703581716658576
 0.04911184460161097 0.1709685663293042 0.05660750922991767 0.03651913823843088 -0.0033970610804682885 0.28405794843984067 -0.7936737246420822 -0.11205920658792412
 -0.7859413528424016 -0.09968468871349632 0.03175237792783241 0.25856170046432664 -0.033828040675529636 0.050809411641106646 -0.08329748384120707 0.23344677633856006
 0.02529777515165772 0.2636650955707466 -0.7928065535329356 -0.11795106168691148 -0.08762716650491774 0.19439008748887537 -0.0325243640912688 0.0926639379370191
53622340000.0 0.06954153306083842 0.022592179946112793 0.05260721420897738 0.1694311664330734 -0.7754645177645153 -0.11282810810269232 0.005034410817880989 0.2855989037866479
 0.0517132320846044 0.16389371970365973 0.06868130442139327 0.021213293127337232 0.018266592007590236 0.2540809171088455 -0.7935070777099623 -0.10061332718558393
 -0.7827351990739922 -0.10581743113853964 -0.0012749676781220528 0.24769300765066996 -0.005932843804342251 0.13658410871062046 -0.10194008638033529 0.23898016254784
 0.010836347824658485 0.27530006911481236 -0.7770333999464765 -0.07769658529436657 -0.1047999240114666 0.20993363769706386 -0.07913803063935058 0.0020116263682379678
53692330000.0 0.052154724837651496 0.05365169885405463 0.04143482918214452 0.1707305383058685 -0.775983887504859 -0.1055529748502125 0.0006581419319977245 0.2653485166288651
 0.046036872734082565 0.17721304956167314 0.05149175945373201 0.02853760219574562 0.03881296734083711 0.2684627252813647 -0.7749564206457648 -0.10289195232379023
 -0.769021597101999 -0.10762045808037311 0.017857111417656744 0.28887890914612163 -0.20047748362578646 0.11868676847541393 -0.07625837214637123 0.15296400338382352
 0.01272630196673775 0.2801394847257823 -0.769912303545124 -0.15030016202737326 -0.09359825594415838 0.19509765694893147 -0.03160393070076835 0.12683848764587954
53762320000.0 0.09344760248609421 0.04604265176083691 0.05179449521176011 0.17561769504166733 -0.778395660970202 -0.09952975539224984 0.01811215844703302 0.26569307633173905
 0.05324566839571627 0.17447998529168127 0.0650820550930021 0.03708638769944458 0.007964065276368388 0.2717910389219326 -0.8001474325446304 -0.09428880197441082
 -0.8000998068332195 -0.08182990886730478 0.023057721213844723 0.2657975623839227 -0.045846814897281624 0.05382698442382431 -0.1362676963815311 0.27525335417310337
 0.01274486305849802 0.2771211654904718 -0.8226384297045016 -0.09128665824214141 -0.09758428992616625 0.14987175763900334 0.05145054519228945 0.016103596621197907
53832310000.0 0.06777035206064994 0.0199110346831983 0.053779811561110204 0.17276415952972726 -0.7775794516320228 -0.08385566923345533 0.010807516124794221 0.2526713993099557
 0.06147787767880152 0.17370779121118615 0.07067485869047267 0.02284122528999778 0.011282289855833306 0.27977322900122037 -0.7979908770329455 -0.09778303980248162
 -0.7823477053167049 -0.11256380594685152 -0.012143228555965583 0.2685285045281491 -0.011327785720560401 0.06056865851151391 -0.11311203311183743 0.23079963493796585
 -0.004690977957000969 0.24930565688126216 -0.7851485593120998 -0.12685976556731204 -0.10362728371512821 0.1796433644196827 0.018584181962247155 0.1302386832697002
53902300000.0 0.05773603517868458 0.052440853010055216 0.051567016591756484 0.1719262970381346 -0.7739280287271859 -0.10865141127752768 0.027225604717166927 0.2616486692489038
 0.053420286371528104 0.1699153522399157 0.05206209677876229 0.02989172109550575 0.006166029735552395 0.26471784418526184 -0.789421982177987 -0.08827024153449589
 -0.7643317467061483 -0.10414055516812963 0.008241164543890981 0.2586292427876448 0.0070598051998274 0.14415586572283848 -0.12409689060763444 0.21011834668777363
 0.008885465531792033 0.27216807538905186 -0.7914373017983636 -0.07736542556725366 -0.05615697968801724 0.1738902591509921 -0.06506078806027284 0.0699828771231266
53972290000.0 0.09352737022342783 0.04906798987648546 0.050893196137072445 0.17346412809900216 -0.7895113920851623 -0.11145184878190426 0.047708345406692464 0.28708464441938103
 0.04624611971198047 0.17395988530772058 0.07474276160506468 0.043409322732480174 0.0008033589822796563 0.25478205787849884 -0.7899728488202605 -0.08390223282733218
 -0.7951115149210483 -0.1257540580449302 0.021840997825789885 0.26237592617809957 0.09124564509734695 0.18865084826276207 -0.1640027791824197 0.2017204783523738
 0.03684723087869658 0.2825018942677444 -0.8077191362920516 -0.09913680300081384 -0.12701586604957926 0.18706948650824168 -0.09721271071011063 0.05142521923778205
54042280000.0 0.05920163980932049 0.012213159916320266 0.05894109527418132 0.165871663566033 -0.7771384406392261 -0.08352957661921796 0.025486284520918227 0.28251234151457644
 0.05854128808256835 0.1665489538237357 0.06761105945990376 0.011262409290682073 0.003314640336167114 0.2520759758905162 -0.8038502602454395 -0.060975157188751995
 -0.781684261019879 -0.09530301533127841 0.028413789698375633 0.2722348873896455 -0.08348399719626003 0.0768538359813084 -0.1331338628182722 0.21388766305670556
 0.009178090064934528 0.2678058770981213 -0.818091038044017 -0.08360070278163549 -0.03555333535947032 0.21201165783881498 -0.05711525165274523 0.002065873318487341
54112270000.0 0.05976983225106212 0.055954889269089286 0.05834853248671252 0.16751302271682117 -0.78722929655236 -0.08468228050281756 0.02153655115062074 0.2781628926407993
 0.05236939484288359 0.16468277573180673 0.05121432958221737 0.03520879458789973 0.015716828105062492 0.25552891842405134 -0.7930310035136192 -0.06554599970164281
 -0.7914468937005197 -0.105085630523288 -0.01774402008105121 0.25329198892574967 0.005090544237147659 0.0823267266673223 -0.036569171034233884 0.18958380015455473
 0.035248173924779955 0.27246925864847743 -0.8041637659361651 -0.09303354375305539 -0.1059058528661489 0.22471821845885637 -0.07606277362332686 -0.003757750585061858
54182260000.0 0.09838643405235645 0.043269055904386164 0.062373702672470395 0.17447247187011217 -0.7859907081137734 -0.07927259111348506 0.030259114177272388 0.2767353901596237
 0.058513856705101765 0.17473545280591207 0.07710818993391991 0.026963553092602663 0.0032161919578259073 0.26339384742618355 -0.7891511462366659 -0.06388868923409169
 -0.7933520691349224 -0.08241601492126022 0.0005298642182283508 0.26108481027845054 0.019490969621991584 0.03012972021833841 -0.12972897669080144 0.23047067812558122
 0.024701421041713207 0.2795861099881369 -0.765143322671387 -0.07904152736315107 -0.06986981949739955 0.17578136102757083 -0.05517358210041653 0.027356364720693183
54252250000.0 0.059346168672492525 0.008435316640541927 0.04962839139602789 0.17076219299094367 -0.7754387778885294 -0.0749681467320717 0.030714407988447795 0.2689467032764034
 0.0514507904517515 0.17113234016721196 0.05680081614113799 0.014944060991998806 0.007597277433345977 0.2720735041141844 -0.7850106288771763 -0.08097894749935935
 -0.7645872645924795 -0.07752372933973536 0.006079531131470142 0.2790117073042416 0.017309885808633303 0.09467893233657472 -0.0643295829099347 0.19721749939398284
 0.022933328288457386 0.27859158198442774 -0.7893244535232402 -0.0814476155594825 -0.08678404958603814 0.15552516666041089 -0.081396430104573 0.06424451402718778
54322240000.0 0.057709044975655044 0.05753540111140749 0.04942771520981621 0.1662564499439882 -0.7681716963976577 -0.08282077423119895 0.026824088711731652 0.2783842679044022
 0.052010869559063866 0.1660860361507969 0.05345355225580626 0.030503811534359465 0.01761734906847468 0.2641674869157809 -0.7891976761943219 -0.06828253975057728
 -0.7714702783906728 -0.07788835612805536 0.04134586636924029 0.258063668290696 -0.03486493615620573 0.06663069605371946 -0.10236398659408437 0.16752747845302096
 0.03655401597461531 0.27724362651498397 -0.7952051305335582 -0.0931984549159234 -0.08435781157408459 0.2028791536231433 -0.02631313149099008 0.020716731257624698
54392230000.0 0.10228535468675957 0.03208507024393649 0.0523634032909062 0.15774444584902406 -0.7803979037734102 -0.07012096044977789 0.023866327798642548 0.27203325327083416
 0.05153024677653319 0.16156090650809063 0.08623672012918232 0.028395392784742755 0.029917941699823904 0.2704350752870844 -0.7760697835274883 -0.06737050125303098
 -0.7613713100748822 -0.07453236580430832 0.011276671956333013 0.27753086669600757 -0.04571102669266075 0.09878912882097295 -0.09652449401921699 0.15597454363151603
 0.025716555077722004 0.2672409022390449 -0.778582138536296 -0.06986739943084713 -0.09892635500205958 0.2563683124087078 -0.15158242931365773 0.06619386155902764
54462220000.0 0.056874951051923237 0.009970553777196625 0.05864773005195899 0.15724455071092255 -0.7790154848130724 -0.06219916711907648 0.02407060098409207 0.28045507211489823
 0.06354652216180862 0.1590262135190054 0.056607250517485795 0.012695228419969997 0.02253583461262235 0.28502518763521767 -0.8022649591947624 -0.07382511010960865
 -0.7833041744704055 -0.041075908142513044 0.028801493009694548 0.2781597729891441 0.03770909228693895 -0.011072619885220547 -0.0937899910800522 0.20098490024776772
 0.020147786365527193 0.2819254613720297 -0.7613534067356713 -0.06967179328851579 -0.09588465997842276 0.15651859486028324 0.06606124232366695 0.12454811590041875
54532210000.0 0.06915671671673798 0.062023827479002126 0.05000904918554844 0.1627987587102542 -0.7701264629602737 -0.0697725905839372 0.04336646386099074 0.27371262950698544
 0.05010565204664181 0.16610617282755077 0.06309991384280263 0.04011581575102698 0.020385615733763345 0.2686794919485865 -0.7679254553556859 -0.06664728878133866
 -0.7730602037490645 -0.07220864660160921 0.03101281290955837 0.2807268167813808 -0.09365030645250669 0.03113261655927795 -0.08622164358792889 0.2614124632295589
 0.04991742218825879 0.2541145184393283 -0.7673737953538299 -0.06096100655768035 -0.07766717992712178 0.2434426498096302 -0.1366194363823303 0.04199700215056643
54602200000.0 0.09332921316667242 0.033992927828497485 0.05806566444401859 0.16262395132560437 -0.7817361815424888 -0.058256294439628264 0.015058392086262029 0.2516255326120601
 0.06070410459826141 0.1662665040277547 0.06716361337637869 0.01971343229335099 0.03811147756406254 0.27206404517728744 -0.7855627445769661 -0.0504008051743842
 -0.7696483181374114 -0.06274380660722266 0.02254291644535225 0.2943602543857148 -0.030346758591381685 0.12717066325662932 -0.11575473984642573 0.17797248964785511
 0.013599976492256504 0.2663148881316949 -0.8174632515238799 -0.07514597419434454 -0.05086819747014245 0.23636500119172937 -0.018771783372666776 0.019389252363224
54672190000.0 0.05538597775757187 0.02622265108452433 0.06306157281888343 0.16258185172012243 -0.7818280698774782 -0.0649374235459418 0.02771983045567863 0.274150631857405
 0.06519290639478728 0.16420039614139542 0.05626462821263291 0.017259599000593838 0.018768479627944132 0.2832855553713727 -0.7999661620293548 -0.056041505582020756
 -0.789854392172264 -0.04739084346014519 0.01914294159357928 0.2687957699395269 0.023881073572954433 0.08818595838702563 -0.1338813787658607 0.22825095875512846
 0.02247746283014618 0.2882037735428798 -0.7924517703587123 -0.027908439951337245 -0.07277414374796501 0.17443293276238495 0.06054881648529217 0.03222103163292846
54742180000.0 0.07164374674569024 0.05098072065012763 0.060641793630404645 0.16171475677021205 -0.7825290861639994 -0.06420497855950326 0.02592147081248011 0.2743099428982107
 0.062071760957119686 0.1587236843722238 0.07340663093432684 0.0325346141845186 0.02911657024416053 0.2751412723496322 -0.8022608697639326 -0.04695210846141751
 -0.7950280019889944 -0.057490435956903174 0.06088204480851556 0.26004898581038977 -0.020302635709924494 0.05297444447237913 -0.10676454016983333 0.2254546191806791
 0.046827981299280265 0.2858338083249563 -0.8243479058049987 -0.01743027877171832 -0.14283478950736908 0.17118214981157437 0.045580354176943755 -0.021634009378171126
54812170000.0 0.08602083026419075 0.024281535552034186 0.0647600460258581 0.15760905094484576 -0.7736609547052075 -0.0584135760742427 0.032343107619219685 0.27461682368971835
 0.05779102109288201 0.15855991967818672 0.07279014747285108 0.022096188869527845 0.0480532815266295 0.2747069505819654 -0.776460016427038 -0.0393079531681997
 -0.7810714978107388 -0.055295977806727896 0.03586986596276458 0.26723733823873225 -0.09151782625582346 0.111102152573374 -0.05148805477738452 0.1952428188734509
 0.045122665598940105 0.25976785958500553 -0.8242117055334681 -0.0634037170033616 -0.09513518714372839 0.21831438424840313 -0.1724296830702837 0.10502942006271847
54882160000.0 0.05992864970021626 0.028052315323912422 0.061782330423452624 0.16496719171656513 -0.7782794827098348 -0.044259323284853325 0.03027720755818453 0.27914430881666896
 0.0634115805449382 0.16221108120527475 0.06907105170896284 0.021610529988505198 0.03383039400630198 0.27969888472420085 -0.7886866800818477 -0.05492764647776774
 -0.789673398040617 -0.06323738215927051 0.005934624100674193 0.24263873630951088 -0.03542426426900304 0.04287631595237357 -0.06942299884737915 0.23870980677928536
 0.027552762758370312 0.2873923726834026 -0.7965773613858382 -0.045205045198858075 -0.15071199165909566 0.2188018295844466 -0.0359112873108697 0.07255859795501508
54952150000.0 0.07504102984975436 0.05049292078104388 0.05146941009297239 0.15641287589995356 -0.7815492476981205 -0.056153770919851645 0.03349327760758634 0.2770041812789686
 0.05695194473288916 0.15856869720200212 0.08958253293389379 0.02914289778944958 0.024611568454181706 0.27248883361033893 -0.8048719336608159 -0.05214465748219168
 -0.779024177248397 -0.05333256433598699 0.026992557326994522 0.28726430400838504 -0.04041753259028555 0.10195719706402356 -0.08626824977643004 0.21454599181821274
 0.03787994039919676 0.2773799726691202 -0.8423057564016408 -0.02143134320945035 -0.057003241441786964 0.19730881588641994 0.011403910985058632 0.07504320823156939
55022140000.0 0.0806525821534762 0.027423992898669074 0.0635537712193654 0.16034603740846978 -0.7774096257021949 -0.04248267789524796 0.034897277708291784 0.29156528668628645
 0.06356035206184565 0.16036607267952074 0.07109934864607301 0.016111661065307408 0.03625532652003714 0.26322899062865834 -0.7784018923181079 -0.03436280916832551
 -0.7910176941960587 -0.04610986014032744 0.020375263681959136 0.254565665613003 -0.0392819242303311 0.08892865420980038 -0.08937472202803858 0.2290901627550308
 0.024319626027836674 0.28118599832789953 -0.7681454611262802 -0.04279134176856774 -0.03186172648778988 0.2541102451389875 -0.06851703768596624 0.029085732839665007
55092130000.0 0.07129598911622358 0.03565615914649725 0.06180624451878231 0.1651974643986206 -0.775719830843912 -0.049239128942031654 0.029301998938831123 0.2747361630425014
 0.06266891097783245 0.1686976071316355 0.06718521858643679 0.032064419353284565 0.04086129022054308 0.2760333437998644 -0.7862461306073762 -0.038927051095222
 -0.7926725048417341 -0.05384996612007076 0.02712618816245074 0.25391462808699466 -0.06746095545304108 0.039377418490551444 -0.06014209755448653 0.1463548375452644
 0.010256750999469644 0.2560349787118256 -0.7855410055174901 -0.08941776377651288 -0.07593344607758618 0.17334442816418558 -0.031155367376036486 0.09565737390592546
55162120000.0 0.07615808352546953 0.03735545633402068 0.052834489843168186 0.15633271760412448 -0.7768664031624373 -0.046796638218509753 0.0341806880557259 0.2758740658126893
 0.05651584579243126 0.15847586192470528 0.07931222956811647 0.032841449389469785 0.0216200595567875 0.2577836871666467 -0.787805529446484 -0.05129167136525654
 -0.7722909578801429 -0.04805121674686127 0.005933103585728775 0.273075046979456 -0.03386742106351135 0.10277554124535143 -0.023345492801154884 0.22958538666156172
 0.03955586797916883 0.27814490406191406 -0.7856528803057472 -0.08685486198107374 -0.04972951562996244 0.21168880509256735 -0.10407067513577559 0.10000576115007377
55232110000.0 0.07344701131783102 0.03602862049788248 0.06219193406005299 0.15987127721109268 -0.783705813629916 -0.0455367843663423 0.04624544440780453 0.2729909143742542
 0.06236350021958554 0.15715310153209427 0.06157613099450441 0.017581479892162806 0.027668227545676525 0.27073369931634844 -0.7852819908856894 -0.047318704845124585
 -0.7898634759637009 -0.048642223210690984 0.03617331630673918 0.25352554923901593 -0.0009397970268815004 0.15795643133990947 -0.0736789292080212 0.19192615553067321
 0.054949929888810325 0.27342729606746563 -0.7931055010196454 -0.014070792080241012 -0.07007832342397086 0.20677482645286413 -0.04909363060130789 0.01230022827778078
55302100000.0 0.07921897007545405 0.02638750735149305 0.06884752778837241 0.16099932878947598 -0.79019165025484 -0.034841817061555945 0.03703979190220298 0.2752946177823149
 0.06524217553195513 0.15890177867134433 0.06646044090682018 0.029942655007145835 0.029452072826810338 0.27238296313647603 -0.7837998640366447 -0.03879633703232651
 -0.779739070972724 -0.05564070488629249 0.024007220993255956 0.2761595935553519 -0.002823571867613713 0.049698320054318165 -0.10603124654605182 0.1837759293423397
 0.03734752449279013 0.2693549092594723 -0.781954038062736 -0.05081613081657628 -0.08888630767329941 0.23589047126770166 -0.03585637874480401 0.06766179194677141
55372090000.0 0.07221190226777421 0.035803486859886505 0.06488824463354212 0.16094021041574108 -0.7851741203202032 -0.037872577195012934 0.040400393132362135 0.2800366246229235
 0.0638884283854422 0.160146299974107 0.07204724933290566 0.02906283947718656 0.041636534551952625 0.26839604276635953 -0.7837241748720088 -0.03417702262176988
 -0.7838300074211182 -0.04262359664574239 0.028814619595163234 0.28869749571664066 -0.007896439845295438 0.1527046026334064 -0.11333290323842701 0.28417924077776424
 0.021602796653796226 0.27522589352185933 -0.7955620202532385 -0.049917301886821704 -0.08372407155893608 0.19112832535902283 -0.13260733278489592 -0.01402488035864622
55442080000.0 0.08122370636601813 0.03589815224410024 0.06370223654853432 0.16105557778697369 -0.7754793132714706 -0.03472335831183967 0.028225951104603585 0.2684163400930986
 0.06630536120803972 0.1582950050917898 0.054851032667920574 0.015084403400903595 0.05243975082369264 0.271226257652929 -0.7848590219856291 -0.024123579921131632
 -0.773052773448536 -0.024438673336051 0.012990072890302014 0.29259028877301174 -0.10320956453779612 0.06759248643868393 -0.04561098105815105 0.2226708929412157
 0.04310603472827993 0.2563181031542944 -0.7762524945738387 -0.061793134752854376 -0.06804520871169147 0.21021280933385397 -0.05131825291196949 0.06462740702386363
55512070000.0 0.08173766229689378 0.03341704719943965 0.06186624875332812 0.15462233763911526 -0.7801183474070704 -0.02131240501961334 0.026395057862826223 0.27384411382130985
 0.06700325572814064 0.15833806510729684 0.07416806393865726 0.029354043859730186 0.03765722352928414 0.2745167379357194 -0.7793397882393328 -0.020486676739186954
 -0.7763731786671644 -0.02485968283567977 0.058647704967609446 0.2955090008665599 0.012670845123979868 0.04630677460322366 -0.10386269850273842 0.17117794395904143
 0.02634215473613917 0.27235894554973006 -0.7818763496616672 -0.02042772354967633 -0.11672563785495728 0.22614500126279893 -0.009752044586482322 0.053813646558353065
55582060000.0 0.07127300134210177 0.025163382053473994 0.0593368393266005 0.1560859177468885 -0.7803880921481017 -0.03013771684926959 0.04555935752047545 0.27128157761125743
 0.0616807996257813 0.15448803174374837 0.07460032333712956 0.02379488823003795 0.04424981480767088 0.2742303234890228 -0.7908549200770001 -0.04162550024570601
 -0.7870261854089308 -0.03297103414335256 0.0139968422621596 0.2669339263080651 -0.019772582434530374 0.061353994215582484 -0.0459338543153223 0.23479918578212955
 0.052853361229730014 0.28652233709955455 -0.7856982543430007 -0.05282101372159073 -0.1089423007291595 0.23741507085798907 -0.11855110017584025 0.06978623510530543
55652050000.0 0.07752182961740813 0.04552000714129217 0.07036470247725195 0.15915730849435472 -0.7803382488468822 -0.025027545849832893 0.03858256088698376 0.2751808276890602
 0.06784258875276594 0.15745716185521605 0.06204093986874721 0.01854880797334383 0.04071831166203673 0.2625892663776679 -0.779824028359834 -0.010239765255004262
 -0.7865197511224091 -0.02651619720649169 0.0190322363879635 0.28219708985110087 -0.09133800033301387 0.07236194612540864 -0.05931203539059544 0.17380029376892792
 0.04808908215538502 0.28514318962054763 -0.8131765619969813 -0.0632215810754205 -0.010430086721162284 0.3029351997102129 -0.008616908386083194 0.0023562363687225168
55722040000.0 0.08384505188823416 0.014762138961881643 0.0627652924286192 0.1521781561644031 -0.7694102167591904 -0.013184285807426876 0.04802127081010659 0.27450532456969223
 0.06527273746169912 0.15574934828285572 0.06884781068677702 0.023800005212752235 0.04269405305453631 0.28661971653743046 -0.7865654383486929 -0.03384154503730521
 -0.7581520494767994 -0.02300470590965564 0.033006521358295314 0.26797822174453667 -0.09679927073745445 0.15692796087992422 -0.06624635142645353 0.22993604445384397
 0.04124826497558825 0.2794852683243853 -0.7924992517906129 -0.03346635720673039 -0.08960502478643717 0.16063398357654127 -0.013441905341992171 0.03261315311580147
55792030000.0 0.06514671707951927 0.03069523860617719 0.060524940163658454 0.15406124281838027 -0.7702327756086522 -0.013475391675459822 0.05914310913903997 0.26128171669512984
 0.06227497740089113 0.1634344134651328 0.0739133444175582 0.0157053596873652 0.03230972190168888 0.29866371034014627 -0.7907937444056651 -0.03296986948549112
 -0.788344578149806 0.00548588498753724 0.0532126306179221 0.28796479255750923 -0.09354147316143353 0.0953707840990463 -0.08961251460091316 0.19517963006701447
 0.03965093172110494 0.2547052135329548 -0.8085942028045894 -0.036365925690479604 -0.10727715389417625 0.16936629915540755 -0.039107222644725444 0.16761721997749163
55862020000.0 0.0799414489264288 0.03291343641230207 0.06369508887317755 0.15822208131418408 -0.7769638083641037 -0.018003530557134807 0.05304712750935579 0.2725446925866849
 0.06926945437301087 0.16425209419876108 0.06665513509692965 0.029247196669897946 0.04806356708986694 0.2821746678715283 -0.7952803538857447 -0.027653676440305124
 -0.7764903871568284 -0.012682027549610092 0.06166265759855676 0.257186122797022 -0.04992808545461706 0.05438319009705071 -0.04645032271239754 0.177362005998303
 0.05385061196717624 0.28424870307628475 -0.8171811635977617 -0.0653067255994787 -0.08218881489808681 0.24389098801077996 -0.016371158360300234 0.04711055588261251
55932010000.0 0.08562493676069054 0.01850812070463805 0.06788386652208679 0.15160838818122926 -0.7757334549655382 -0.003949390440188238 0.03975216003416229 0.2733460994673714
 0.06679293264805487 0.15395928225297106 0.07226372873229873 0.02069664213128855 0.035453281782992396 0.28463676056810916 -0.7822898599081674 -0.012708461643551982
 -0.8107381665720648 -0.03230183091972432 0.048826749661070104 0.2832789206379481 -4.0635257940926234e-05 -0.0330808128507837 -0.048705391976272355 0.2132557420757941
 0.0627213521469443 0.2567147387692379 -0.8151005871005713 0.005529804491192917 -0.05310707859093888 0.21956865426557218 -0.05461174913703678 0.15991212757280704
56002000000.0 0.0697555818811875 0.031066347730373485 0.0660466871984862 0.1517081029393884 -0.7898048694138986 0.000516926152044839 0.060040706493570455 0.27895962042687744
 0.0667141830191782 0.15171237956834574 0.07495512618119207 0.019242751165627313 0.033808816307004316 0.2749706166704984 -0.7891352180506793 -0.007189708995245487
 -0.7719918245672642 -0.02038790127103831 0.036408478696507866 0.30361602050131464 -0.005976046063628677 0.04554964942003333 -0.11208745459076092 0.24392657933812809
 0.031682805807981114 0.27601266882191394 -0.7940885544132811 -0.029024922604715613 -0.0027296032410246748 0.2115898667410903 -0.014478075162327313 0.05461587115551485
56071990000.0 0.08021985728981217 0.0359358406320209 0.06627595941386015 0.15840865805253218 -0.7723002687875823 -0.004131408846413462 0.05188245909993455 0.2832181131459921
 0.06744670977833411 0.1464940306600978 0.07596504703026358 0.012690554410873349 0.03690587655152088 0.24429028213455015 -0.7642794770486435 -0.0020102210628632562
 -0.7847324349912737 -0.014623717934265807 0.009661460424684038 0.26881728207113614 -0.02077693784166268 0.14971251231319782 -0.027699431357389625 0.1920853715600816
 0.06529360377893285 0.30261182979680257 -0.7655105212875868 -0.00261603114261189 0.03466394264265599 0.2815286945400708 -0.17861369102260058 0.026851135602845185
56141980000.0 0.0794970287551215 0.01207209919136776 0.06916416291487186 0.15457875637125437 -0.766685287234139 0.008279259469595377 0.05671751826101369 0.2765009760733588
 0.06426781553786759 0.15899787238963262 0.06468885369421379 0.024845871186279903 0.028547082191451818 0.2869718160799771 -0.7801032540930843 -0.016396681310331417
 -0.7652563140568343 0.009395252845035224 0.03337982990003668 0.3048814906661501 -0.03677239793699857 -0.023801059139643924 -0.1183370107963015 0.2342806713187462
 0.03625279341660218 0.2743375414434135 -0.7885200334791551 -0.07245758829295243 -0.09863445761618132 0.20975711412262446 -0.009802384111050817 0.12710594100629127
56211970000.0 0.07213252448434156 0.02662606941529402 0.06882703191986214 0.15917937251733172 -0.782392141345893 -0.001211227754782594 0.034568703606657605 0.27574315444710623
 0.07186235303536197 0.1578134347779499 0.06867026126886487 0.013662454202916282 0.04535304804556467 0.2711880575465787 -0.7849184381286256 0.0030221050230081776
 -0.763615100149986 -0.024468509304409625 0.05714692066868383 0.25458406546502776 -0.014718939338079738 0.06530936433258348 -0.09183159761590762 0.19185204735879044
 0.052550768933163704 0.2711597426183681 -0.8024254398091102 -0.012371566527932188 -0.010496329847271873 0.17632764037906623 0.009277691951146699 0.06718930625377743
56281960000.0 0.08039899230940416 0.029992747784672962 0.06172425613560655 0.1525118059019234 -0.7691891523453194 0.001106211144845001 0.0532490068434938 0.27414266070555565
 0.06692052968145587 0.15028811034143566 0.06349517867675585 0.012523112187953059 0.04848103422582884 0.2749642006617923 -0.7991528528158955 0.0017114036281994614
 -0.7774867946008432 -0.007504279585684623 0.04490394606386526 0.2827744449294944 -0.053344839399879114 0.12909225449660464 -0.09906246744634807 0.21061195702638383
 0.06019053009713856 0.2642956084552792 -0.7435935978112274 -0.023843849488916356 -0.04921967606946495 0.21701109730592724 -0.032318496444967454 0.13766631891665138
56351950000.0 0.07959390651333609 0.014690166914652244 0.05981198580707352 0.14669893489841557 -0.7910760109414003 0.005790709326214681 0.05698291545723481 0.2922882125619676
 0.06623147755660488 0.15538212078675756 0.062385992040059936 0.010699843005708462 0.043692520251834226 0.2678663266907405 -0.7720159956119391 -0.0011129714257644642
 -0.7678235949219218 0.0013749491797374613 0.08745975795438726 0.2749966819410994 -0.007744024019208104 0.010755465106307337 -0.12329110742774256 0.23199502989434903
 0.05363370321517295 0.27768186782406984 -0.7830899395200246 -0.009640173121375198 -0.05122295730414731 0.23375141343296013 -0.046539478932989875 0.0733095941771751
56421940000.0 0.07639932350958847 0.019823846846801902 0.06500337516106362 0.14360349576697423 -0.7882654260665845 0.008107773387049245 0.06373191219634136 0.2788677059447633
 0.06676312349162376 0.14657971864557215 0.07859718370117548 0.00880871237576681 0.034692120631130044 0.2795795816504031 -0.7867630566737785 0.002769676325495558
 -0.8148539071529214 0.02392381211506349 0.06053884254981407 0.28118744169906046 -0.001200402521003402 -0.010304453537856707 -0.08713489276210665 0.22696810732797304
 0.050208285942087434 0.2665953090506697 -0.7996313709394958 0.03352147465810001 0.00722792614265329 0.18938821339656325 -0.02546121939350926 0.028273976115498523
56491930000.0 0.07395575246151032 0.024004966688160705 0.07141340161144567 0.15326356664370577 -0.7900232301379705 -0.004234490906730518 0.061164714236494264 0.2900659595986117
 0.07599273074501073 0.15063361445308718 0.0706310604481425 0.006127691005125813 0.04724142744310772 0.27208848869477564 -0.7671095408107993 0.0031945353748651035
 -0.7893464843408357 -0.0022221867887516253 0.04565246304741758 0.2701274567020118 0.047105526995799146 -0.014983320030687761 -0.1308774393799243 0.2082568230905609
 0.06029879041485103 0.28712063123269127 -0.7600772923009634 0.0057070764860940905 -0.0631279947197921 0.29597260435072736 -0.08024767594627415 0.11127801782553094
56561920000.0 0.07790389209455917 0.013260220053648594 0.07205430672968068 0.1469307145507744 -0.7764241321855335 0.02932644315518208 0.06798453298175387 0.2713013845314972
 0.06811242700652087 0.15367350745602887 0.07139945417946529 0.012235077404165687 0.03844962962998873 0.2829238612265582 -0.781601329955476 0.016164773044307145
 -0.7920378342632917 0.03547864464563785 0.07748812162781006 0.29907494975911353 -0.0856810243996384 0.0421985618627259 -0.06915318696626171 0.16801537148627668
 0.059499826736309665 0.2634805191155823 -0.7902916539448369 0.024109698115470125 -0.0261222352041028 0.18929768130050828 -0.08096821907080562 0.1387895103438829
56631910000.0 0.07487514888599628 0.021029605822322738 0.07007179076832766 0.1517446686422448 -0.7719598836277193 0.011207829821368026 0.05405080068059062 0.2719058304477278
 0.06990127228905822 0.1507945115825138 0.08192575320962076 0.0043382998829701 0.05119301729031981 0.2892620949776977 -0.7991700516307112 0.0202807757160516
 -0.7810332749247785 0.0030044199471617188 0.03950511142438594 0.29031902427402717 -0.08901709653479656 0.07258013676495667 -0.11585399727691863 0.2096122710398348
 0.0685855474123418 0.2702578913081067 -0.7858861927379723 0.04524785594636351 -0.048483805971609624 0.19541807561019334 0.014776549286082534 0.10063263708498099
56701900000.0 0.07390416316757066 0.023987095199787728 0.07006484464953931 0.14261091191648032 -0.7704259455861467 0.019134224688118113 0.04579707840744864 0.273093642144562
 0.07544376975250872 0.14667482767091958 0.08016923278439218 0.006746292522657082 0.0804702697054832 0.2855244242978008 -0.7936389852762047 0.022851778065722146
 -0.7793688913224704 0.027321029281486907 0.08730442980642761 0.3137531394459792 -0.02625132801001588 -0.020644036590095918 -0.11493142741505294 0.1453421475883032
 0.04711807259340307 0.2814243795019135 -0.8118980164158981 0.010911782979324769 -0.1435257885634048 0.2828301503544543 0.03445849408215627 0.026632944626522194
56771890000.0 0.07788442499510534 0.019800513848960873 0.07190731459459482 0.1584467519509249 -0.7886554876701544 0.023503186107515738 0.06448503905931567 0.26923454355159826
 0.07281655349920409 0.15037394470100238 0.06592101771638674 0.01623618033745942 0.056351501334734516 0.2755993917147493 -0.8020472226453467 0.027287735186280405
 -0.780754967116351 0.01605865737960692 0.05788653280378434 0.23924647734227722 0.0201404625992762 0.10052578525205536 -0.09020643898533885 0.17477327065224307
 0.06790680877691671 0.26751305263978736 -0.7869129928556237 -0.007827391626680918 -0.11998264693424499 0.23453427570741003 -0.031705520112865426 0.14937810366224644
56841880000.0 0.07423295695479637 0.0010774296321784218 0.07446051254027079 0.13450028606644593 -0.7896939589299923 0.030132697963416 0.062013219294645885 0.27876648249443753
 0.07442119284490611 0.13776420315035537 0.07868930946043394 0.005500033206281058 0.06443359311977262 0.29108302243853207 -0.7971993137068141 0.04372041519361732
 -0.762711635013447 0.04236979584151851 0.05119455616016045 0.2991147827597167 -0.008284937623910913 -0.021542084557377286 -0.03435131674945126 0.15531820098208565
 0.07079144936366943 0.283194018632219 -0.7755846913892039 0.0657684124578848 -0.10322117416044006 0.21721790904644592 -0.046959043421771686 -0.048339321573412065
56911870000.0 0.06708337900218585 0.01695904575554661 0.06694538766334077 0.14252476500745595 -0.7619018306251462 0.02551983631603953 0.065941245904612 0.2882060621137086
 0.06594445770292089 0.14217503238096915 0.057597953861823856 -0.008478955393683525 0.07488217604510361 0.26809755145180947 -0.7712764768545527 0.036836587576947036
 -0.7557193676306672 0.031824655071665306 0.08055672971383061 0.2843989429167613 -0.09109656944719485 0.056559556084157456 -0.051182810971635094 0.2119544272679948
 0.08350150922548022 0.27661849867458466 -0.7337963164128699 0.07060872332930802 -0.0900948859950677 0.2647049911836878 -0.12097355505098789 0.028682335061462096
56981860000.0 0.08424879671226686 0.018716310942110043 0.07170482876592751 0.15253576419246548 -0.7767782532243879 0.023743578105658608 0.06821002085973622 0.279956541572484
 0.06976831061658696 0.1428627295590258 0.058067959718945475 0.018777972135377047 0.06871961137928218 0.27785275387635516 -0.7698411299863377 0.04898873990361705
 -0.7621116131458624 0.026617519243598734 0.036115682388015505 0.2550315381861862 -0.053755267703234806 0.04673944896927826 -0.0652781924923288 0.2670101439197848
 0.06856745984590873 0.2889991763967798 -0.7627279851417702 0.01055984395496299 -0.1008950589739806 0.2554921240631858 -0.15176904190025117 0.0515183522271715
57051850000.0 0.076205097454526 0.006159357874302709 0.0744810253235403 0.14588958463137788 -0.7772559419580795 0.02589016436094746 0.08495076069683785 0.26657990027274575
 0.06772965194256447 0.14563972526403246 0.08600464697138419 0.0016620681311026576 0.03685793199003657 0.2764673951827048 -0.7845460579125793 0.030114535829639265
 -0.7935712130754339 0.028904770384848413 0.029211325797514492 0.30254154623612606 0.05311033403256626 0.07630101174871463 0.017668933490421562 0.22630116114528703
 0.07484524049522454 0.27131568363007563 -0.7835872392861734 0.037819338214145466 -0.050660540114745224 0.22709273393698973 -0.09654402622316614 0.1410048012860388
57121840000.0 0.06641297572852285 0.01793754123359141 0.07054338913889088 0.13803673755917303 -0.7718094509033248 0.04705851100123015 0.07839182372244367 0.26589332312633257
 0.0646888599934182 0.13885203987543557 0.06387306125255889 -0.009143411007244629 0.05433432238613826 0.30023631960402225 -0.789063175806191 0.04817823221529475
 -0.7719062625018079 0.0754929295097267 0.032566690805679664 0.2962453351308852 -0.06193658291522542 -0.03800744439534099 -0.023666561998597634 0.24137113860079365
 0.08704734327545262 0.27507698278052645 -0.7706528965941907 0.058527353671916756 -0.0732068868118337 0.23897298976801465 -0.01790552221433371 0.0401075224878072
57191830000.0 0.09020319378059367 0.020253704300346287 0.08157938027154456 0.14194787474281387 -0.75315033644533 0.027972166242155483 0.07291215178697819 0.27359024920592573
 0.07843697282696824 0.14140839834390004 0.05163849579740373 0.01602572090762882 0.08592919138189509 0.27005133331615677 -0.8012540667849979 0.051931334213358674
 -0.7680303864467282 0.03189190927094711 0.06294351104960974 0.28995246435095945 -0.11295286987057004 0.1495858432193428 -0.0727428058650483 0.22844255598524985
 0.06991803212438916 0.27306150304590454 -0.7727789187850513 0.07586151004713398 -0.08820636754667781 0.2580308390739121 -0.04514390935823098 0.01485347649112812
57261820000.0 0.07145063978575429 -0.014753907801881986 0.06627634587611095 0.13744701663080677 -0.7800586517723657 0.0624674291816997 0.0757896568809122 0.27638899843985276
 0.06673712165249225 0.14741315880659708 0.06450306150623462 0.007274151860317893 0.06935501363802987 0.275848158558151 -0.7682350006914327 0.05584815182798141
 -0.766246392088456 0.07592241803513476 0.08692354266423859 0.2958856961075062 -0.06839858079501179 0.02374250126123744 -0.057658476635223214 0.1812761298059595
 0.05804386680640842 0.25998578365462127 -0.7469626408131488 0.011410832686954883 -0.056866901137616374 0.22557330491778094 -0.09343398149867485 0.13532451995360498
57331810000.0 0.071472165366058 0.026700610458952334 0.07336539670205189 0.14255839816331933 -0.7622890173968753 0.05004724060621429 0.060709981104390284 0.27309290100981387
 0.0750983754864513 0.13690569772830266 0.06943868406764572 0.0038615788903639137 0.0638111685592957 0.2725001070643353 -0.7701963015663376 0.04774951141314011
 -0.7796667317431009 0.06292498060178334 0.09523241982168164 0.2721250147494817 -0.07156274799116187 0.03561470706661959 -0.07287399125681959 0.27494826683684337
 0.07279070596779876 0.30936534192387594 -0.8128623285937909 0.050524258095951076 -0.053866165713863705 0.20799894112493356 -0.07972454455713344 0.0630343031201228
57401800000.0 0.09475505311176421 0.01299078426480883 0.07906398636831878 0.1536789514490937 -0.7785715724207629 0.04628294773412013 0.07177339947538121 0.287571226884469
 0.07631032506414935 0.1517242137743392 0.05765310794779106 0.030585708062403377 0.05312681819434056 0.2550889745983486 -0.773137632078702 0.06562886016207974
 -0.7732782167990035 0.027162921477711776 0.06973398929251927 0.2553660722524242 0.021142796142651528 0.16715482047321845 -0.13841262590507686 0.21573148530448125
 0.0636518677979487 0.2982096007911304 -0.7851049879548586 0.02838784460410756 0.02211296131898487 0.19956697226291112 -0.07675325768699702 0.058384832268341555
57471790000.0 0.06609837691972806 -0.0036279807676112786 0.0800399535182565 0.13792155426923297 -0.755013149892734 0.06943709110458353 0.07268554053954102 0.2871646812251709
 0.08019098370123888 0.14053823349096636 0.08910503061210444 -0.002786646809698656 0.07402474476908316 0.26457711771840886 -0.7910138135158062 0.05261534686739164
 -0.7465614942129508 0.07213556821069354 0.06171497213130281 0.2758922100962654 -0.024334454186662077 0.05473267325155726 -0.11591824614605827 0.27777989001401565
 0.09044129494242069 0.2739522174239418 -0.8344748693144303 0.08963042151070925 -0.07370340482334727 0.255374855849075 0.041052884443524826 0.027435511036670822
57541780000.0 0.06905179699699879 0.02676823205173961 0.0681973607647585 0.11846785167693087 -0.7615149041061741 0.052861665643095766 0.07425591815315588 0.3163031641079987
 0.0675711804856279 0.11737075996772896 0.0650580691653132 -0.008085437064744606 0.08415049862900938 0.25326396206407314 -0.7546588661763737 0.0631463168371716
 -0.7657662767967519 0.04521727071564452 0.08985307132735677 0.2754814253506031 -0.01481740982081526 -0.04817222226202604 -0.1039523292093632 0.2625683407578222
 0.10306113003490788 0.3117545497934984 -0.809961771384033 0.10218409384630384 -0.13652446154911138 0.2785408073346772 -0.18064042588369134 -0.09431091627101061
57611770000.0 0.10290359113820143 0.01037564407635602 0.08453018161537147 0.13331965270719193 -0.7795089566799379 0.05797403448337821 0.08197208263779687 0.2608659207878254
 0.08230123101601733 0.137143361216001 0.070562689396715 0.01672130596364168 0.08022679296142264 0.30192285498613125 -0.7621752192380711 0.04716276355819835
 -0.7722177653855761 0.06993352474723517 0.04964585633703931 0.31292630508435987 -0.02059045355064237 0.018914402462828377 -0.032766959031893104 0.15049736546129594
 0.10355125677045149 0.26549008431472243 -0.7591407491291452 0.06429659188799335 -0.12850379803153186 0.2566116802946558 -0.11494391092485108 0.13557030138821682
57681760000.0 0.06010441664960519 -0.003650641953985801 0.0922322740309163 0.14517782816075656 -0.775220674313567 0.060571478839974574 0.08578395660368558 0.2805642613839748
 0.09585991022155699 0.13858435838166427 0.08085834892395022 -0.007762533318982375 0.07645963711354449 0.30144995962066334 -0.8013178163872176 0.05867496592580507
 -0.7496730625729681 0.0645846764301406 0.052719507288173456 0.28215410253020934 -0.04061764272046225 0.1855765018239339 -0.0869260698476703 0.11063606779926642
 0.06352639452460526 0.27300201471258906 -0.7782474181976292 0.059304946142107316 2.9722709520567012e-05 0.1996466352449117 0.04789958138930628 0.12332825974628103
57751750000.0 0.07680241470771465 0.03334500258909714 0.07439041964590289 0.1405840664802143 -0.7522787304749958 0.049662989946258486 0.08357145574572254 0.2696238794688093
 0.07757270940507044 0.1445097810338933 0.06476077004963007 0.0023053422715323944 0.08755558335207449 0.27778888250348227 -0.7704047986392114 0.056761552087673334
 -0.7636161695354465 0.06658483191408608 0.07945795100008446 0.3122949895089076 -0.18505726734821049 0.09223630951842315 -0.03992209752584076 0.23632633590366736
 0.08909447828596019 0.27787867074760425 -0.8111510079497238 0.030554471021374097 -0.09015439317096985 0.26742816645364137 -0.059016186546256184 0.10961732735721727
57821740000.0 0.10161029477846237 -0.00024753678970640365 0.07533605435823183 0.14790031807271597 -0.7721947892687824 0.06867067297263964 0.07566833817873024 0.2588688480289442
 0.07716061663509227 0.14031333540621627 0.07162933373117317 0.0046650050448573 0.08809864330604394 0.2974831467197851 -0.7827849684239289 0.043408156294792166
 -0.7892120936413476 0.062767943823202 0.07102619787049581 0.23821650040657155 -0.002044193701041753 0.1270832527030577 -0.06529385701768402 0.19453552616389364
 0.11035825723082364 0.2673126320758634 -0.795814572197409 0.1138493399734268 -0.08150311868141898 0.2305310169063886 -0.01571132201755988 0.23986304477729006
57891730000.0 0.058051959113019476 0.003699565334020571 0.06681841054292682 0.1323659013020409 -0.7848028294639101 0.061258161538696156 0.0904461516641174 0.28832866037899646
 0.05897497349608677 0.12749489101780126 0.053623229119872655 -0.0051627015487691556 0.09353808967808029 0.25984063968836574 -0.7536725386351105 0.09291190538909816
 -0.7489705802865827 0.07789272762109219 0.0655676324726947 0.2632075445619095 0.06584441427252734 0.14188641274943706 -0.06584096805217883 0.2579394792297893
 0.08954317881345897 0.2982481027525955 -0.7019791565301262 0.09479528316079032 -0.046917882799083425 0.26159684110570697 -0.1292819345908177 -0.08198183810989826
57961720000.0 0.082286874328055 0.02697127748943788 0.0698295583508602 0.13166528636823946 -0.7558477558106431 0.05627265801842635 0.09248716183379913 0.28912688460137337
 0.07371254127551292 0.13387189126523596 0.05228520365522299 0.007158895630398386 0.08886925289588132 0.28015884590261014 -0.7675512193520749 0.0718494775128198
 -0.738994897028628 0.05497516852253545 0.11395054899974652 0.3062730573014675 -0.05890728510087515 0.1130668356982691 -0.055441399818778894 0.22044949743981124
 0.104665165866656 0.30292439668024695 -0.7740245181200371 0.042473840999494424 -0.11034524822242478 0.2170318124475978 -0.12142522739634093 0.02532082931236028
58031710000.0 0.09723068856758182 0.009320190980420515 0.0819170962415589 0.13073114758380538 -0.7573176783480853 0.07237715403485971 0.08263741029324283 0.27955695352082727
 0.0903238754630747 0.13567298565322802 0.08093708258493033 0.013388414890006629 0.07140253933965836 0.29530192791388654 -0.7818231456246786 0.07230321236456162
 -0.7685708358957031 0.08527465648094325 0.08435398028699034 0.3116763841913108 -0.017907053319088234 -0.08341386494532513 -0.021182742423715116 0.2524969056465179
 0.09175474641331928 0.273953650541026 -0.7959201465516792 0.08926971567779954 -0.09737047781110986 0.2358224897898695 0.034302368761165415 0.1332321012672262
58101700000.0 0.07169333872896383 0.0034377019010672226 0.07982066350738429 0.13973202262196788 -0.7657772538092411 0.06775646884470266 0.09810920214334509 0.27322617298245777
 0.07791163560692571 0.14271431381190686 0.07762230113224083 -0.007912973224613198 0.06756407778459593 0.2851538451463922 -0.7721332540135274 0.08406050467360195
 -0.764162779566712 0.052094052055502583 0.07044302234800595 0.25959139315468016 -0.0233679007289106 0.12853424331017846 -0.04756626129286979 0.15402235650318238
 0.08010581086575384 0.2667440381205654 -0.7728553516179135 0.05941370368287212 -0.041073567025473004 0.2926631472001701 -0.07878937191857101 0.03513615023243829
58171690000.0 0.08041701026389557 0.0269920672831328 0.0825291403228744 0.12685559985585382 -0.7714901066418431 0.07222498318176579 0.08734339296747942 0.2863917689701369
 0.07876081704890696 0.12830334420152678 0.061706022289193314 0.016036660197121962 0.07230243464451887 0.2820532474664586 -0.7767625924918169 0.07991026404796298
 -0.7669158389371098 0.07786801431308772 0.09452713713580421 0.29467322189490647 0.05544518108699221 0.09796120376688565 -0.09161188160607238 0.27556889257996864
 0.09529712447978785 0.2841622222509863 -0.7826357650245739 0.056561368437830446 -0.06772373337680251 0.16256145320861884 -0.045362119462854164 0.07740419367931743
58241680000.0 0.09374545903217997 0.006758636934577288 0.07372515229127656 0.12764703299092006 -0.7717979023541163 0.06486394254447138 0.10215356314504787 0.30397483888118043
 0.07814787911234088 0.12480100725629775 0.08160623795506503 0.010778761393462724 0.06312463637214043 0.28143394415326645 -0.7708156412803256 0.08117513401283881
 -0.7690501299290945 0.08526804988941467 0.07865736900800907 0.3271728959913949 -0.004073042307232835 -0.0034717663060976015 0.10249060116885808 0.22770703191043956
 0.11435458854052505 0.29257912031835404 -0.7979264573891396 0.06553980622242397 -0.040266492068619736 0.24308113310887705 -0.09458218411352266 0.21671272355713406
58311670000.0 0.07477008697825364 0.0035048750834278685 0.0969982796166562 0.13161171692582788 -0.7681778181684288 0.10796308617622401 0.08264403325514984 0.26318033972391175
 0.09773759070149055 0.1402206566976809 0.07304618515436725 -0.008439510238987995 0.08544563180544222 0.30406155633907267 -0.7911505187992963 0.1105694606845194
 -0.7623990220471007 0.07973047771189667 0.09189833190589655 0.28172315544159954 -0.009084024374711811 0.08248849812641136 -0.03897557090220047 0.1965924925610889
 0.05125006335097164 0.2404912810259341 -0.8372123236835479 0.05217564191177718 -0.013090940210597292 0.1752855838000903 0.09281780778885831 0.3054453286327182
58381660000.0 0.08030199550060414 0.022620031145055883 0.07174542392592348 0.12227151671721787 -0.7599038270943713 0.07720697551290277 0.08632716731014932 0.2762642888391067
 0.07676806682064777 0.12902357809696527 0.08063366806512419 0.01584879703303003 0.07896534592863307 0.28859011220185454 -0.7695139539985566 0.06437714884813076
 -0.7669805579345448 0.08130050731054342 0.07444073162200976 0.33348031129817 -0.021280459058493018 0.012756227957660822 -0.04852683662662804 0.15127945815063307
 0.0973458953991643 0.2832024944043072 -0.7870141697958905 0.07280544526435347 -0.05713758074677767 0.28599761395333034 -0.1097316897650452 0.1310474168466088
58451650000.0 0.0917385717933643 0.00813184246367856 0.08464858772464803 0.13578499961254284 -0.7626205646357169 0.08956708583624959 0.08082292247484787 0.2961151168051792
 0.08249717467899347 0.12992436357230022 0.08488374705735482 0.0025764170439579828 0.09476931318181545 0.2661259542408379 -0.781330272994298 0.11019681651994928
 -0.778167758303912 0.08969301364442456 0.05542994843893778 0.3104919989345267 0.06643353271326861 0.07474192582063093 -0.01758663306800323 0.2702541628982831
 0.08774130694333694 0.2909247984158883 -0.745063615586126 0.10095901964215001 0.016486865051832743 0.2833806790323847 -0.030213346731962337 -0.0027431434613639756
58521640000.0 0.07912302926717242 -0.000512041699546521 0.08651377321070562 0.13016627649972612 -0.7746936249151755 0.08417370799698207 0.09504690470751813 0.2629380644579745
 0.08502970167267959 0.13185504314482463 0.05619667614075321 0.004855235544897408 0.08115373659168411 0.2857882075446056 -0.7744293199657373 0.10649261813976293
 -0.7957635453684646 0.06334210775469935 0.10209450187966587 0.32027601750851165 0.013149249288259385 0.08348586218615521 -0.03194906823171995 0.27446238607094403
 0.10639916436037335 0.2640473502621599 -0.8082151624019489 0.08783309058245378 0.003765895238054412 0.30189555138170604 0.052292689476364534 0.12936185889326918
58591630000.0 0.0852984926318646 0.020642306819483713 0.0788688428378076 0.130400303555695 -0.7728118427947276 0.08138535538974166 0.0824350052340288 0.2801314564912919
 0.08221229967154145 0.1270597136927564 0.07431808958289193 -0.0036318316326667895 0.09410064537043752 0.2874852825584353 -0.7611242910936796 0.09273702352372751
 -0.7967490714755188 0.10979704365722374 0.04408808465744679 0.29946368856882283 0.03494286491409627 0.013119363875754108 -0.0892867828758799 0.27869392543847776
 0.11712621992463418 0.2547231508610197 -0.7834643022412648 0.10359717461670154 -0.06165053220579807 0.18283820403678935 -0.045424060092719605 0.22953021134927085
58661620000.0 0.08931173081574086 0.007992288101673637 0.08170236057781566 0.12090624378105835 -0.7545006484986111 0.09521659735647316 0.10560482886601681 0.26242586586233263
 0.0812694063552894 0.12455318043126506 0.08013094165524375 -0.014757282372489897 0.0950423500163326 0.2889390136003055 -0.7526164350686322 0.10410883766188571
 -0.7660954231542402 0.11949888749352826 0.10331451068275452 0.29619240607960257 -0.14576404119911482 0.05205593544164392 0.06245110724253336 0.30321374994676764
 0.11062782277951402 0.3038655954129125 -0.782332105461315 0.14230079003123808 -0.004499513935718506 0.24404403489696902 -0.09967667798947655 0.04657979287963923
58731610000.0 0.07288511292179702 -0.009704794710888101 0.08093455793442869 0.11792265287341436 -0.7571641366608909 0.09589643608644373 0.09116256915095523 0.25724721883366425
 0.08058671081814268 0.12117988699715776 0.05967663279780958 0.008879119833930391 0.08718765188957632 0.30086729398025847 -0.7706269019635964 0.10209813150772143
 -0.7441370061909583 0.10407972855804766 0.05946885895192038 0.3184671075110858 -0.008506895707277591 -0.01809052928930321 -0.0026076625296607885 0.10610060824058144
 0.07845149871894047 0.26238851845018185 -0.7398217214754016 0.07111162380515598 -0.032316844664975246 0.27592304930628625 0.028715544464317785 0.06552396980457559
58801600000.0 0.071988067294596 0.014379343647945587 0.08453382437702835 0.11928445152415218 -0.7546957662405367 0.09433407652265609 0.09233339858910627 0.29101253888497847
 0.08574873514511673 0.11680772973188398 0.07574843212890033 0.007785421772096141 0.09335626001096242 0.2599225776175118 -0.7793201605154447 0.10499566897261922
 -0.7757645188207737 0.07550805331082361 0.07851697288609762 0.31105042201241045 -0.0007535027478245074 0.14863374461696868 -0.03563279891727004 0.19591912473137826
 0.09494178480553696 0.2672942901243997 -0.7730638226049608 0.10020864115680371 -0.02311102559725739 0.24437257289493666 -0.014556811756501314 0.1262845528688188
58871590000.0 0.08480268685382507 0.004676625484960126 0.07689118685189109 0.11473483777253925 -0.7680896412081228 0.09024610436233409 0.11856931187797233 0.27481327775169273
 0.07469370144083771 0.11708267878291229 0.07103637438068787 -0.002260169234698772 0.07064122292742993 0.27488161462541966 -0.7578831978049714 0.1116549596175392
 -0.7852198787893828 0.12963469537747152 0.07940630022731117 0.24786792657953846 0.042805331507600235 0.13069776048940931 0.07626048891432534 0.15482485795949677
 0.1227948488341943 0.2951395511790492 -0.7560064461861161 0.02174971117556544 -0.031332218312645314 0.20697087420131846 -0.181270331712093 0.21142973113515473
58941580000.0 0.06768314383191656 -0.0058214181115347164 0.07462485901182017 0.13012634291153669 -0.7808405311121344 0.09590282926274768 0.10341841320313978 0.262079240738356
 0.08039918095106972 0.1229835173439937 0.05242026532658087 0.00894368074987861 0.10791273057683483 0.28792386965880135 -0.7864280186539325 0.10092791133193012
 -0.7206766658155396 0.11435285786873456 0.07543212287207453 0.23783509873884584 -0.11539311357260157 0.1388555237334097 -0.0042346369689680525 0.2199786570874603
 0.09461736619786493 0.24874437392923798 -0.5930532014423561 0.10980778400781807 0.08850677154998032 0.10947213676605556 -0.1091627103421952 0.1758756298543822
59011570000.0 0.08051523705271812 0.01181648723478651 0.07670447176207554 0.116346287612505 -0.7582920618614171 0.11898266600417944 0.08488316688767925 0.2756058520506075
 0.07966198638943987 0.11319129500824485 0.06943732604693657 0.001064329831793235 0.09450120733902548 0.29068270500208415 -0.7611485357536539 0.1091543754383149
 -0.7751864794735449 0.16703485449728375 0.09417097942847358 0.2735595402131988 -0.07260299514286342 0.04946756654192224 0.05969224998644509 0.1432758032504401
 0.1204507722195581 0.3065512853775106 -0.7533702029947945 0.1318364585500086 -0.05816619953545251 0.18130347342301326 -0.07259058656642177 0.10911666830927666
59081560000.0 0.09539552690004292 -0.002577683152567399 0.08243783172534803 0.12389239657326843 -0.7548469129345989 0.10840126965288693 0.10155300055863058 0.28975313287025506
 0.08353383071928762 0.12134541943593208 0.058685434070940096 -0.014524383217334244 0.09412563219028496 0.2836221160983187 -0.7706526088518877 0.1121183730395125
 -0.7444737407605069 0.13385002319744485 0.1026389160005307 0.2652850296550741 -0.004713169845573205 0.1678513570544967 -0.02351366735915209 0.1929863480895425
 0.0876466891553033 0.28385346533554057 -0.8069806503593678 0.08462342415457401 -0.011552326807091841 0.2264684436975465 -0.10263829657346485 0.09220466486374185
59151550000.0 0.07623778671112258 -0.004522278069860233 0.08224697031954853 0.12362286780861444 -0.757067954998739 0.12779703407459442 0.10215631408067358 0.2940554365301903
 0.08347642049188325 0.12411681936419723 0.06087420895681168 0.002780821136173187 0.09103525206292677 0.26688665525072713 -0.7703093528766501 0.12639011561581284
 -0.7545689376025447 0.1200830992623153 0.12893742116684853 0.25462804333891986 0.0073622011271554395 0.1704923770651434 -0.11344340801222781 0.18405611065476596
 0.09827821800069639 0.27682322878245663 -0.7321700183969488 0.04206152225169606 -0.12251261472643611 0.21628041268848014 -0.126641200779897 0.056253247343416364
59221540000.0 0.08409229953058465 0.010222258917628638 0.07782747123274068 0.1178916808560979 -0.7462768762235374 0.11789958514826442 0.09208325277868072 0.33306450920709374
 0.07640226230606267 0.11137269549271718 0.06767364255497026 0.00991123983566523 0.11495146111192625 0.2484035102525201 -0.7494340664493675 0.12808964873896092
 -0.7652467626772924 0.07027993370901289 0.12026728258902997 0.2710953671028273 0.0139761221709625 0.0796525973850944 -0.15940074451252553 0.1716082935617254
 0.09910581865093906 0.328840194679093 -0.7570353824952835 0.11264535487486994 -0.00322011794089693 0.24741340129570397 -0.028110851642360282 -0.05993833252286469
59291530000.0 0.09094211289031685 -0.011201151483190898 0.08061685745868206 0.1089593611336783 -0.7577201791096622 0.14064306517096486 0.14082551538519794 0.29964675000390445
 0.08291993133571271 0.11999588405264754 0.062316182549118714 -0.027026311755816806 0.06715803403316137 0.2863549174094711 -0.7554572334945137 0.1357703163997074
 -0.7999639649302108 0.12844709897157347 0.1203719501302252 0.31121366899002656 0.011344092170072454 0.017230820243765984 -0.18727476816051272 0.28137655569711545
 0.10232274919185207 0.25831393884481274 -0.7241616627749252 0.12129484415713562 0.04409977737160331 0.23553367119449758 -0.11297922734692123 -0.045215001940406375
59361520000.0 0.06997569245111458 0.0013373135648932146 0.09046417731242909 0.11588605751192164 -0.7496576496797177 0.12967566190636065 0.09083794084142804 0.30560206349526087
 0.08966470970895318 0.11922647750761955 0.05435158103262729 -0.01476380944457971 0.12627039920979477 0.2696212783545275 -0.7497083052859363 0.12690596058609238
 -0.7421745121363091 0.08239837701750267 0.09513011087531537 0.255679551191204 -0.006712982155432583 0.2500671079961887 -0.12334399879229122 0.13825160736784278
 0.10844392176234541 0.309786128234912 -0.8287254238741312 0.11194497633623514 -0.09742846148120562 0.275675252949592 0.07008007099695614 0.03885618759273524
59431510000.0 0.08310547425739535 -0.007673275755685426 0.07793277004618526 0.11758352002717992 -0.7405594234213049 0.1336093151739355 0.11550797283021633 0.29031904105248724
 0.0773857601992564 0.12178309290378775 0.07605631650939729 -0.002145386097231077 0.07949511028330768 0.2820896337725402 -0.7664686412583321 0.1197571738008826
 -0.7648448390521458 0.12481367213443094 0.12379841295473341 0.31255652934565337 0.002177901713372913 0.09999827822962262 -0.08421784161271396 0.22347626263642062
 0.11266879383342782 0.26084946609868964 -0.7533539998300539 0.08437171632863073 -0.03529959581145296 0.2528963255276774 0.00168254332836634 0.21155328081048558
59501500000.0 0.0769388774699517 -0.00682124247866089 0.08770468571866011 0.12330990151139208 -0.7684878338804846 0.1351649556011454 0.11224107341070902 0.28630499507034685
 0.08357503433388548 0.12180922547881588 0.061784302846705524 -0.027941014151845456 0.09288986025973366 0.262347505767325 -0.7614299014720202 0.1497261404001615
 -0.7480544359764012 0.1062095031687947 0.06581786090114311 0.2910555082718525 -0.00992840747084727 0.15518939635307602 -0.017444145846835228 0.137689969498198
 0.13464994300031263 0.27955725139836735 -0.7421182745644619 0.16210240459459324 -0.11580793477072411 0.1976197389944226 -0.0695360067680523 0.026847329653722083
59571490000.0 0.07140638577671757 0.0015625005714388223 0.0810183361368626 0.11528337688727268 -0.774687012172502 0.14769397441830234 0.11095957121604033 0.294253588734297
 0.08756971883625266 0.1125099288844475 0.05188002023273295 -0.024435184632749393 0.09575231599328124 0.24418670605262638 -0.7547202170386934 0.15587610280799283
 -0.7785768622819378 0.12372263129692687 0.06701253948827915 0.26262946875544796 0.047684608470672005 0.11948551344294074 -0.08968227405660349 0.2458005176612737
 0.11580099114924819 0.28738028184957 -0.7082787549627076 0.17010805745988364 -0.04538945089086041 0.31969806228425296 -0.1336699712570305 0.02851900425018693
59641480000.0 0.0825551232937272 -0.014256355279857556 0.09097737471543559 0.11722470303783801 -0.749969897963429 0.15313660901143647 0.10154072268941881 0.2790491842785321
 0.08716886088229082 0.1206004322734386 0.06666927296124459 -0.007937996443367106 0.10166917884230055 0.2911033337400411 -0.7535801108367558 0.1657087731527909
 -0.7384846100305744 0.13923644708514135 0.07978168697650415 0.2851415237637642 -0.04540221057514325 0.0659712941388066 -0.10324948973386518 0.196285737012946
 0.07609558322906707 0.3012855166079418 -0.7773601519878336 0.1027044372218097 -0.04823810376817487 0.1843261398480961 -0.05106170004099232 0.045231690164692466
59711470000.0 0.05850567245591745 -0.014979392629161191 0.07841440216654706 0.1123410943024497 -0.7448155223709821 0.15188508597505185 0.08853808950838592 0.2830446583112942
 0.0864088145533133 0.11848289977295061 0.059494393759447414 -0.04035755697638947 0.12946989640552392 0.2802616010904726 -0.7649235353024751 0.15598418363125807
 -0.7275127600913321 0.15745864304280863 0.14409485938778466 0.2736217081727488 -0.1189075822937638 0.043612859026662856 -0.05808033880621573 0.23160215215467825
 0.0897970987276057 0.28030413463582277 -0.7621297367968397 0.1781301389071401 -0.039843908598129425 0.24459668814291616 0.08892286255819892 0.09175467447844231
59781460000.0 0.08353746285024492 -0.0008160164284339747 0.08529843291768442 0.11168274677622587 -0.7563608765173104 0.15149140612587927 0.09969665295379895 0.2755344196388986
 0.08882540961626989 0.11593908317378618 0.054487438532262164 -0.03909329718882202 0.12195240023255116 0.30322496653576764 -0.7661404033491616 0.14322981265714732
 -0.7523887238885425 0.17997158832047103 0.11165646121260739 0.3068555892253215 -0.08916369082837747 0.03171294303719049 -0.03621319172083467 0.29308248390891783
 0.09124775307796537 0.276986344985937 -0.7637463022238176 0.141786415325989 -0.08865935304975411 0.16594242823329147 0.012145808447268596 0.07185792409286897
59851450000.0 0.07400864385096417 -0.013073628832574506 0.0808778609491105 0.09947909945545691 -0.7488479970986983 0.13469449501620454 0.13414815333229194 0.2616022992567626
 0.07339256145043466 0.10845396903906235 0.08404525852791106 -0.019265391545626214 0.10714624716904052 0.27523795894622344 -0.7625828082925433 0.16131869229582338
 -0.7649956184073928 0.1374859274529288 0.06261029244224031 0.29494603387159485 -0.12167408352278675 -0.010085746919579771 -0.01914833036673533 0.2918723102644647
 0.10399697031578171 0.30432126616530164 -0.7580833070144246 0.1971918366310492 -0.04230248881336636 0.24795501415497714 -0.011537531766065322 0.19117541731236912
59921440000.0 0.06729848762403486 -0.018080850731182242 0.08466045225175348 0.09624724578805555 -0.7416821691785307 0.1591802589406239 0.1404461837195563 0.29014800302247046
 0.08215634692779307 0.10910167810069127 0.06322719180468964 -0.03533736652352795 0.10715064057793314 0.2932452688747562 -0.7399384979199741 0.18038303516605697
 -0.760849079812477 0.1399810118917079 0.13843329813419789 0.3169050209356046 -0.027400035310287202 0.0628106060605202 -0.11490113329510171 0.19968126354543972
 0.09125060281142773 0.25714733129100553 -0.7447848416736811 0.13510865040842251 -0.042131410618218915 0.23332695881166574 -0.007672807235037656 -0.09908623174356174
59991430000.0 0.08480524882022736 -0.004331590917231797 0.07990328972094461 0.10161799310384527 -0.7621872022630527 0.14721701952975744 0.12711423184012827 0.2868899867005033
 0.08318593278535284 0.10417433816422557 0.04714561218251578 -0.03311279899492523 0.09729955352635786 0.2794087704207377 -0.7416850101366916 0.1665257831906344
 -0.7415263231834617 0.16500219349203843 0.09394698182358201 0.25768863814523313 0.02129416648477652 0.10880311723135955 -0.08559561599875132 0.21570353441167636
 0.15145763215882452 0.27441143683391006 -0.7670522095123149 0.20891677679554363 0.009867960777895337 0.19167068368383847 -0.10093545868214217 -0.041572095378530405
60061420000.0 0.07286074929169822 -0.029763237948363677 0.08070130354942648 0.12269642178912706 -0.7479480219108258 0.16021099145228063 0.09661483310205157 0.27707668934653895
 0.09582186474297144 0.11425492274083753 0.07415105852706862 -0.005193567983143337 0.14151124565327047 0.28901780326418786 -0.7619426545090506 0.15365673123301965
 -0.738343078059111 0.14324789405941174 0.1362190027706422 0.2976199146158028 -0.040187099202553575 0.14028582451890054 -0.01079282068308442 0.13608568354162362
 0.1109549861579758 0.29769993116273585 -0.7369933440324091 0.15166240587223526 -0.04934931843298325 0.18257485859373507 0.012436959086915729 0.07369628798643661
60131410000.0 0.056070429712174207 -0.009727029564673624 0.08571896327165233 0.10487875133387255 -0.7354119618579704 0.1613248460845875 0.12002395199615211 0.2627275033268026
 0.08690565029099172 0.10380424041994597 0.055648604334037406 -0.04711250537488379 0.11639839419400672 0.2824593613668074 -0.7460412534521853 0.1564174547911119
 -0.7354600933048032 0.16237031476579727 0.11567005936567758 0.27029776832772096 -0.05177572944019526 0.08591807336620118 -0.04448630585383931 0.21993203949496457
 0.13362030733462898 0.2798616861404431 -0.7299988065167416 0.20148097252097005 -0.04944574569763204 0.22743462972700978 -0.057111121185462854 0.11678459934468347
60201400000.0 0.0834693951214434 -0.007018161221443674 0.08659898930046152 0.10397667348193258 -0.7459420214861979 0.1677359646000795 0.12966289662934116 0.28588005639298725
 0.08586806651722353 0.1049119951651065 0.03214007556363281 -0.009852361669427196 0.10113560297859704 0.2714831353020074 -0.7329219373105248 0.1561042601214069
 -0.7433810674930443 0.16261478146901762 0.11564477729663698 0.3104685717855895 -0.02021001261828446 0.01975769021183763 -0.026323602722257543 0.29511423015927435
 0.1252669330944322 0.2737537602691449 -0.7428163099638183 0.16689554479235977 0.04572534941444075 0.190160467257817 -0.20399233770138522 -0.009230415437987758
60271390000.0 0.06731837698730828 -0.02726826800300886 0.07754095636713507 0.10544238124365506 -0.7435161458532796 0.1626565679236425 0.12501507002580733 0.2973444757516011
 0.08182640679863556 0.10859026683802418 0.0828961736952228 -0.015394907426967424 0.12662511731368814 0.2722725253185957 -0.755821008316293 0.16213057166151307
 -0.7379831874071442 0.1773757152140654 0.15375415860665972 0.2938008972108052 0.025026877641122915 0.11871144767158465 0.01746779549119612 0.21315553129975778
 0.13248809174057782 0.28576573810451766 -0.7877090415870504 0.1405804506637049 -0.03317661405876847 0.26345748361191973 -0.012175292659327406 0.07051699779366512
60341380000.0 0.05541186698428794 -0.0006697108449992391 0.08267833365622257 0.10636756029489665 -0.7480260643737613 0.14744846030495362 0.11098390476475124 0.2686284230677112
 0.09578158740950574 0.10834229397042007 0.06758660467426261 -0.04479745882780661 0.12944844642276349 0.27619174178972133 -0.7525158309945493 0.19794814973950714
 -0.7408078047169373 0.18941761527432066 0.13534430096735525 0.2729795421749336 -0.08751775796682427 0.11118607987500498 0.12331403912775556 0.1971966397237642
 0.10658467696334828 0.2674792350554439 -0.7699259477957129 0.18599871779201219 -0.07357380295239903 0.2654838825185983 -0.008414584333856253 0.12006433931555097
60411370000.0 0.0836242041487183 -0.01684592325627294 0.08516908730886129 0.11000513445206105 -0.745281611777525 0.16899692984247403 0.09833873598340392 0.29204188747365106
 0.07621016705432243 0.09658178472217409 0.04915491599323661 -0.01195870285478651 0.12474854828159579 0.2574639214299537 -0.7640405050624298 0.16064929997709965
 -0.7015105275988982 0.1425581814661486 0.10306810620669725 0.31238310442322575 -0.059775190257795194 0.2455447678467514 -0.09929054732459629 0.254926037555653
 0.10580497517268556 0.2642884765470037 -0.741905223272041 0.16067804280764017 -0.02191619546683977 0.11768057291235921 -0.06136535062993036 0.1423574178187241
60481360000.0 0.07317803402822569 -0.03284639416099547 0.09204845738236073 0.10188173318271819 -0.7558521516193396 0.16522810366160853 0.1218886484808768 0.28716043971600885
 0.09269484952906011 0.096840250315103 0.0717104884851162 -0.012498167559245352 0.14491156796919427 0.2740334944771325 -0.7468599279467792 0.1775524953463205
 -0.7542097472666255 0.169802531396021 0.14762415185063793 0.3099555989390589 0.06610403629452029 0.12466253952171635 -0.03210010599972186 0.27147952945626
 0.14928207929200776 0.27711515302900136 -0.7636869386712148 0.18570088302950055 -0.1795657854110977 0.22990649994188872 0.08349026114736098 -0.0027571365384211895
60551350000.0 0.0649680046399678 0.0006609211451276761 0.09216994571793066 0.10630551794048579 -0.7328360072881679 0.18644071619188582 0.11479464837889794 0.27265863456666467
 0.09532164846433328 0.09898155826817813 0.05564658927467799 -0.04527370676221721 0.13422604809361713 0.2804617139371249 -0.743035070580016 0.1740419914109129
 -0.7264184296726794 0.16020529697898733 0.15483549551899914 0.2714384584183635 -0.13878775616438271 0.03179556238907067 -0.13381777183902838 0.21319896949978195
 0.12403154052994485 0.2730399546557962 -0.7257373870138096 0.22227775504472935 -0.00813334311792682 0.286602644678778 -0.010353609024591887 0.10836165152438557
60621340000.0 0.08924054037047828 -0.010481909309009788 0.10362388565680332 0.12012417593913073 -0.7494025109130973 0.1720573671857011 0.14631163432058644 0.3048671301520951
 0.08665572877913946 0.11481060888712671 0.05766571713222811 -0.009271347602041619 0.10206281884695688 0.2514827402563999 -0.7478061629465358 0.17815945363278007
 -0.7433065802383209 0.15448077183730638 0.08620637533678446 0.25231130726635553 0.040964592552991945 0.23542803218316324 -0.0417617156989174 0.1986184746961343
 0.1180793999940504 0.290270423723081 -0.7393388795013097 0.12016526611636975 -0.0263225277904478 0.18237526689851064 -0.04950023950798375 0.09954782675192103
60691330000.0 0.0647990023697261 -0.025366066366400035 0.10389496113321903 0.09905646688449342 -0.7439918955279349 0.20308938838967794 0.1193864161606701 0.28080004808940645
 0.09664991637449263 0.10277782431509963 0.06186776831821658 -0.017917343008880236 0.11208412569800089 0.26493720267347876 -0.725369629899721 0.20662286832114113
 -0.727117322987149 0.18767168533194342 0.07756500097083256 0.28876497476633733 -0.010078174890671778 0.15817423228187483 -0.010818007434319604 0.12365088790950432
 0.12850178980892107 0.2712002636826632 -0.7273435318539213 0.18620486044277743 -0.0440026561547916 0.27637525787056527 -0.05260255093916538 0.028119128118391817
60761320000.0 0.07725091397256191 0.000883076191798409 0.09083976694175849 0.0969352449526968 -0.7526543570911893 0.1803879182820106 0.11718814972146877 0.27474616384848616
 0.09252968092809283 0.09659392472458543 0.0694919567000236 -0.021277723236428795 0.13083669175135845 0.2847841325095029 -0.7408857440469125 0.18168012036187084
 -0.7475906922107668 0.17153013113234963 0.10723523734104626 0.2992871910733453 -0.028934702965526252 0.01192129784433802 -0.0534314143023255 0.2196642694853433
 0.10883473308074468 0.2865896145023204 -0.7836464788851577 0.12073094193191478 0.025785175917490206 0.20991132979481558 -0.07770836823891533 0.13416944217121113
60831310000.0 0.09452731053218065 -0.015943520845706743 0.08945195471871421 0.09318608824692864 -0.7250052274338507 0.18519236590036883 0.13169774344998175 0.28027333325391784
 0.09260936506602185 0.0992636846720411 0.06170255175129612 -0.025658445734059673 0.12903276649675705 0.2992068612447934 -0.7513729907745552 0.20640399692253422
 -0.748839570642651 0.17983576790039704 0.1029151140760148 0.26820363158027677 -0.14517461138661786 0.18454366492823732 -0.0821819533912698 0.2671167080945524
 0.12292885416450736 0.2918680608325922 -0.7494803928280398 0.1806400512695438 -0.03380654508952149 0.14818580730912978 -0.014879514008772698 0.02980798175974945
60901300000.0 0.06725192023427641 -0.023822221351409403 0.0988533105249603 0.09349462345814853 -0.7336703001715117 0.17766974257302046 0.12928351771563493 0.28654110748706957
 0.0928328608565195 0.09030136172229489 0.05840181494027706 -0.025792710358059485 0.13567717706762472 0.29295016400196006 -0.7273411307149628 0.17708610914664275
 -0.7320607172342314 0.15903560542638975 0.15498200591904707 0.25525706574141716 -0.037042564888831876 0.10462644812414085 -0.09879971933128508 0.22450967941799968
 0.1507240669594814 0.2854892063604481 -0.7698097883702901 0.22099388470745818 -0.05714282930628281 0.31949301269032193 0.027499082954697638 -0.01891431235092153
60971290000.0 0.07162916854991555 -0.007148581912686906 0.0826317163374443 0.08745235070428528 -0.7297771756449208 0.1824261127616612 0.13843684709511425 0.30337867840365706
 0.08877272204755389 0.0937641849926848 0.05969382320138686 -0.026736616281793246 0.12878442116052283 0.2887388835039574 -0.7252971366224924 0.19615791983732345
 -0.7118416783552006 0.1938821302445605 0.11474229464333299 0.2831338789266406 -0.17139137349139133 0.010881539236411044 -0.027682380061476865 0.09880285410534995
 0.13728885049037762 0.26881547899428915 -0.7248454557666061 0.2401295953046421 0.020327307878843962 0.18887668073775085 -0.12179807829079943 0.04524549066633995
61041280000.0 0.08624330543070473 -0.01685408887068328 0.09382079484393065 0.09622304825346961 -0.7302982641747076 0.19280995457307593 0.13635033798423812 0.29391800773608673
 0.09716559173211624 0.09628832743378525 0.06183687576063717 -0.036441583332770915 0.12704298409279402 0.2938430829960154 -0.7476111319385405 0.2107537717178201
 -0.726793424833874 0.19924136022708794 0.15115445029212637 0.2858505003172341 0.050210494437615244 0.14618330316682362 0.03120676985803458 0.15225754114828483
 0.16068166240268686 0.2702614759696014 -0.7587486927446877 0.19483754960458102 -0.07313716465206445 0.2235876676452311 0.08907534627630698 0.17373748712588322
61111270000.0 0.06206196515793826 -0.02145078617318499 0.08292700762000452 0.08855315056091537 -0.729420436456898 0.20073233825055076 0.15116381459401243 0.2482372636434255
 0.08944468782850484 0.09271159834136948 0.06589515137145671 -0.011845925356753129 0.12156701469836056 0.28829631969276337 -0.7420801581706464 0.1946340191002146
 -0.7191508007515252 0.2082998604460542 0.18225771305491473 0.330811685348484 -0.1312892547731695 0.13134930396367958 -0.04865548942277335 0.20969120039455358
 0.1375326205360188 0.26574039259871324 -0.7619157995285336 0.16618301719513162 0.04712051224989525 0.219183605596322 -0.09686394553049332 0.12496719536513803
61181260000.0 0.07918245847000523 -0.009696315648668501 0.08432101769436971 0.09432061437169376 -0.7392201211749979 0.1757894306205288 0.14428961639110624 0.2988087387768413
 0.08372872857552005 0.08941911671757524 0.07711760440422633 -0.022910637622393242 0.1235609611927358 0.2761537712872902 -0.770950216786142 0.18430196961129972
 -0.721914688133683 0.2146127074985902 0.15029908068900577 0.2818154782367261 -0.00776482290691985 0.13130884960556186 0.028157695899276622 0.2095871021762397
 0.16788647679261756 0.2966253890902011 -0.7233699514248196 0.2037238752775937 -0.04006640017255903 0.15916062238727402 -0.09555106619905601 0.20662757963080494
61251250000.0 0.0725728960657758 -0.022140720020748586 0.08935346856454132 0.08818114102081268 -0.7293871684414698 0.19283225351462646 0.1243730312722799 0.2729475612385774
 0.09347882299503212 0.0858477430198064 0.05916192633692716 -0.034667692177951015 0.1589353325541633 0.27744408245588703 -0.733952990528722 0.19466169428740676
 -0.7401218634299087 0.1762440918708507 0.11702338621050355 0.2512682500794991 -0.0982989190595255 0.1217492513207307 -0.06446848014861031 0.2639177722410989
 0.14429484582482885 0.297891582885496 -0.7573342496374451 0.24154327411388254 -0.020139632025028126 0.11507847210807169 -0.06755311672007266 0.11023796311009192
61321240000.0 0.07391493122527307 -0.01308711511180466 0.08773371231557366 0.0890331138732264 -0.7060405285269397 0.18272597101903865 0.1529536662757945 0.2839597511665253
 0.09217551726696184 0.08723180988437357 0.049095831732599245 -0.016320247217326583 0.1166872109594816 0.29222655734644054 -0.7373037788114587 0.20842469375365583
 -0.7291744357382677 0.20958056325448904 0.15856390018126487 0.29673677345049476 -0.07592945713759483 0.0885558813826258 -0.06744955942302998 0.25796804415023156
 0.13000553970836853 0.2969107547553645 -0.725254711224177 0.21145976644307202 0.022647889082470174 0.1572317485105622 0.09928125968727189 0.07331024597710883
61391230000.0 0.06677155222240608 -0.016926716830614773 0.08556333288692451 0.08088660665009999 -0.7207824846013555 0.20457109171267107 0.14189248134684598 0.26836395083973463
 0.08539659488040027 0.08380709752324426 0.07111353810914764 -0.02964129688313372 0.14393162187495054 0.2843932939869082 -0.7408455556262656 0.2321456241860506
 -0.7342662965448474 0.2000256467721596 0.15052509318694104 0.31049247065614294 -0.019673981847778396 0.014414897810060045 -0.166025362033102 0.1793048915325622
 0.14573974519090757 0.24964328099637262 -0.6928576490141704 0.21656680149210042 -0.015875245077272906 0.25458232945581527 0.0597913646688875 0.06421013306353354
61461220000.0 0.07671487602226554 -0.009065567563435023 0.07595108379472532 0.07946852198320498 -0.7234855985178817 0.20061039769065916 0.1516024017467669 0.2811151678250727
 0.078693063878576 0.08034336557409495 0.0642718006496028 -0.05318792642768476 0.1492519174304534 0.26760712930126107 -0.7286678659789553 0.1978394850937739
 -0.7348630914809682 0.1930235280795728 0.1027792568537216 0.2563937116194362 -0.05866152021615974 0.06921095141224794 -0.078377924016365 0.24841821838401656
 0.17622303387467703 0.26000517504265963 -0.7891037885862775 0.26230564090963276 -0.0041828799569630344 0.3172038089215474 -0.08282469559060542 0.09753646258670001
61531210000.0 0.07333349008493928 -0.020555937297050377 0.08815586678284087 0.0832937150205489 -0.7325860862253714 0.22054195312793656 0.1411716429195389 0.25908729175372325
 0.0837637814692058 0.07864495666509026 0.056590855967739655 -0.006342632977775604 0.14870709886764372 0.2800610887918055 -0.753411320866824 0.20446577256589887
 -0.7214362713472019 0.2319723516052505 0.20008460854413232 0.24568916193196602 0.16169481802376312 -0.01667580406121093 0.007757063838711481 0.1450371459745672
 0.1524433379934695 0.2608505277214406 -0.6449935746789015 0.19006804084889575 -0.012432479482237059 0.19514319186472734 -0.07406575749875266 0.20079423849872605
61601200000.0 0.06791825177364502 -0.019959831999583212 0.09051884371496219 0.08363705933840679 -0.7294704487555914 0.21101984600189388 0.1420477452366156 0.2894191015554444
 0.09668503137294514 0.08625255773532801 0.06107575817894614 -0.033703558629192124 0.12854467878200312 0.25824184005356215 -0.7434415922418107 0.22918413913771876
 -0.7007453805465964 0.19074031868118618 0.19714715783368686 0.30783865687960515 0.041795602475050604 0.1699215289195513 -0.07491278615678464 0.10166048577374559
 0.14637864378924964 0.26549017910896744 -0.7301352200566003 0.24421481067355882 -0.015759661867822548 0.29988006797270933 0.024908663073478495 0.046872173035596584
61671190000.0 0.0771822611533781 -0.01468561231585772 0.08332270629014062 0.07832211055363181 -0.7152342203332104 0.20346048610060627 0.1745822927604201 0.28156473209713423
 0.08074610304589724 0.07980825137604025 0.04638514691808632 -0.0464258539408542 0.13453700535315877 0.2715386994391414 -0.7319770604904394 0.21051058129430847
 -0.7214272322321725 0.2157716959847845 0.06959323161562553 0.29385458377584095 0.007422574229160922 0.1514967659442448 -0.05555257937297988 0.21842718594246144
 0.15407841831264607 0.27174817953444513 -0.7452927662868895 0.2190505562657807 -0.04566952648489973 0.26692807122194595 -0.1066551747306129 0.12517061121898948
61741180000.0 0.07513267249442439 -0.03050697735796349 0.08599470552365467 0.07446610199411165 -0.727766624273984 0.21172916855174617 0.13284501498406603 0.2789407307584101
 0.0870308860875095 0.07865792165660705 0.05453094483685377 -0.0070608326737866545 0.13873463924640794 0.25481784398482055 -0.7371004919250697 0.22221111157034432
 -0.7218518730018043 0.21495882657822218 0.12405915114784676 0.2926259389216164 0.046389823018102815 0.2002329781831824 0.05575646694228675 0.0544120909814936
 0.11451625826682124 0.27195095301950895 -0.7728955416374366 0.21160269269136084 0.018353168191857186 0.2559246520707448 -0.035916600687662746 0.0953231368213996
61811170000.0 0.061490953741869754 -0.019764098153265946 0.09067546452175763 0.0880559360181648 -0.7067263929083114 0.21579282373748956 0.1337362205558497 0.2575757050056871
 0.08944152819371468 0.08689229287135142 0.07904458570490609 -0.03325444651506553 0.13109468738476282 0.2970404672619095 -0.7257054557858547 0.22484324665257496
 -0.7341045844707079 0.21861032678709713 0.17219114288242507 0.29011561540443254 0.0217277112467785 0.18132946918529294 -0.04864804382309067 0.25401262476279496
 0.15206602563402072 0.3012754922295214 -0.7665703980201553 0.22043326647473802 -0.031557912559657605 0.22549536050695898 0.027262021786073103 0.04280457264705425
61881160000.0 0.08119744233186735 -0.02103896118008033 0.09625579762726084 0.08704256381163157 -0.7196312184132866 0.22193615839533495 0.16067077965180568 0.2561463637556322
 0.1016662539733459 0.08509063523128854 0.0547882369498294 -0.03514646260070051 0.1403429053803207 0.30128725129266537 -0.7305672609071913 0.22271144170930857
 -0.7441649622293208 0.19512252336356106 0.18880962987885813 0.3063473465135189 0.026353020332467465 0.10995251139637 -0.14747129030395648 0.21468522160080294
 0.12958251091519776 0.2598683464065691 -0.7450432028853032 0.16951035350284224 -0.056692787692295785 0.12761991734574077 -0.04904366011844489 0.14638159215045046
61951150000.0 0.06356004230449619 -0.033449621472558665 0.08572342271836254 0.0796474666359965 -0.7146348110531121 0.22133944447351694 0.16548995907305755 0.27591861110289934
 0.08797442309875907 0.07091236410906092 0.047052836332842615 -0.009956592934388834 0.15338553420439666 0.301797951825346 -0.72419327582016 0.2236961215515008
 -0.6908816518859507 0.2275953567144902 0.1463570020691321 0.3117964876442182 0.13028003687728373 0.16381074263058484 -0.06444851654730185 0.20916968565543095
 0.16299468381599855 0.2568766754503132 -0.6908959817234978 0.2487868969534995 0.029035481017979824 0.12011175653566745 0.08369012039781161 0.01175220361660653
62021140000.0 0.06471831951145363 -0.01908586435532283 0.08119088597175883 0.08016328290622081 -0.7079156786888192 0.2361442116584371 0.14647632949981737 0.27237044816831035
 0.08106704977716087 0.08210423174503133 0.06646931874923438 -0.06177226974469378 0.14091258336571247 0.2740058796743796 -0.7080072904647613 0.24610816178165876
 -0.6840019332947259 0.22521915486587885 0.16401919978501045 0.25159342602065576 -0.09103611890179325 0.16717401888201538 0.002114221652103884 0.261994913506214
 0.17493173188388939 0.3048626757818941 -0.785974046148472 0.32423439969201734 0.017704785826702735 0.22775095310300963 -0.07241094154092052 0.031449865195170214
62091130000.0 0.080000836061699 -0.024241673310145012 0.08033744598639005 0.061080852472677985 -0.7072474592816862 0.22606241269530702 0.13532263033595127 0.291790046901775
 0.08837513568989672 0.061639287774991204 0.05107150624440514 -0.04413815057562284 0.17001577860360162 0.26170153327546286 -0.7175836427954679 0.22719404863625373
 -0.7233723142152825 0.2231742637928853 0.201700792729895 0.2731187514414176 -0.04871673680533171 0.16771579256587954 -0.03154318594600897 0.28999226300743075
 0.15039980775282222 0.29987881964247515 -0.769800217812163 0.246247624829316 -0.0845332662569137 0.23483875970189494 -0.0037896993421608714 0.12840929090520942
62161120000.0 0.07390861183263749 -0.022091276609710685 0.07790856404506326 0.07993260679794163 -0.7188487379530089 0.21697573334696604 0.14533975585009504 0.25675434276736864
 0.07838173286618347 0.07554597840300245 0.06575976926970915 -0.03824804341550271 0.1719180860214897 0.2899155792417388 -0.7322129046307677 0.21949610960064483
 -0.7291483322850385 0.24716342331404617 0.16818411378099138 0.2807758003024633 -0.15272870818115422 0.2554510355803937 0.03639848152702663 0.3653988036531951
 0.14509202824382494 0.2874885646378398 -0.7398852256401681 0.18439181065168395 0.0896978836366354 0.12225442340417858 -0.08270503052987913 0.2123946482447735
62231110000.0 0.06764445142291592 -0.02122281214595334 0.09237116643642723 0.07563567390444784 -0.7056235622817036 0.22121152523326604 0.13966486646427323 0.25969290400741
 0.09101579198007548 0.07531565722477672 0.06132198395038579 -0.034919308260239035 0.17859384209024637 0.2776754631359298 -0.721837268906249 0.21678266948274408
 -0.749162604663774 0.2059725844814592 0.12555768466262954 0.25991386591728227 -0.11525530613882824 0.12545780978024818 -0.04260907916435953 0.2862292337483435
 0.1770705722553855 0.2645617943027994 -0.7675234000967537 0.23491474506877374 -0.04836275579125142 0.1369777960555 -0.20865037907373218 0.22079978375982245
62301100000.0 0.07029584823883685 -0.03473525856962991 0.08139282112320094 0.08118925213208693 -0.722220739549466 0.23161972492694763 0.1637773155550598 0.26886007738692025
 0.08775008468584958 0.07717166870594012 0.050407269312931414 -0.03597795192867704 0.14742967464099613 0.2899535309050516 -0.7183037021593525 0.2513957946204524
 -0.6894236792019633 0.2437288486574994 0.15559560372475206 0.22931269168911228 0.04499510909094892 0.12021023239119721 0.006716101228727243 0.20120380516025596
 0.14344044856070692 0.25860138020950674 -0.7204278514300139 0.20630995648083159 0.03800155535771849 0.09823067038290265 0.027979411206083438 0.1511605353443418
62371090000.0 0.08054314786168151 -0.030236642948144526 0.09212388591138165 0.0790808710601425 -0.7041677778287888 0.2413006163206849 0.17893236372781834 0.28899803967396
 0.08367395154491376 0.08116301623083305 0.05828037221161047 -0.01579403066774209 0.13625431887626827 0.2776569035128354 -0.6948761429450805 0.23028200208070135
 -0.7146808681697733 0.2575235938365205 0.10006262393498394 0.2856959559247003 0.0017185711009943632 0.15030160286575198 -0.04930530577852492 0.17403486967072657
 0.1820373483000663 0.2701211979915548 -0.6462043692865954 0.16802979822022376 -0.0035093527379334087 0.25732211693336016 -0.152069845000903 0.10647293670081102
62441080000.0 0.06893838144813934 -0.03868916831915498 0.08557097238626007 0.057652987896394926 -0.7091484052406088 0.25211341209544047 0.16649597983181796 0.2564270805821853
 0.09059977702027501 0.0652350394194677 0.07483454549289778 -0.0403823579248803 0.14257504785774808 0.26329401827210636 -0.7089082038735146 0.26413646885049996
 -0.6617052193389591 0.2463265698626552 0.14032079643024556 0.2826040631474853 -0.08111314116299809 0.12562543491180195 -0.06613371624421062 0.2726289810156813
 0.13375143416102503 0.2834244854349774 -0.7780013934934202 0.1905628328464148 0.005251835970584653 0.3530405179028666 0.007011387938730532 0.0006514409895211877
62511070000.0 0.05964600404886873 -0.02722283114403579 0.09078156121490785 0.06835638727887242 -0.7150169837492606 0.2494781094968777 0.17729120073833082 0.26626731666269615
 0.08890211030633631 0.06753159959610447 0.04954158958453631 -0.03016663827932601 0.1680223125083004 0.2946137791729004 -0.7200686200544056 0.24786641212224933
 -0.7237824029738821 0.27766446965974523 0.20181036840825656 0.26758901153088155 0.04108969644293943 -0.0472253897859645 -0.15478917922021757 0.24310046843330307
 0.1929300019613003 0.25681699274550046 -0.6562431329965489 0.25459528011785176 -0.0611546057653478 0.17827575339651638 -0.12430675209724923 0.13065407367976378
62581060000.0 0.07920761232667524 -0.02312854119135775 0.086441651268869 0.06945512884140922 -0.7150219810958054 0.22666313416654152 0.1849295478492565 0.25216980562631663
 0.08859711061338445 0.07294548666761863 0.06447757304383958 -0.027272975801986774 0.13623989996240563 0.3033393681137036 -0.7141144806967951 0.24903879133392542
 -0.6632543948407591 0.23818362751029865 0.12907144968499795 0.2917606490185858 0.07332994045779553 -0.034412905100202174 -0.053910599871917306 0.16542057423134723
 0.19020307981155257 0.2749086890455979 -0.6861344897373094 0.11826320281576834 0.04241756183503615 0.22610118381523178 -0.03340234964399422 0.24570444376743156
62651050000.0 0.05956699426645241 -0.05327269769137157 0.09169363026314142 0.06486347790866512 -0.7050857629996266 0.24552856185378547 0.19504451828347158 0.28285150594180664
 0.08706462612843696 0.05490186819589539 0.047174180861162755 -0.02066832770675565 0.14070458707279718 0.27461342599476674 -0.7119654677854149 0.25099221759060625
 -0.7142782834099117 0.2643598753030281 0.13516590819409183 0.23873369977884734 -0.03738909212891197 0.10570899863674482 -0.019425300618080274 0.24822367623189337
 0.16045787670468067 0.2824732443317305 -0.6849358574385801 0.2059350206044693 -0.058474002761585216 0.18506720355878764 0.055775418538078665 0.10570774583708396
62721040000.0 0.05988219703854836 -0.030454771771498024 0.09192476442931906 0.08135977222077376 -0.7173011724117211 0.23555781907765844 0.1632356655792427 0.26357869314642296
 0.09103623929087237 0.08192308952813251 0.058657142046569334 -0.053012976585674276 0.16354164981809288 0.2848624924773923 -0.6849573904841268 0.23691333713451804
 -0.7036715225124851 0.2226082803340678 0.15292404133571558 0.27843537427181103 0.09271925243861932 0.16921962154246553 -0.07808501875019762 0.21475255003208468
 0.12985949728077184 0.2543173548362056 -0.725755037282029 0.22683286659899465 -0.025010731157358683 0.18151816220011305 -0.14271478876156335 -0.08049344473851591
62791030000.0 0.09513212296652857 -0.02887549370899744 0.0879044013494094 0.07095380080058587 -0.7135181981173655 0.25370481633641195 0.1592741265983384 0.26667482780668367
 0.08903723472974787 0.06902250329491677 0.03361196101926293 -0.05973054797303614 0.18473786601392306 0.2749051627300079 -0.7425325765441841 0.25366262971435627
 -0.749155352417615 0.26437344067878726 0.20988689122468032 0.30359188667765935 -0.0810742729592272 0.01959086576307479 -0.05646426899587975 0.07469951588523815
 0.1705485053400234 0.2702587029139065 -0.6899628818512978 0.33221987004521175 -0.0629770942353404 0.1537596050862195 0.05553712629047597 0.23427787226962393
62861020000.0 0.04565820629630726 -0.05723039796767255 0.08378087518852287 0.05905285083388431 -0.6985776148246132 0.23936865890797393 0.16512040475931786 0.3025462422405081
 0.07914327162316677 0.05699272593841092 0.050800780242003594 -0.01571472310484837 0.18943800581020795 0.26255437041379714 -0.7122123555718373 0.25993522311150746
 -0.6961460144160717 0.22434732461176352 0.15700000989416066 0.24760481698802508 -0.05125199858138665 0.11289535385482036 0.020261268956786094 0.18265790094771964
 0.18724897624043094 0.2721391022039459 -0.7254816774629016 0.1974938482665581 -0.015863081851536377 0.18938050146809002 -0.04470600527733817 0.11357359940622519
62931010000.0 0.0523549412227171 -0.012217499659212925 0.08680076724020094 0.06514405184584643 -0.6934733448608865 0.2600201280484027 0.16735092875934504 0.284032718379104
 0.07278936271182843 0.06505430009680667 0.05734827515358772 -0.04522062583109324 0.17998398574564162 0.2674888955997346 -0.7007368440246775 0.2516896475338565
 -0.7111161144970829 0.2422083258177747 0.1261389788598051 0.23411825985823967 -0.021749215897354415 0.04840414141466848 0.00909453266294139 0.308809566351743
 0.13503905876534233 0.2799825526266953 -0.6152088447000229 0.29528959952392697 -0.04632375185908617 0.2079154501046314 -0.14806020181199359 0.10874392405343497
63001000000.0 0.09763252256242898 -0.03869290659750672 0.07384246552293483 0.05814074831889602 -0.7067775487300592 0.2670055461994124 0.19292331493170511 0.25704548954538187
 0.07485664062346932 0.05973695256028921 0.04792273120780545 -0.04122297675893446 0.16847394430572027 0.2858153092936413 -0.6966893452606511 0.257447838559641
 -0.7125597429627406 0.23646398685386752 0.2062038062958516 0.3293054514235879 -0.13750766549998517 0.1034637645523804 -0.03198969960774408 0.2219717306737542
 0.20100664336893706 0.2495280230837626 -0.7476258730879232 0.2562188600354294 -0.019831973504435236 0.2172483250920821 -0.08172771021957323 0.15813252121079918
63070990000.0 0.05149775950793114 -0.05339154894849716 0.0886796778076887 0.0690188909623492 -0.7226750437121173 0.26612179547625003 0.19290310169653868 0.2896748170260021
 0.08508473635327343 0.06162600469900559 0.05422003892701577 -0.01889921131706148 0.14729868500960588 0.251913906668713 -0.7122052139622502 0.26249361843161223
 -0.6656675591623622 0.26183637268413906 0.12266998774311733 0.22452029067962825 -0.017475143520893008 0.1509836302235675 -0.06436540894873996 0.1842935571066076
 0.17966806123619228 0.2920992664143801 -0.7020261926345475 0.2453839932515885 -0.16451254224319267 0.21733686558752893 -0.0918255874666035 0.1443000890278977
63140980000.0 0.04593977067284402 -0.037425177991543185 0.09509159323575705 0.054290638322534945 -0.6577547593108279 0.2875874891936335 0.1960329577376305 0.23405197411746215
 0.0741427251134336 0.06693482256360853 0.06472073907455674 -0.06545814081177932 0.14003322485802516 0.30337666071757374 -0.6993587841383854 0.2884719656451519
 -0.735659070802999 0.21390555624741353 0.15004565726671565 0.26965481037683503 0.1709350397668846 0.21337027778751838 -0.06540212059204746 0.2651228663084621
 0.12117450601839545 0.2692499987495883 -0.7158637931138895 0.2690213257197835 -0.0658863795277347 0.22840636043198004 -0.05692417675726313 0.19095687565272187
63210970000.0 0.08666813878290698 -0.06828875623099344 0.07824801963637133 0.05942424485752289 -0.7147308712049633 0.288476942093496 0.21895786112133994 0.22886170632819627
 0.08137047571794846 0.05970305407099622 0.04105065047955153 -0.04807339507597594 0.15313133640787352 0.3104384942761401 -0.7018874482760321 0.2553204812440564
 -0.6566908119474043 0.29932661372300157 0.15216948597559557 0.2949940033985935 -0.2935830252648016 0.07722711805074779 0.08823746198648601 0.33987599218491527
 0.15510446257165575 0.3249303056487601 -0.6967903090688097 0.26517159372886007 0.011067405408779398 -0.02437822160775894 -0.41227823475162384 0.2739958379451715
63280960000.0 0.0410083639737682 -0.05364886056514062 0.08734111082628468 0.049468966718115355 -0.6948575472441292 0.2648443268031917 0.17001277992951538 0.2792551614868182
 0.08490534551426977 0.05258724599754482 0.06767779748745001 -0.012656276462310458 0.16153732457206763 0.2671837329268361 -0.7154512242922072 0.2911955890233875
 -0.628779627674223 0.24714552955961072 0.15153743478717807 0.31098991983707935 0.19343934988629913 0.16425018612644401 -0.006800985692228291 0.3018087063298155
 0.1861881124705873 0.25951283538186815 -0.6261941155837443 0.18133496105695887 -0.1613328433943781 0.2865815841737977 0.04465426349303151 0.14291076775950276
63350950000.0 0.08880317498483299 -0.014185553845429147 0.06920823523968231 0.06864417450818877 -0.7130258606943797 0.2559083190865736 0.1685439439688015 0.29636753331124654
 0.06785689395733059 0.06273077019374783 0.060023092356115165 -0.06682877400727788 0.15330489454171328 0.24728044125961976 -0.6994147735791453 0.30577906622127254
 -0.7452510221598846 0.23598959127130187 0.17322978098395514 0.19763909385056705 0.12664890824948924 0.40656759580501406 -0.08990782118978657 0.1360179019687345
 0.1496827013928506 0.24269022156863046 -0.6880068801813424 0.25221601669727817 0.1379443412047652 0.2067196758504438 -0.3008727914679636 0.14023216538480712
63420940000.0 0.09838605483381346 -0.06963326798034714 0.0789198959280005 0.04432480804859563 -0.6499684616416935 0.26215839039253386 0.17750633685867998 0.23439221263300491
 0.08257868082534808 0.05237206568362335 0.03363319442777075 -0.04589625742005346 0.17495599627106923 0.30574845569254283 -0.6659332179034623 0.2888293544825772
 -0.6581072094710496 0.32201038727582665 0.23922928873526494 0.2979276604300742 -0.2827047336858167 0.2756113638732933 -0.12297683962615745 0.03214379437488868
 0.18411681549916276 0.24583652206851406 -0.6801245020867878 0.30882307535630477 -0.005330854169916018 0.13696379912553444 -0.16269465634806585 0.26915897203097006
63490930000.0 0.021460179366953394 -0.04126055273736743 0.07921642373716851 0.0358751319236681 -0.6837166352021168 0.2824304930456041 0.16910874741229134 0.26561939993960193
 0.08288253014667232 0.043466242487427115 0.055611411813208375 -0.03253823359986814 0.19415588376418175 0.2808888379932035 -0.7227013042875793 0.3084788967919905
 -0.6588057513014871 0.29397389760790327 0.191819799477811 0.24991144898028 -0.11482932574084011 0.017479478684651696 0.011929669547831234 0.18667535353786144
 0.17475840354338532 0.252559455106318 -0.7040834148138319 0.227776492540131 0.06892834239457675 0.08644383294076713 0.18227408432913303 0.238375977531371
63560920000.0 0.08017877018028263 -0.014366505488924968 0.08826633791979553 0.05740703215710422 -0.6769843938260813 0.2765024233466816 0.14957427610910926 0.261084546718229
 0.08663349897209689 0.054227190902704454 0.04065808578821377 -0.05844923881057505 0.21892853236637097 0.29660253706091266 -0.7228989513958282 0.26314799335184125
 -0.7150827772355112 0.2595934503962126 0.2663597232853289 0.25441812391481883 -0.19161461059622492 0.13121599932884964 -0.08613162622218412 0.0736950103189105
 0.11053034529442671 0.2721893784085249 -0.6233773767773021 0.17665774660122469 -0.02285712129181881 0.10553821985213731 -0.028739593652860093 0.29477875749433724
63630910000.0 0.08499583031198259 -0.07497195707648116 0.09958981063426688 0.050605664425123355 -0.7011455969529167 0.2955166839433332 0.18372193867364525 0.28168840481669744
 0.08178990988543507 0.05120299477353657 0.036806437429384276 -0.03725430424945078 0.1574324904066492 0.288831251460722 -0.6929680099533543 0.29433019012164335
 -0.7161275535861972 0.2521335323396659 0.1038234754471771 0.3556529208488331 0.0015144016544139658 0.05031504582686772 -0.03538777729512585 0.1624405708071943
 0.25659667365564315 0.29877177969145957 -0.7229879853490251 0.35694303900454016 0.0642013533402876 0.11454708305807067 -0.0833920543768742 0.16773999255085026
63700900000.0 0.0282126731100089 -0.028377062567313923 0.07677198336287384 0.04779992320929501 -0.6969814591564587 0.26133134468008534 0.20356477337142267 0.2938128169171034
 0.0778549312861481 0.04796604332666818 0.07168135235091343 -0.05378191866349086 0.15229458228080822 0.2688765975024233 -0.6991906493965431 0.2805187390856762
 -0.6796828243101564 0.26788082159933335 0.2020983929547597 0.26108918006657483 0.011752224852632182 0.18829977024440392 0.010097233101208004 0.2218593220118253
 0.20599571412919293 0.30619608383615554 -0.7686768830563467 0.34995147010056254 -0.007763455779095816 0.29789901852341033 -0.17273664783055245 0.022477187790820235
63770890000.0 0.10998697899000387 -0.02171862633139372 0.06309110127632314 0.048468510563582624 -0.7405362229066412 0.28418663019714463 0.26852498579208645 0.2756853793295156
 0.0656079157800364 0.06081115583204646 0.024220195648319648 -0.0388624900483429 0.12983684067119447 0.25152055630147313 -0.7041976087373631 0.27333822520220813
 -0.750282280653347 0.34122615806995893 0.21061297065136944 0.2770364445545355 0.002909061665517563 0.23273466580882635 -0.06087476179567008 0.17775810859474264
 0.21826264425274192 0.21943573456681587 -0.6369581038849059 0.2540419116349497 0.08885091070797166 0.22045524257324267 -0.28172280416500106 0.27203089440190015
63840880000.0 0.07653977869306283 -0.09385172265656326 0.08577332532967485 0.06140166932697058 -0.7175375604133235 0.2979902385663734 0.20372916209222042 0.2654249117880769
 0.09561473225729133 0.05280076389195274 0.052312070743505065 -0.033221473855066776 0.1419630953575457 0.26574810021922757 -0.6994597625308426 0.31237962569362987
 -0.7386118729458249 0.2979508095925457 0.1626996306949107 0.23758950765685227 0.17383431036438024 0.24637088357153542 -0.02128534099840234 0.13859520663330327
 0.1708194866809888 0.2976928012725464 -0.736161937741864 0.13941997062789746 -0.1500968725932298 0.12530429636683726 -0.011097665516723228 0.2091362961697891
63910870000.0 0.03307805194969813 -0.020455517914556832 0.07988202718745141 0.03257648419896308 -0.700488784413283 0.31183375354496584 0.1772148132424185 0.22649198991477812
 0.07674528814532731 0.0328953873898981 0.05215990927388283 -0.058217925400255686 0.19481019672499994 0.3014172841668444 -0.6883262052445318 0.31282402026521516
 -0.6951561633790309 0.3163936638046462 0.11879500523107167 0.35323958091591356 0.053465647821769144 -0.018033213905073023 0.12518251279745046 0.3280409920209571
 0.1584541323010193 0.25110837879895176 -0.6540259785321577 0.2894762489556887 -0.08393252448742085 0.21101388444384409 -0.06932245229084198 0.13969202436599623
63980860000.0 0.0987472635431062 -0.04403794988879087 0.08238773767451014 0.03955353483969163 -0.7102716433917076 0.31961560124552735 0.20298883600724485 0.263471826866582
 0.07740297831750373 0.04344626065042214 0.03667309808958184 -0.04763340403169056 0.20388688355308085 0.2841420637884824 -0.6951488496473314 0.2897868294144906
 -0.732419676136878 0.28157645791469943 0.17556250344251656 0.33937665088080604 0.04444763991784305 0.03394333318737519 -0.175196979363182 0.23138321140354193
 0.20528704196626024 0.28073038588151555 -0.7242586625950388 0.2973000562396457 -0.03898445260067356 0.13050281598524308 -0.12478406720531986 0.1577927272873031
64050850000.0 0.04901171936820311 -0.107233138546072 0.07938003921201944 0.02524606529304258 -0.6721234296193018 0.2816144214014462 0.22678845882079818 0.263601410201013
 0.0766890878955077 0.0316127035503877 0.031135407106160695 -0.03562387042378882 0.19658242597708894 0.2782532051215154 -0.6851792625521264 0.2708225022323929
 -0.6723971075285672 0.3062107807827868 0.3094554023878426 0.32141631336458404 -0.14824466537445577 0.10238594986732424 -0.1213944784404345 0.45258270466604567
 0.2046472003690844 0.24443159144392565 -0.5876519289687533 0.3387998000963631 -0.07868846624665697 0.2779809943419851 -0.22097585274754578 -0.03347784348088158
64120840000.0 0.04975578162730768 -0.003279708218482346 0.06928856403758701 0.041329962035861104 -0.6925845938508791 0.292143328183689 0.23487661417101569 0.28827058737522804
 0.07214464767692888 0.03544834427511797 0.03877843510989119 -0.06062488873896793 0.14949944370450358 0.2440331901005293 -0.6727808919785492 0.31755530189694725
 -0.7006913255672507 0.289824733262563 0.1278839974351575 0.1970743561642167 -0.08175211007783127 0.11549213445438761 0.007802572865621443 0.22609061344683268
 0.2385795766814777 0.2996251902104101 -0.5801727664242641 0.2989982514003079 -0.18786368484336768 0.21112420985284 -0.17473561196338785 0.07170527156422284
64190830000.0 0.09076435647483305 -0.06820544295860131 0.07930772286685957 0.0333389067785932 -0.7064370844841324 0.2946966384606223 0.19632159890774076 0.28005056208051493
 0.07910949122718332 0.041740163834364685 0.03585985802544827 -0.030669667713463317 0.1816911074426708 0.25407480089788553 -0.6721946426012178 0.2935181528551669
 -0.6562571220885876 0.2758017490397194 0.19477514461914533 0.24305208769335757 0.023171347100634936 0.16631500000211902 -0.10732294606884728 0.19834812273934715
 0.19574750711502958 0.29515414359956615 -0.6753188911173277 0.2923205461364391 -0.14597895806012523 0.29522586358802766 0.027254639791370435 0.11203839849424811
64260820000.0 0.03184522301112123 -0.06654030282095975 0.08108228877297194 0.029433804247808195 -0.673282809119373 0.3020783678276555 0.21102276030662676 0.27051231402237347
 0.07526936379897563 0.0306806979196436 0.062028966556967706 -0.045504579491142685 0.21790689609977298 0.2708673651175723 -0.7104660771793467 0.31545998582289597
 -0.7268089708573352 0.2985144390258107 0.1824762930319172 0.3269308374331556 -0.011203326202465962 -0.06737238409093528 -0.025373644799684087 0.18735499486992963
 0.2095164603492449 0.22183857650400615 -0.6790018707828129 0.3173324553783205 -0.12140864775050188 0.11576508166963431 -0.040459591975914505 0.007162371671702702
64330810000.0 0.06637583207139044 -0.01426297418127717 0.07879115241033659 0.034590604601843614 -0.6610677400996543 0.3074634700055103 0.1350874478634436 0.2727335439481361
 0.07824385862150005 0.036912366452071646 0.044513959477321466 -0.07077078905178989 0.24452464378994798 0.26990911800685624 -0.7019487136783995 0.3233131613749206
 -0.6658009312380913 0.25640400357530385 0.22000128058182405 0.28553777063658903 -0.07928067911640525 0.07367808428447711 0.013788942353595466 0.07261551829172944
 0.15161859053041338 0.2698572610229961 -0.7083547459600452 0.29351733229615007 -0.02881401190358368 0.21898257924128325 0.06499612186191438 0.1254078011158878
64400800000.0 0.07887699505766795 -0.09031464362241907 0.08991679285014101 0.052105435840008825 -0.6306495053903871 0.29956501596266855 0.19628349620995916 0.2669646500115389
 0.07898431265249564 0.04645689807335309 0.022238395812114408 -0.03738683704277597 0.17120465137347726 0.2507543279396224 -0.6769966502253727 0.29428644126573644
 -0.6746588835182562 0.29469372808534405 0.11484884797378735 0.31691833116646956 -0.09608907824140052 0.29234945178519844 -0.00987224398085328 0.2491218159926298
 0.18165380254253746 0.2394703290416935 -0.6163683107881915 0.3185756638252248 0.00044568047470616533 0.16622542001533622 -0.0860824132198759 0.26803656629241035
64470790000.0 0.04116434767740005 -0.08375147865486729 0.08125656547909552 0.016108069177041405 -0.6264223582030054 0.32182956752257624 0.2391299875259684 0.2899029846910339
 0.08883807927262334 0.034738462642989264 0.06667704816396441 -0.0738068045563855 0.14381351411996726 0.21742516701283213 -0.6514018956268335 0.36864452174582996
 -0.6855351189025234 0.2870186381218733 0.2334166243004936 0.31767734076379406 -0.21265168003280643 0.36807719599240396 -0.12709936161645338 0.10313256093757805
 0.20992113537476514 0.24293269669504572 -0.6843093950811212 0.3431293731801009 0.06971591256949193 0.18383727685052936 -0.1310646932209622 -0.019378259572991254
64540780000.0 0.0842711714216074 -0.03663803838414888 0.0847036561169202 0.02774260578786188 -0.7079505966658947 0.3065937941001218 0.20712071520565326 0.31635296901983645
 0.07924565078954905 0.03128972134851291 0.03956519611979267 -0.11071973019845378 0.2228638308923313 0.23686334607131948 -0.6626931506212328 0.36624440040746575
 -0.7150463036453316 0.2763364634431664 0.16628223037534606 0.3206980535684558 0.09083356189000305 0.039808968939386014 -0.10592357597251958 0.0772127691167084
 0.2197238983412402 0.3051311675556024 -0.7302070666114426 0.4724536052573591 -0.10297477331308279 0.31554399059729904 -0.10208618556592461 -0.06989594455416935
64610770000.0 0.0591613730072947 -0.10519181525375947 0.0804601075752063 0.016325735847942204 -0.6674218452758263 0.3342505608669862 0.23135159888132115 0.246360035396977
 0.08507301371487398 0.03170574063731819 0.03404403758588233 -0.031198181791784536 0.20388615769636256 0.27898499383113257 -0.684042431522359 0.3261381533509734
 -0.710729986082497 0.35135107560376244 0.2913672173359994 0.3421811655889346 -0.045226174360093574 0.16288710629608089 -0.12414620638025453 0.29450734204223666
 0.25236971960530635 0.2439989960936899 -0.6788861079045633 0.37037285732816405 -0.062415346770510687 0.3192424759450361 0.01621491404094106 0.023507427785078184
64680760000.0 -0.024451244718208715 -0.0047843368246753455 0.04467389266300862 0.048171437980528524 -0.6683498775011607 0.30640657376846997 0.16388763922157515 0.2591293427816399
 0.04917140075220736 0.05267045783299204 0.08222172976506284 -0.07268566522007186 0.2826902626710142 0.27312900910177196 -0.6851817895324861 0.3270894955613175
 -0.6456925272334377 0.38548758764759183 0.2254493767457648 0.19453656622866564 -0.10735712812076771 -0.12434766305810639 0.10333512523375864 0.27535764105753635
 0.18686126517157198 0.2858060224307378 -0.6512500281674921 0.3281886201309126 0.008106428468330781 0.1949046438844689 -0.17930875644575084 0.008526872252759941
64750750000.0 0.08642755242980138 -0.05535037665976377 0.08018080275628549 0.04268276857216871 -0.6806956522632089 0.3239040576253131 0.23720154112660263 0.23942598289780564
 0.0690015401360354 0.05709592056704008 -0.01436118388373146 -0.07416727279634729 0.17481507283060474 0.2948708486124257 -0.6765175025572077 0.29930407102744755
 -0.6072961236452096 0.322678060367576 0.13865155287572845 0.31764477332870406 -0.08025432455768243 0.13938915663701446 -0.05141402737881289 0.18771275142753827
 0.23135220424447964 0.16934157986713608 -0.5948121999861048 0.3994350614434119 0.020528038423509386 0.21373100593892147 -0.16729953414178003 0.2301295037787923
64820740000.0 0.054242987437222834 -0.09760809771398214 0.0758468460206891 0.03276339569847981 -0.6880071195758851 0.3750326598213002 0.22305702368097083 0.26481808612918484
 0.0848371225850232 0.02723657055839828 0.028711735945925024 -0.04409904493969215 0.22736492395914304 0.28199652299734795 -0.6800833533904938 0.32880614144380305
 -0.6880195391033253 0.4153118422265412 0.23336706781533176 0.24061765190687875 0.23174352843294316 -0.025495089686552792 -0.10420623354197524 0.10013322625016159
 0.2519713167342327 0.23136079325373077 -0.664618091116473 0.4093124330454313 -0.1405844114602916 0.0685244738229258 -0.02396715288058344 0.20324136789917882
64890730000.0 0.04488629093290939 -0.037987337961591594 0.08223125740998696 0.0073149827169362944 -0.6615486326608153 0.3862200998540963 0.21036765232243954 0.27332029545388986
 0.0706521307107875 0.010737859014333408 0.04932057677814641 -0.07364975335406561 0.251067549046157 0.22242400275308968 -0.7077137399698737 0.3614558662219479
 -0.6765960303048509 0.319850039299233 0.17239272763261718 0.33128107466406975 0.07558761018377912 0.008481427795413391 0.04863193889351908 0.08010937651163416
 0.2292698904205308 0.2873991093942132 -0.6967328275837339 0.330155282865869 -0.18140254650316592 0.21909264761838243 0.06830081038282113 0.06543990925086092
64960720000.0 0.08726838909979663 -0.07028443190190306 0.07340206127022426 0.02629105131622134 -0.6483728589278948 0.3220102494277065 0.22899160479842187 0.2538852119592636
 0.06762442700205226 0.02543105421867289 0.009229016475576649 -0.043430812314660776 0.19554423906381876 0.25324794986890503 -0.6553779717565692 0.3338438708583387
 -0.6414676172808874 0.3090057536807562 0.18319817625192755 0.29226859392669163 -0.17837171390821432 0.23785228178692489 -0.009555374729492359 0.2210737642900711
 0.2336010873533756 0.26544146233288446 -0.6313261166651404 0.33559725215183955 -0.03929115635730584 0.21844106547952896 -0.19544816029929163 0.15096798352988358
65030710000.0 0.027358511879449363 -0.0807067198183906 0.07548640859025084 0.034249906189229705 -0.661251162895647 0.33534417091745333 0.22891773538002788 0.2598111050202287
 0.08391080362357699 0.025960065071360026 0.0415940755984106 -0.033205564411556934 0.2106336412084975 0.2959357047163757 -0.6466113619112931 0.35636871954447596
 -0.6392452506224902 0.3214229962317002 0.21809680346556373 0.31383687446097663 -0.05196813262604746 0.27690069607516854 -0.10670480864183536 0.211347761087694
 0.2121583666210141 0.266882980609131 -0.7148257415543829 0.3126474126431227 -0.09780160967814892 0.11747599713592971 0.07332801503678042 0.05933848204867101
65100700000.0 0.04836694614745333 -0.03387527957018757 0.06473707712715891 0.02008789449444221 -0.6834365127275497 0.35045040887616363 0.22876863498296482 0.25560591223665785
 0.06290565418203593 0.0166485009220409 0.06447563866827057 -0.07625133366077745 0.19935864232537967 0.2548964365204282 -0.6666774648008134 0.3638119735669265
 -0.6483140524764647 0.3641487428057249 0.18265012112768048 0.24460378607689778 0.048607874569664644 0.040126109918064104 -0.06063781944759521 0.35318862879357377
 0.1954533913912832 0.29929845536270877 -0.7230611349328411 0.2928229038204537 -0.07297361564083212 0.14120415070895526 -0.05487631688700132 0.15800051725182476
65170690000.0 0.0893072704093177 -0.0969140805399041 0.0697390808267021 0.017438736052696607 -0.6067588216352585 0.3308513682986847 0.2076743482514847 0.18147612964071977
 0.06950731117549032 0.01691535972717726 0.0032738834736090942 -0.04840826899775921 0.20226393974179593 0.3112984320035706 -0.6043570306164607 0.3401431205628286
 -0.6120061090647418 0.364400465689451 0.12941850417978637 0.2668205150918426 -0.2841879121249035 0.21732129504760522 0.04652269719861704 0.37345179110540627
 0.20932407090966185 0.1931854815471432 -0.6805085394769728 0.355712874187348 0.08638130662590841 0.23921087483644501 -0.1080691592152455 0.0057376188164730115
65240680000.0 0.01881858955881428 -0.06526560690860411 0.08115138851860541 0.03473687536697634 -0.6232624502414296 0.3572824379670703 0.19406559618397937 0.23676034897181097
 0.0855407419416637 0.024676060871200403 0.023536784538547732 -0.06444676981553228 0.23450491818150435 0.28905524659998344 -0.6316112332885779 0.36867725033443255
 -0.5959726328266569 0.3202048590846032 0.22044089532332328 0.24519000933983737 -0.0770921239003814 0.08282291383790548 0.032445491365797635 0.3182178039869031
 0.21537873485289136 0.2632612713093682 -0.7249842564532613 0.32511540081281565 -0.015221718194816687 0.22576186965108203 0.07499457051832022 0.058706700845481005
65310670000.0 0.06839957089051235 -0.040395886735817 0.0770159933358494 0.015237690206970633 -0.6478390660837334 0.3539015639096077 0.22367273062632767 0.24656489810942678
 0.07043121672998554 0.017103319297461672 0.03392565725633646 -0.08289372788458854 0.2068453941200332 0.271189694496205 -0.6400620373133208 0.35880130579656855
 -0.6353292597216771 0.35750185230529963 0.17886116650789516 0.3074098901724766 -0.08266334468819565 0.07713041355219184 -0.08824680213556772 0.21411127571005076
 0.25603533511032067 0.24295529728510615 -0.6725621695278784 0.38222376958466037 0.04803963084653481 0.2020749018037462 -0.047540365710022486 0.0004673223155264902
65380660000.0 0.056400490934994774 -0.08611286215164084 0.07637282331174695 0.01284707668703397 -0.6583814233378095 0.30706565872787395 0.27146731011138986 0.26209726864116156
 0.07329074701742799 0.010095892693688617 -0.0012696210924110964 -0.046576484938783774 0.1735330422582778 0.2618754457480947 -0.6327532443031518 0.3843449720354612
 -0.6532524976646905 0.3874058412417602 0.14795373898182915 0.2518950926138826 0.0476777018477819 0.2728777728579228 -0.07193593398057481 0.2413104460714167
 0.26702489055632617 0.22573134865262223 -0.6301924246915895 0.3846046750644629 -0.03083336888432299 0.05478299508977414 0.07388782059064217 -0.11247271890849647
65450650000.0 0.017099006347286613 -0.047965037047903156 0.08118445656040743 0.01761234820725701 -0.6314237485543727 0.34179703706680953 0.22314216371959214 0.24912831633266397
 0.0759788710315451 0.010229779652653226 0.04123442611235602 -0.04176662085247289 0.24272619087228037 0.3058064075752158 -0.6438040977307256 0.3532512654713248
 -0.6704293348705633 0.3368522245877937 0.201730411771959 0.26197951841616857 0.13826490231161967 0.021071178475268675 -0.11640428463091576 0.11424170550628227
 0.22238976223085238 0.26120195768356813 -0.5971419183709141 0.4021649854915148 0.029498472630121828 0.10351946512179037 -0.012244659694948963 0.12733943505570433
65520640000.0 0.06278687491247782 -0.05479463967234422 0.07543860953261099 0.011705080252025216 -0.6306910563903164 0.3420255135970568 0.23951371770911387 0.2870731805376811
 0.07388293406408382 0.014639051155264078 0.024913253716245063 -0.07487572857299858 0.21598322529565353 0.25469670018209467 -0.6487642345953879 0.34993285345053193
 -0.6371703862109596 0.34477835636946197 0.2371384117567228 0.2676886309949442 -0.09265774091678108 0.287151455233517 0.011284955833568236 0.1942243436408136
 0.21250769248728524 0.2893329026728197 -0.6127783484144028 0.3888539613804141 0.20761720802744216 0.18549152304715016 -0.1255391851999417 0.12109889313861365
65590630000.0 0.06369278158548226 -0.08441877877332911 0.07970200440562755 0.01097756456226071 -0.6483922344452323 0.35636528466173445 0.24982117569024376 0.2524701272960182
 0.07586540647915499 0.017121316273173294 0.01080726590855262 -0.059821606994948436 0.2337544837694356 0.26578932117710485 -0.6634644322323853 0.37245287764690055
 -0.603935379502408 0.38669483783783126 0.26874925310116604 0.33670976574828915 0.002848199684454457 0.1336367436569137 0.31748302459266486 0.24531000004427767
 0.2781758670727071 0.24914975117005933 -0.6415940063427717 0.3594952758876538 0.09305705313970275 0.18350786062899455 -0.03399381931651444 0.1301800882776967
65660620000.0 0.023317790324981595 -0.047721536557308396 0.06454675145483295 0.006310373240083293 -0.6324135248482843 0.35001885441793473 0.20458816488805107 0.26241376920423193
 0.06585338579623592 0.008821344399684246 0.03848384985823103 -0.060704008311187094 0.21902262674178657 0.2774752908602415 -0.6521002318188036 0.336627358234404
 -0.6206597982758973 0.39274095054952934 0.22155419915300498 0.2968259524845892 -0.10627246916150866 0.10762728551387404 0.05880228733381602 0.23948104387445412
 0.21764858839003812 0.2810812370831068 -0.6336587086426454 0.3663283273151008 0.17576607452649695 0.22683576893702434 -0.21060196895858058 0.14746672958997703
65730610000.0 0.04759626300056743 -0.045491701619415736 0.06923348893095295 -0.0006439037271376551 -0.6465983831041535 0.389482263638045 0.23600158334346558 0.24298526782937957
 0.06147753180166552 0.0014092728866317646 0.02683970878614483 -0.05998715648981526 0.22504533034798865 0.28173308819275394 -0.63817141835113 0.35913194125734466
 -0.6045341812012482 0.3947948851477686 0.18869190625515148 0.26796573002040713 -0.11712434334302933 0.19531583563672186 0.10736502724350112 0.36401243427358526
 0.2515534372036511 0.25042823018029575 -0.6136999088773156 0.3226821316016745 0.08722815719755327 0.3539007742218264 0.050103517827095476 0.0002585148270467755
65800600000.0 0.05059207932432654 -0.07754373255034164 0.069521365605383 0.0035032917979374153 -0.6304938805353273 0.3874532704415916 0.2441343342833199 0.26989161698237274
 0.062027520942248504 -0.0013839674069512074 0.014041643616505239 -0.05371376356362104 0.2317724122665395 0.265375412936297 -0.6287675585867498 0.38924191626111276
 -0.6250656122637589 0.338698161270535 0.23161136287595124 0.210287567414296 0.19806925494554922 0.10280280284598903 0.11528629005616908 0.2834772196027357
 0.24814000373249795 0.28108514114089045 -0.6062785345849205 0.43586876036436245 -0.02038456280972783 0.25865086086509936 0.05874634983756334 0.1725178067564573
65870590000.0 0.02355679401089275 -0.05423092794459991 0.0731849256789851 0.003319802248118406 -0.6455983753152509 0.36280720969334496 0.22040857620498008 0.24904878821058185
 0.07009724500789385 0.0059550176823634044 0.030609910754599453 -0.07801120209606982 0.2491319821061484 0.27459582172368596 -0.6684155409936844 0.3873593995524751
 -0.6138417617937959 0.3652090764260643 0.21262716283893482 0.3081751630386967 -0.04066811725480833 0.11816305240146807 0.01097528632262792 0.06357433208093868
 0.25946583395744893 0.266921928774802 -0.7172368581175739 0.3575245225837074 -0.045535493332961176 0.06873978571796163 0.02053357158038047 0.30323833716327175
65940580000.0 0.06087382698973504 -0.03944897428894088 0.061152756878830726 0.0029971008061252017 -0.637166673138657 0.33420937264082967 0.23794126200096047 0.2659185658759597
 0.05671325059507681 -0.0008688541472600834 0.038001066368467236 -0.058602256955531576 0.23340648650198492 0.279621576711184 -0.6468868821150002 0.3725280207359757
 -0.5873346162974586 0.43092745662957826 0.24506820043452854 0.23478257389206234 -0.08561967481678726 0.2465504653545415 -0.14567723001638735 -0.04544649196722183
 0.2291777459764017 0.18842013836368823 -0.6099321869760531 0.39064562457809937 -0.08076014669248789 0.11346390984856762 -0.035617650335176186 0.05582225843180756
66010570000.0 0.051596377391100685 -0.0803666863134242 0.06496031124637006 -0.003333017414722615 -0.6231453874563462 0.3601923654801105 0.23383769261338677 0.249470148700854
 0.06438551692492099 0.0012612743131366635 0.020845053604293652 -0.06062531356251329 0.22301574248317144 0.25598594661836993 -0.6290344518639621 0.3655822772548827
 -0.6217706776151128 0.3830635931692381 0.241664598428297 0.2517954439447452 -0.2313220780673286 0.06597502264220773 -0.2060183443217722 0.010539903103099853
 0.24693661873689474 0.2783538448931164 -0.6618628603921429 0.3744990636449866 -0.08497288979017699 0.23328751993634625 -0.2974746428821833 0.11956293194581036
66080560000.0 0.019294342117123397 -0.058182195661050665 0.07287744259619544 0.002631209577037934 -0.6500293109045134 0.3500852157359573 0.228813346964448 0.24139784732898137
 0.06916218867174731 -0.0038065124976281854 0.017337127526169584 -0.05692515724514789 0.2605897374496516 0.25460743595841473 -0.6412926281778097 0.3971102036776414
 -0.621732729827135 0.3570473806358012 0.25807305600851493 0.25064916575557494 0.07184670334029669 0.06470457348667855 -0.02588962267753404 0.10126842955210852
 0.22262593566335748 0.25389019243890326 -0.6229034923372326 0.39249256619383627 -0.08544019548540346 0.11742025766208661 -0.0026851531058122388 0.2820897628711781
66150550000.0 0.04595111266122619 -0.04711668592565924 0.05800302212225269 -0.004401585681380523 -0.6695460712166323 0.36905297334502934 0.22998099327715016 0.2740485211584108
 0.05861828364779388 -0.0066107912506030535 0.03611669583124476 -0.06660475742249845 0.2361972012109298 0.24273869916950488 -0.6452200590753854 0.36041068216518957
 -0.6658680865210299 0.3451915683123775 0.20692315657655272 0.23267762349806456 0.06614921269857456 0.12458671586595943 0.07375971978453903 0.010481497329097724
 0.28495607702107434 0.2332970563669008 -0.6554181133578065 0.3723399006557475 -0.14395575738068436 0.20034227579875322 -0.13445616072044062 0.178224106820548
66220540000.0 0.04975686426328265 -0.09031307266489827 0.07503351021270915 0.00234081794120865 -0.6337130551577947 0.3685026448936067 0.24076090984174353 0.2637922829320261
 0.0645231638444796 -0.007175232852545516 0.01799525910176724 -0.06592925452183009 0.23647465889543487 0.2840246216920014 -0.6120047479880536 0.3730753840475911
 -0.6486594170339001 0.37508658246349336 0.18691200137678968 0.2997180726651692 -0.1690682091809965 0.0752192192973086 -0.3030039619252759 0.1187233824642345
 0.2775957151634707 0.22515661083483618 -0.6353292047873217 0.465907440020338 -0.036873822010770566 0.32936803058439323 -0.08809383157047036 0.1364525825902022
66290530000.0 0.015897294117875136 -0.057283024013956886 0.05477804149851343 -0.005882678929075062 -0.6239293901253937 0.3832887322389535 0.22810629192489185 0.26015272554102753
 0.06352291035802156 -0.0006624245235194812 0.04089003388722458 -0.05248323694886615 0.22417699048107378 0.2531566453602673 -0.6507765226443111 0.38524232702840433
 -0.6714759824519656 0.3648503433641637 0.28780219692228676 0.23363597335418684 -0.16124881747515526 0.2089095177269452 -0.20912957700557225 -0.27515388773919
 0.267383418261658 0.2603663631773684 -0.6623519837379466 0.3926944028771018 -0.0382707758646014 0.5104135782500979 -0.10958189083744437 0.3254431273251522
66360520000.0 0.05554400008828566 -0.04015657133383726 0.051543977188183904 -0.009482456260783896 -0.6267561183974714 0.3722604035029118 0.25858813360143634 0.25814711752433633
 0.058776456624057484 -0.00293993122277719 0.026981964806893112 -0.07449326368780494 0.23762179766129482 0.26671416730668107 -0.6433726167056485 0.3892628560923955
 -0.6403037054152979 0.38766868686704015 0.24188203855340043 0.3287137502339066 -0.04790942871960173 0.05103656402711449 -0.20157599859192865 0.2108613295948667
 0.28305225928231875 0.2507211432754621 -0.6237092652061238 0.3562366323759406 0.030050915324203162 0.5128966247828299 -0.1253984802209362 0.13231066939660518
66430510000.0 0.052804293962370547 -0.08827565734712434 0.043844970455538076 -0.00842031687915582 -0.6068118195195207 0.3745405673643265 0.1857792597815912 0.25297564061773536
 0.05352754591594973 -0.00546790936923901 0.010706830605457057 -0.06377777235298558 0.2380199304737967 0.2711613927091609 -0.6167256325175958 0.4048773135960992
 -0.6495250640879039 0.3264200235630583 0.27795639125616084 0.21332298333846686 -0.149866514131466 0.028606187426475985 0.11691979502876994 -0.1372370224546374
 0.2129368106876884 0.2378860790561643 -0.6424544057221747 0.4772366221071453 -0.07176334086772869 0.5572493588853605 -0.10449015414239565 0.13913797652468893
66500500000.0 0.004952431647887538 -0.055244032739630064 0.06145475029040098 -0.015150735461630139 -0.614584553389135 0.36437265974667793 0.2279459390219084 0.2543132865843254
 0.05385618146262045 -0.006141342364176679 0.03185258871072516 -0.04143874015972204 0.2623748083984474 0.23560671108097658 -0.6462726497890049 0.41205258438559705
 -0.6454032478598336 0.28791506115801097 0.3055114203292534 0.30592900200191625 -0.10152879892277966 0.14595682722639697 0.03744054149260505 0.10378028506034659
 0.25184020514668015 0.19487553690132842 -0.5409867418271767 0.3596008807977153 0.05605084097901713 0.3049587295938842 0.07236682022614437 0.12626171774606082
66570490000.0 0.04866186167917273 -0.05321188092235845 0.05296947429609768 -0.007248629479230792 -0.6239819910372016 0.4028568626491659 0.23963471182746648 0.2500602063782207
 0.05115911130593576 -0.01530456567681031 0.02442337183835649 -0.08312011470530557 0.28203813702225267 0.26259925555138947 -0.6165541365573218 0.38705615262453374
 -0.6205026173755352 0.35504455472952423 0.19284189398243268 0.264239158909852 -0.10674058021727893 0.17576535675053107 -0.19188448821536205 -0.0663064706235077
 0.19821533656814577 0.22986589954589018 -0.5770705259324337 0.2769504084304502 -0.020877880403308423 0.3285002871639322 -0.08928855657824102 0.20929056557955839
66640480000.0 0.026759025080600254 -0.09623934758716796 0.0449213841393917 -0.012611385551842758 -0.6080471146434889 0.39951712977534387 0.25250945373192063 0.2681137997907028
 0.051569505769523453 -0.010382145649680544 -0.011123051574639338 -0.053433097730108986 0.253649298205863 0.25655423108672004 -0.6201438370543741 0.4022630906443553
 -0.5702244434714244 0.38097868290449016 0.3026011347329847 0.2278959215389095 -0.16837182679599408 -0.00497598237346287 -0.033784936688867326 0.17964024776657359
 0.26458252906305085 0.2224126530385774 -0.5912048300442315 0.38350761314763776 0.10727047706969509 0.32669118625185367 0.0041684035506275524 -0.012144483330269972
66710470000.0 0.00863418799131531 -0.06686143862096058 0.05480623517512643 -0.0020379110509010623 -0.6290815419424954 0.3841557925457537 0.22562115560710896 0.2993730747115067
 0.046331838044780076 -0.012047455279251404 0.057479988494894295 -0.05488770352945045 0.22452695710807521 0.2500006949633818 -0.649593792733599 0.4364743546433657
 -0.5314632494179911 0.33868637226987475 0.18370869548053184 0.18830832086057675 -0.03662046202672599 0.16998525801579759 -0.1040354183368736 -0.04533804715975725
 0.24661831419909477 0.2671721789639184 -0.5970052014247335 0.4011148877165182 0.3037796401231988 0.2500308283023446 -0.13292052157538187 0.02043966401653776
66780460000.0 0.05295697542491542 -0.05154374577301497 0.04161888025386158 -0.018531407703983236 -0.6410031849830619 0.4023125953039234 0.24258413307439405 0.26606733590249143
 0.04407041584136036 -0.02016441541664708 -0.010314520814468077 -0.08938874119008854 0.2387065197642902 0.25377424648659896 -0.6450083714203162 0.3819189562727564
 -0.5946311851214017 0.4286138918066265 0.19626586738229132 0.258064855892049 -0.244515702092362 -0.11138172078036518 -0.16879123663008624 0.09803308419362966
 0.32844870159257517 0.19113300823064452 -0.6634667547206705 0.44172486239527065 0.23299408850275746 0.27357958835315344 -0.20619315870961388 -0.07377993353006473
66850450000.0 0.02198083318878292 -0.10088104491119666 0.04826879876363144 0.001515697160292729 -0.6588513786962905 0.3904387131527133 0.19587438054532266 0.2146190205029747
 0.04005634451875757 -0.005569658119525417 0.01905827498150556 -0.03277887686751598 0.2520046600699525 0.2544356830626374 -0.6258850195894899 0.3950903876672695
 -0.5864366426960085 0.4101272436033812 0.19736940380084897 0.21153068376943437 -0.05949370833697759 0.044011620378985664 0.2117242275267686 0.1639283245456499
 0.20939378068252082 0.2578306012296568 -0.7179430141886897 0.2958693142164648 -0.1591191169255132 0.39011383971476277 -0.276765820448815 0.15918533095372864
66920440000.0 0.015226125555227685 -0.03915405852202444 0.04189633223407169 -0.005810140558956756 -0.6372724216595298 0.3638225724007733 0.2143119374321122 0.20833139539994777
 0.03429719504915496 -0.013189551544066895 0.05415245499742399 -0.07174248382902636 0.269648051563637 0.236700466343694 -0.5789137358041528 0.4169362289488535
 -0.5960941233393174 0.3537983087556745 0.18930515802907885 0.24598343734793107 -0.030677707337745094 0.1258297419972047 0.27606185735466815 0.2508977566008837
 0.2676551620848566 0.31497371185314976 -0.709007306581391 0.31073077244154107 -0.18952097336795612 0.3526979669576731 -0.027747355360523727 0.011610327562169804
66990430000.0 0.04632218110308766 -0.0825326333277203 0.06258284198982929 -0.014248363992708927 -0.6151727997458851 0.3946974332698404 0.19729563171191114 0.26374586897886554
 0.0665163376475188 -0.025462845476280076 0.02478417399400838 -0.09691523458411105 0.31535055541848883 0.23068763245618915 -0.5733115388336154 0.4261250343118899
 -0.586373394409834 0.4249550450597507 0.22864310007845826 0.24590017041450662 -0.0018437917628573344 0.23036664111012015 0.07654192502803263 0.23632088731469722
 0.16077195878466083 0.3709680713582112 -0.7859673376126938 0.3984490851856442 -0.06757303810721957 0.41670300415290706 0.35657375974539773 0.1586895339276155
67060420000.0 -0.018696826351942964 -0.11984480404963793 0.0422657481066803 -0.01895473101622012 -0.6391786328184534 0.4633413374758219 0.34258061148672836 0.27956146563716316
 0.05262158763401002 -0.01376065457371061 0.007225631063377534 -0.036588820653187415 0.2303425401761728 0.24010601657825906 -0.6513246612074852 0.3664366642436348
 -0.5839559593952168 0.46684880314494154 0.26907191807624165 0.25633206783292745 0.1227686497351168 -0.09283593010111203 -0.2543693383653816 0.24315707582254711
 0.3181479859549778 0.279815505435859 -0.6325619099324535 0.497662736229362 -0.16679284505512557 0.14366313679346449 -0.22244824522587794 0.210964937302436
67130410000.0 0.024380965276120565 -0.06802642261516212 0.0457509730541339 -0.016776676248454463 -0.6029174003503864 0.46290234896216803 0.2628594331014135 0.2980188475191426
 0.04380216855792651 -0.01267346162854152 0.06420688784280382 -0.0899282569815077 0.26399310976934265 0.20751269644177875 -0.5878871766430611 0.3300472261037648
 -0.5807401463494599 0.3934922655296717 0.14713748956173187 0.29335026408182463 -0.027175430194127288 0.04847678617678994 0.06679006938856581 0.13653049864671113
 0.2164832209440712 0.25623289008013395 -0.608856495370476 0.36143348538104525 -0.1710988384512968 0.06732346940873966 -0.11799968375539441 0.0024377448413303044
67200400000.0 0.04558280425329854 -0.07820945053846383 0.030693901088739647 -0.04131017961873405 -0.5897692326286857 0.4002682853279977 0.38435223700457544 0.3186732628653256
 0.04738428532435029 -0.03205034425810629 -0.02783298056848963 -0.11214465521261283 0.22301779323972834 0.19626106451754224 -0.6133702285361035 0.44805827702532347
 -0.6679291757066882 0.34913149919402764 0.280558397405755 0.2948482368292212 -0.01843307797600827 0.1751981221475791 -0.23403266673948797 0.1577079017960705
 0.3929619320577936 0.2730280903566591 -0.5905501626906247 0.514339016704832 -0.24226158692747482 0.22213734727957365 -0.16754963130589584 -0.01850949133815886
67270390000.0 0.0017980434761278384 -0.08178922257861033 0.03613597655487417 -0.003914014748011537 -0.5996571049002442 0.3800315301217363 0.27919790771197706 0.29940970050855886
 0.04691271905117453 -0.022975349614928066 0.03504014315048736 -0.05528615258414627 0.28049487463985406 0.23531551436837136 -0.6105489835664055 0.4239871157808058
 -0.5935551496362141 0.4152676019397348 0.2765086305864963 0.111687716312314 -0.20803049580861946 0.12494100425606938 -0.19376634515128124 0.06989620648056746
 0.22985115654011115 0.35342500382209496 -0.5816251262543197 0.5334451156817906 -0.042207375658372744 0.13192082615288706 0.050717108359377865 -0.22347951351875456
67340380000.0 0.03504327867624193 -0.05194212192793279 0.029843141501309668 -0.012080508314604645 -0.554885092685667 0.3891628867426455 0.3066539776671015 0.2532058326429711
 0.03963466883847528 -0.01833910361192157 0.058692029389201684 -0.10021807814347623 0.21927951985120347 0.20912751369706814 -0.5884028139557234 0.388739451199551
 -0.5911846039084852 0.3294682089864378 0.2700989436065388 0.19780368257419037 -0.21966592728674703 0.3146168437119671 -0.27024500734740364 -0.04246808705737133
 0.21422381795215298 0.279078022004208 -0.5728382311714637 0.5076427765996983 -0.07110080714717125 -0.033049458430796375 -0.21315238632782083 0.07378146868818626
67410370000.0 0.029492093368736334 -0.09451115628078871 0.060176096661525506 -0.02433579025790264 -0.5983409250402164 0.4231913481014315 0.31053589041721674 0.22749163849107862
 0.04299888073214827 -0.0008820183843526436 0.0055525694436838685 -0.05788291928348975 0.24170493903291632 0.2761318468248248 -0.6178739834584567 0.45002153440667836
 -0.6230629463181433 0.4262560217526344 0.24241937886326387 0.3671399857192326 0.03580322444256504 0.14578834492847081 0.11458902376771754 -0.2128987584186633
 0.35016992156416465 0.23062506264042862 -0.746321785861256 0.25961051170506494 -0.15122615638120787 -0.09154902357592233 0.036154372155517894 -0.008302009866894824
67480360000.0 -0.018738372272272933 -0.0412826542220494 0.06508749750451101 -0.025124964055361767 -0.6115837206262014 0.4288036801535136 0.1932149498470043 0.18756377452576858
 0.04988864540900419 -0.023312609426536682 0.023496423015705994 -0.012553706468002305 0.27277890117906994 0.3032939468194539 -0.6012626276893627 0.3948640967147598
 -0.5594994716921611 0.37236147828123456 0.162981333312716 0.33840605815093006 -0.06569175811970467 -0.09587540693537866 0.10614019388175534 0.08455737357933808
 0.2417365877302732 0.27237585488561566 -0.696063025324158 0.23424162148322372 0.1463664162322841 0.05452939599698622 -0.13709012409807203 0.13500151903892751
67550350000.0 0.05197293736070126 -0.08161913944790307 0.03470228653878653 -0.021736712019179646 -0.5995829021242353 0.4126800108275236 0.22879660098363605 0.21410916576108732
 0.044571851962156905 -0.023215977192883954 0.05314571161396182 -0.09136118649403836 0.2893834651687702 0.24184690415144505 -0.5869664444397223 0.4618306955273668
 -0.5801822045218163 0.3717800606019004 0.2786297203515155 0.13703734703849277 -0.1410629971207303 0.23737421348076548 0.12215411894421255 0.056737948609890995
 0.30118766006558656 0.24850640152784237 -0.6919112193104308 0.3982941510786805 -0.047120630400634626 0.1323513015020195 -0.14292801325429533 0.16835733834945257
67620340000.0 -0.025182010724320716 -0.10940364885977495 0.024911552212975373 -0.025269005020039533 -0.5917113405110053 0.44080068861883415 0.28872821463334647 0.2248563638288306
 0.03523756554320838 -0.029327255251285152 -0.05559097751456044 -0.1151118256062208 0.2697100081784014 0.2897266636881875 -0.5944799267203155 0.45122501214654775
 -0.5355821127983192 0.4882280760104942 0.3168507496862422 0.3597434166318507 0.0011191324297187112 -0.12772129947356023 -0.01857880657239169 0.07900210474649766
 0.2519926747893153 0.17114033292493525 -0.6279339167068403 0.6065603149931877 0.1435420627843165 0.2077467546750259 -0.08380569590036104 0.12909137780533275
67690330000.0 0.022676069056423005 -0.04640147326852493 0.03687443365008777 -0.019833133276442046 -0.5744211345501667 0.41694631677270144 0.2518046954931032 0.2088206879465319
 0.04105023735920135 -0.027741022328633614 0.03710776538584573 -0.05652126587260615 0.2716634416424124 0.27804028084698407 -0.5481405841676643 0.43272916159368024
 -0.5646950186564549 0.3453030704165906 0.2941604886264285 0.255907096300651 0.04851115565123556 0.13586765023107 -0.08814482150079535 0.3606106869547781
 0.25293146077451006 0.17160315154083217 -0.461528513984575 0.48143724974560337 -0.10893406298112243 -0.019464926975390817 -0.2708976314648562 -0.019408678998268914
67760320000.0 0.027896790739888842 -0.11653624533602178 0.01972789382889246 -0.03603990236126227 -0.5679380934624668 0.44512029989400587 0.3047124950923827 0.21905605532294606
 0.017558426567814145 -0.04549807515430074 0.052069970470002364 -0.10902139298490669 0.2486724092669685 0.2589811935817971 -0.6067309566148156 0.4397020656662456
 -0.6907625470193833 0.5224613066503082 0.33166241474733316 0.30531923205971684 0.06489294480266712 0.12559344976971742 0.09072789482353966 0.34739290503696535
 0.22786454954411925 0.268240375315646 -0.6411073696949441 0.46697584737317555 0.1219301767724 0.06182360662748822 -0.061095422037734874 0.17829076891003418
67830310000.0 0.0021743817020912393 -0.08662948656994118 0.043538875942344575 -0.05121095182900811 -0.5964342989771833 0.39492096971477925 0.19448871937661472 0.2617870617305703
 0.016274364793016388 -0.049376628170315226 -0.026181529589983505 -0.09436853021969836 0.33983748316196466 0.22466689477767676 -0.6233632486204012 0.38165636315290546
 -0.6282397375371327 0.41339563072962116 0.22401408402949455 0.26858378075768957 0.006805155875804378 -0.045182961184394875 -0.20242582108009036 0.5577833874411944
 0.2613019076210085 0.2438452091570854 -0.5993419750958369 0.4753426521141189 -0.04901309702428213 0.06549499288754886 -0.23265735709969115 0.35472235633020144
67900300000.0 0.01049526114778104 -0.07075772796625716 0.030915081264521246 -0.03714386923639247 -0.5358999045284265 0.42849742255984735 0.23821202515305717 0.19859773685193363
 0.04859785409347848 -0.027267226643066498 0.04332438830303761 -0.02482261579500311 0.2884317966635874 0.2293489659819602 -0.5825285291607453 0.4383039771737242
 -0.5942384482409158 0.42881166941647847 0.3465221487733843 0.33314470777178296 -0.17652391677517418 -0.0219587453246987 -0.11392982169124617 0.31119322750090034
 0.22976652247729942 0.16654994559368938 -0.6250506314341161 0.4437539222334011 0.03797180417896232 0.3856825651585438 0.1080426134958948 0.00867497679030316
67970290000.0 0.027314476910073115 -0.10661226101309844 0.02564399835031512 -0.022980177775294288 -0.5780871049657911 0.4613074464399762 0.32313840605771077 0.2336542377105279
 0.022174132261264135 -0.029827520442116284 0.04030603893853742 -0.12964500779073793 0.2687183250234784 0.24451091865608965 -0.5918680622688138 0.4498436190238694
 -0.5510627216616074 0.42463289041064733 0.2739309997317345 0.3064623330363266 -0.32769221634815066 0.1711422502192385 -0.359298981482609 -0.05282792394257948
 0.3782955165673328 0.26469787236516795 -0.6921523550780523 0.34874171729554787 -0.002873623309047452 0.11305004524990016 0.10567960241395091 0.07391599024799693
68040280000.0 -0.007333739790506235 -0.0807932626945456 0.02125064663173716 -0.028794352014421563 -0.5897574900571868 0.4183478214605628 0.2936266937065472 0.2585078426940981
 0.005984360298042855 -0.040260441850702496 -0.0432311495990275 -0.07162212915995801 0.2556798823347353 0.18787037670481566 -0.5606909164361784 0.45467892818479694
 -0.5798741681268841 0.42921432330065956 0.2400645231806329 0.20704922283193314 -0.038223377574821575 0.14610186450096618 0.013781404522524786 0.2724206238489137
 0.3479338914584624 0.37403730261768625 -0.7036754199078089 0.5207779524679297 -0.18076040113040537 0.2167929807291896 -0.2118759817660391 0.2651238274186594
68110270000.0 0.027236837403556324 -0.07539071111421382 0.03343509419565716 -0.0657123572972443 -0.6108612749244396 0.34733628233225705 0.2784672739932373 0.29037487232722997
 0.04174881833580964 -0.06516052447565705 0.02887594980730348 -0.0773288683700747 0.2638984173885409 0.2307213333101348 -0.5797335184482696 0.39416697384977356
 -0.4727353740185684 0.36132367750346367 0.3010806248967838 0.1815075011851909 -0.18174812095080395 0.22432333631321258 0.1269476082467088 0.2331674948506916
 0.30709823278068554 0.28020423928504706 -0.7455977887830813 0.4364099413587866 -0.020907422792054556 0.22270739094699604 -0.1425097209547434 -0.10185661150999342
68180260000.0 -0.01729050837145816 -0.1190761069759587 0.04511518287050356 -0.03568218396604826 -0.5676230864950033 0.3968592616703832 0.33670164185455614 0.1790131167941287
 0.0421894217787888 -0.041661801034757605 0.019786951887911203 -0.11041092651949784 0.2215228545523995 0.28673217995760586 -0.5802898197607717 0.4570646804567752
 -0.5276194532794118 0.4742459461724372 0.17170681699822557 0.23423238440851027 -0.0038350532188060936 0.22743288757934751 -0.07741362223691725 0.21971038884375568
 0.22920637287690945 0.2027075170067341 -0.7474325725944557 0.2075792550900632 0.13115700243401707 0.0723626281221753 -0.22284035218578488 0.07263275267653833
68250250000.0 0.005046899435847491 -0.05181501060862657 -0.002872378903235308 -0.051197655632399454 -0.5770097103601699 0.42700057183423823 0.30897468476517226 0.1933958147967828
 0.0024826510419613678 -0.046260677985709625 0.04556640484163629 -0.11936018523395057 0.26331268066530283 0.2630913541722478 -0.5195540262232867 0.48191299072072036
 -0.5375481456739912 0.4895532330330311 0.30505243381929775 -0.1365652481570191 0.06142527682459849 0.07334596491762398 -0.23429205475315004 0.2914047125645424
 0.2694810462336969 0.42806647961140093 -0.9926999648277592 0.32889815593779437 -0.246742269581204 0.19338443593432067 0.09455019886858657 0.013028759091472223
68320240000.0 0.025396823298702326 -0.08786036572836696 0.020257379013840837 -0.038898331258858235 -0.5276109847244489 0.48240020749974233 0.30595711164831685 0.24470650927154605
 0.012291595494924588 -0.049976663202669344 0.004278405493971296 -0.09171258821620734 0.25739016701479706 0.2454707459862625 -0.620835363221196 0.47822671053871124
 -0.6014563617890157 0.46915907894182013 0.5021819029785968 0.24325921079763774 0.21156735308763283 0.22558794622693878 -0.09038325364118112 0.08194332010499172
 0.2154307145916806 0.2670425698725621 -0.5400174989590985 0.4709395909832334 0.1801982247464541 0.2609186389364663 0.10776767601550752 0.4063601725773395
68390230000.0 -0.021924807353944753 -0.08889604127955227 0.042930939126127124 -0.04646819436851901 -0.5604630730842085 0.4358437674729945 0.2965686342709389 0.20045910513562248
 0.03785046222019717 -0.06007337460654343 -0.009465448286895835 -0.13611703376137124 0.2918172691506641 0.32585686245230183 -0.632808064469677 0.4374111630322368
 -0.6436755126731929 0.43903134209301775 0.015103748910948294 0.23247155466476171 0.2612760366208044 0.05087035442492564 -0.027798756929146504 -0.07131520282206257
 0.310146720746028 0.2234995282485392 -0.5435555231739527 0.5724617544586628 -0.12814357241713575 0.4140315064381696 0.18911933790174162 0.6964735449687249
68460220000.0 0.012002000755946611 -0.0571265030336756 0.026711053134253735 -0.03917550169503677 -0.6239768976124042 0.3903175599940648 0.28957035362386746 0.2467747683608382
 0.028328293328341067 -0.04532267006864022 0.004166460466740386 -0.08764928559330733 0.29010144331587895 0.2862101394721507 -0.657222715134633 0.5243460693674676
 -0.43658687805092644 0.4210610602932228 0.2690766568513047 0.2464176188056695 0.3550232776033329 0.3558960485290018 -0.09448834512650423 -0.0942278118441783
 0.292442269660477 0.17013468255204475 -0.5339209901482125 0.477583394933112 0.0020539433194732195 0.2097319888436061 0.024824119110358322 0.41609431375531786
68530210000.0 0.015940303837734923 -0.09665248350605153 0.014210129162643236 -0.049197501131046865 -0.5333203122414191 0.43396197521256114 0.23490136115557034 0.19838345706274985
 0.020917870925240518 -0.048785060108861314 0.05908927290998815 -0.03830665083494578 0.2647398747521135 0.22563440467556892 -0.4707297301467034 0.35188949965338634
 -0.698392319600291 0.44065955393142714 0.2622760830710459 0.34226819900012356 -0.06676792567882532 -0.12145392076299225 -0.1760017003684934 0.33018202008035225
 0.25452108032896076 0.1558299697125854 -0.27902645596531017 0.24068350605022423 0.02452048107151039 0.22899680777858789 -0.3239914158030382 0.2028000035909299
68600200000.0 -0.0051640469317399355 -0.03216372415413795 0.04684805860383813 -0.030331870269920222 -0.5671297364643333 0.4227193185370857 0.3218245058139855 0.2369077971219476
 0.013105208760379577 -0.04536272395277175 0.006839121827152728 -0.0390188711153264 0.24750586769404975 0.23201013248051086 -0.5986373590441596 0.45552120994825634
 -0.5672674735021563 0.3979904326026264 0.326599068130482 0.11792041818396924 -0.09191605846822887 -0.21585947559455906 0.01767745717560035 0.26536246431994875
 0.2393574138902684 0.26286569501372187 -0.5470630836708067 0.46920123080718135 0.0946275344741181 0.23076523315307534 -0.2401506324598361 -0.07324637406494103
68670190000.0 0.05837364251826954 -0.05340878806001953 0.04584965010387178 -0.07581315874433296 -0.5880763007488942 0.412934449927726 0.27395014625324876 0.2874464609818017
 0.02899737141741006 -0.06467178322603499 0.004648973675202328 -0.08493082391737901 0.28268988125042205 0.1747243346115386 -0.5268259000784761 0.5162285594598346
 -0.6997547090770982 0.36219638341160554 0.33104552272634974 0.1293871889575842 0.40304358789882816 0.14882762488748416 0.03400656766983923 0.1992680437205081
 0.33400454907244725 0.17053429683700572 -0.4262486242242514 0.45317902201202426 0.011696372729558209 -0.05598196035024264 0.18396948652007367 0.3397383160907464
68740180000.0 0.034450630055291136 -0.08683510479960824 0.01829959662904272 -0.05924515944124677 -0.5616222124864096 0.47386203593889376 0.3254229625417207 0.3187531551808292
 0.021023434732604134 -0.057145346800803645 0.023176554214848596 -0.05562707986939307 0.26680285793536057 0.14146105183761573 -0.5626736953798365 0.464446300073761
 -0.4593086326158882 0.3765505995466617 0.19930639658521562 0.15281621005478702 0.04820731309276559 0.19318435459436104 -0.1263426450866842 -0.1381830536765206
 0.2630741091274854 0.2900844296277936 -0.4425985989446617 0.40955674383082424 -0.12236690478464776 -0.008722425912970578 0.022640094428414075 0.29509071499666656
68810170000.0 -0.003545180825510047 -0.06577473146281088 -0.008305535432792338 -0.052054051507948555 -0.5679577462319342 0.4780175343270967 0.35313630634207 0.19833507934513442
 0.0039218523834441054 -0.04536118081599069 0.009312832804741964 -0.03494273689203287 0.3206437886530811 0.208549938239881 -0.5805937988754782 0.6038828868625886
 -0.5234134609160305 0.46583662762342953 0.26319070186640264 0.48938303032684854 0.10489800385774475 0.09548886893407232 -0.4752549444062763 0.3066379225904792
 0.28440191932839165 0.2332489032332968 -0.7746327698887773 0.4236774145090652 -0.16718750861727547 0.07081988621944457 0.22184672662343535 0.4457783976367068
68880160000.0 0.05774944606875894 -0.11028605412598859 -0.005263767803709117 -0.04359356793615755 -0.5560486670110034 0.48566551714827444 0.3557701940023157 0.24779909152816795
 0.0033631208010107667 -0.06004194884625467 0.0034124638542100748 -0.1577009636076399 0.2772906595053744 0.18176242646569984 -0.5435402205434369 0.4207931123610067
 -0.6484921002254048 0.4956841194064821 0.320442894988986 0.06233004387834132 0.034295822114876424 -0.06667808432717677 -0.20233672024413116 0.1558489448438807
 0.2472715583022856 0.2926762040898538 -0.7535899040031615 0.3527571341074969 -0.06408185726398066 -0.09420160929567102 -0.24144764973136834 0.22553361945848108
68950150000.0 -0.10795606748989357 -0.1357971987223947 0.00236325351526534 -0.05608371498033089 -0.5020223222564951 0.4205037172612745 0.2522570415300226 0.212979545564457
 0.00029116707070387277 -0.07693135636926915 -0.06869551466161537 -0.0846393180617691 0.35058337314819243 0.17257544618930026 -0.5295749422207777 0.49383316682382955
 -0.4434600307056641 0.45639752351734136 0.1982309881099373 0.18511364995830454 -0.3160174984037474 0.1633903866642369 -0.05105148778951836 0.27917292881057043
 0.18897407005544867 0.1056250323980078 -0.7514342145448185 0.387543548289855 -0.0676065984953872 0.004193626220336457 -0.0007830343115730689 0.06005464256263178
69020140000.0 -0.0022951200169576812 -0.026284434179376575 0.012535906257420272 -0.06399589981435834 -0.47916606948186347 0.43815718950109334 0.34817132964327613 0.18108258448169232
 -0.00984208468828465 -0.03881804061529028 0.028846340956162543 -0.017960295652383943 0.25652402789978074 0.21043146113444544 -0.5363267100669129 0.5112656258023947
 -0.5318019658933837 0.2291346481558371 0.20899223408567663 0.1508920915250645 0.39126246892263933 0.45602738853817515 0.04850000138634742 0.1399373612382801
 0.27752556865478717 0.29417414605195474 -0.7549950323179728 0.16444990306594803 0.04011158088129497 0.2511448590419687 0.1258432872094838 -0.01266095019176115
69090130000.0 0.07207317625133461 -0.1476939166881245 0.026678326384984175 -0.05270519507113048 -0.5155521946913457 0.4243193729817515 0.3548734382915774 0.18696298314241233
 0.03628533946369029 -0.05530538727281196 -0.029731074156220203 -0.14927212445378032 0.3207960111465207 0.23556276893855352 -0.5585235903585587 0.4897292718877198
 -0.48155678232208904 0.3808745673656512 0.19991739011159904 0.4047206358326779 0.1528547873368155 0.24783023127235781 0.062476327117906794 0.06928354696065563
 0.35689513701725095 0.19660883090537856 -0.5952840329076947 0.661492002862286 0.39187455442876 0.41268223794892084 -0.03826587110061846 0.26064896922078545
69160120000.0 -0.08281307115121221 -0.12900996846645915 0.008552768076863301 -0.08470180921189299 -0.5662329157820576 0.4048570128043996 0.35516889975073296 0.23513688645204595
 0.018877947192309584 -0.06616918945326218 -0.09311747594605353 -0.039105314028155064 0.2303144294510241 0.22414108982577485 -0.5420997127053429 0.456702219660362
 -0.5220434391532309 0.5710036181045381 0.38244529024492496 0.21443979940310678 -0.04381196078864666 0.23823951362039097 -0.11785764695593653 0.301297480507142
 0.3852107478464918 0.21274189061411167 -0.2200390381660684 0.37601063566502957 -0.35545092847207127 0.25494264506939285 0.0957101520434406 0.13818843268913916
69230110000.0 0.03055643925995947 -0.030198200215970056 0.030954412444525164 -0.056362943259288624 -0.5257828950954643 0.46162710058084416 0.35337636274586 0.15355914070564983
 0.017279010827378465 -0.04688579138273472 0.050136951079542566 -0.022214654971575577 0.25148595016264413 0.2381329212980041 -0.5408451461396416 0.5051745814732786
 -0.4683148930467701 0.3213839618618775 0.3678577201298036 0.32462778252764435 0.4087800523893279 0.17780591538865823 0.049585089493818776 0.005907866342749614
 0.5201343306798946 0.2685336634798543 -0.8881864741768789 0.22048183933493384 0.0556562544115649 0.5926755130106534 -0.21205417078207264 0.2724279456799349
69300100000.0 0.062112126072537674 -0.14410607179679932 0.010709293106808637 -0.03465211511775382 -0.5747221943884102 0.4622553351490911 0.2344312814498174 0.1989376395747558
 0.017098644414498713 -0.06517671204516785 -0.1436448575627568 -0.20289567883969828 0.3760418850862049 0.28694382605979135 -0.5427036628133762 0.36065883801729093
 -0.5236368277311959 0.3961441154604417 0.1543098471731909 0.2525889112289862 0.0628500405146519 -0.24527305604191402 -0.23948694008764806 0.7504614993533949
 0.10688193954225662 0.25881651514661264 -0.678610383777985 0.22412150596634015 -0.021571027542971792 0.21335463433094085 0.23087126398086635 0.0988062513978058
69370090000.0 -0.0715431261682782 -0.12610363778689995 0.0342602538211422 -0.07824204728321225 -0.48562670317840856 0.4660817660650388 0.3527731826525914 0.1763739604882479
 0.011110179194947981 -0.08194214522710627 -0.07225626081656832 -0.062019317320083395 0.3561249561327659 0.22880611457334032 -0.471441441539066 0.4415500058581242
 -0.399809728071848 0.5611794052138916 0.36534271530123946 0.15322160909849278 -0.3625576903464382 0.5321418335909261 -0.13023734981156782 0.7372206808128341
 0.3277218235662126 0.20926414262992102 -0.45257230630672907 0.8353798363878391 0.09260147777812609 0.28913102862103757 0.6343235851922929 -0.17365708123821258
69440080000.0 0.06021467113052055 -0.005889814503723469 -0.006516920929655131 -0.07556407025578896 -0.5738342849895464 0.4320572416400008 0.27651206992920696 0.24080403709368117
 -0.02099782798304704 -0.06713388134526155 0.02070528479565185 -0.11339508870836996 0.3884141513527357 0.22748546433178884 -0.574466616251087 0.46771102895354405
 -0.6046055312799282 0.32619610770419094 0.30879717237081356 0.4151646005559301 0.41079335822669305 -0.01338122566843724 0.03808161433525585 -0.01071751341783001
 0.41526792526839856 0.027484299413084563 -0.998863406693443 0.5758738137739585 -0.2617146414522512 0.1482688653939354 0.3026660174291323 0.3039647071228861
69510070000.0 0.08448941350568034 -0.20284055127528794 0.017693480422606336 -0.07174939898055077 -0.47454601422174525 0.45242394538912906 0.21803122580522666 0.28654413652204763
 0.0015991065390728015 -0.07861377834433875 -0.1573871117643597 -0.11091582392947913 0.3163788534420471 0.16130046544731008 -0.4449957695281156 0.558789466728452
 -0.49263633891983283 0.41696922291092625 0.31875112819216184 0.13156610739011063 -0.529899887822263 0.5046626977886476 0.21871435568966713 0.04651542464047385
 0.24768160942378373 0.27394910781514503 -0.412961067606043 0.4386268540098664 -0.13144602925950002 -0.055610698506139394 -0.18588069302550206 -0.1308728882705647
69580060000.0 -0.12465065688206038 -0.05205637484048919 0.04895151837490894 -0.020940712594913022 -0.5005878733894848 0.4085984078660806 0.37961135417453007 0.18436556038200086
 0.03398718458337136 -0.046688447112180544 -0.0659010895442725 -0.030615994682225575 0.20923307615678466 0.19852618304007186 -0.19231234152711885 0.6408072405676697
 -0.705329649031319 0.39858679959013255 -0.22753369329830214 0.5080036578731184 0.5149980757157121 0.28067273810525906 -0.9638725472003626 -0.3058565179708663
 0.5687155233797357 0.35839619844620535 -1.0184710601682743 0.7058436171601482 -0.6298318991173335 -0.06381939977043405 1.6362120157806024 -0.9493001695624645
69650050000.0 0.11259599326137221 -0.07474165364258789 -0.02454105727583586 -0.08771647948552935 -0.43018756880436804 0.4734185870460834 0.25750617444155444 0.24620949337432338
 -0.011209233750174352 -0.05057286409488726 0.0375725084137896 -0.10574866249784322 0.29092597339607607 0.17765543929218883 -0.39875453738080596 0.4941889750239782
 -0.38025659449114707 0.5524398142942109 0.6559307839097434 0.3914384923208509 -0.3096766177412084 0.033216793663063904 -0.06527242424416742 -0.1753951271126339
 0.24431342854333818 0.17476506335828568 -0.32857631354256367 0.2609945628086784 -0.2913703872181052 -0.3012427069428983 -0.23970721027843933 0.11667695160374625
69720040000.0 -0.11772704565076848 -0.23586922887438463 -0.06827830246545052 -0.09197503846175155 -0.4580566607129368 0.4610660978328823 0.3527850164296391 0.2718983681628513
 -0.034557660322254435 -0.0749634247689484 -0.15091196988857752 -0.129590000860487 0.289851712304344 0.1662534805300872 -0.4315645819444994 0.4850366716713857
 -0.4784116106154824 0.48771471059405863 0.6391584021915873 0.2493011622563367 -0.40732123676120247 -0.12889386943851544 -0.17395149528002524 -0.27155115492571447
 0.4056804975440061 0.20056102303432838 -0.2617406363870213 0.8753012945552765 -0.7399175481439498 -0.22824767181491795 0.5204538684856005 -0.07328865943744121
69790030000.0 -0.12558046147251817 0.06446064589446981 -0.017633024348262326 -0.08735562631392804 -0.4680314243652134 0.4408022626852129 0.25471653446340997 -0.04643704305948866
 0.0015246247381697701 -0.07386854003490412 0.03011029343631451 0.11172588850191992 0.22451076882097465 0.11955680674250746 -0.026455510423335393 0.4188778402707296
 -0.6467026739853833 0.72819649572113 0.6875227250851944 -0.44749123555381015 0.0949958182279122 0.9279954397126532 -0.371308829752804 -0.09150185126152685
 0.009382337623626981 0.2844857004103555 -0.804659082600494 -0.1655987320288386 -0.8480717289902578 -0.31707596535491683 -0.812743207646468 -0.006618888294206112
69860020000.0 -0.17725175809086682 -0.18300866535727628 0.004931439722480001 0.027536022435563936 -0.645304413325929 0.7916811166019547 0.5020257308482282 0.05332502467086107
 -0.01301811670457377 -0.08825347826090878 -0.09935022271736864 -0.2933641551603346 0.3248771575227247 -0.08991874233900034 -0.5983919324266951 0.4065491884535564
 -0.4960588987260347 0.3766069861042563 0.5291764920713362 -0.9015790987351825 0.6038170126470065 0.49004977405634315 -0.3366110317284894 -0.28062398046118214
 0.1090641722702364 0.11272022856901796 0.06563206946493248 0.17964606680083037 0.6312747311349332 3.0391363587279554 -0.28906721663170754 -0.12233633132997815
69930010000.0 -0.44408143224434715 -0.03010313180707543 -0.03812097774034722 -0.035419363372525485 -0.3684548706575485 0.36312521232454437 0.3360562655390099 0.21975738391150318
 -0.037424907624346596 -0.032217328358260314 -0.021071476608450372 0.08167786085656202 0.09274639039738795 0.2031677562183351 -0.5534283716889289 0.18154814449962778
 -0.3011563041491793 0.5207528805039667 0.046788809797877945 0.2860481051184074 0.41895560197202747 0.9290876428321325 0.26377945183839296 0.22799917129513866
 0.42664414463621625 0.12625351355540645 -0.8003984793130628 0.4886132560081446 0.7260994566170011 -0.17730782558348968 -0.25880986809311995 0.1232724693255787
70000000000.0 0.3975074669643977 0.35094015363231545 0.003267016171443423 -0.047294242316215936 -0.4405663624366553 0.2695491227910302 -0.1829825013910837 0.13272706825169378
 0.0291757452378906 0.023167978425590645 1.0685324266197287 -0.7735927926059634 -0.3544669408442938 0.00441685316983041 0.3325621281828562 0.07784199490895401
 -0.6872013609548281 0.5014392659761163 0.26553086130487374 -0.828269316361999 0.06267837618224749 0.7342042499335939 -0.5063226993689265 -0.8715162370496058
 -0.2815265274436259 -0.5256966985959005 -1.0276856357949014 0.6699475053353761 0.20942519849576852 -0.5487720673154313 -0.33148730075478894 -0.7043538327742364
