! File created by SignalIntegrity v1.5.1: Signal and Power Integrity Tools
! https://github.com/Nubis-Communications/SignalIntegrity
# MHz S MA R 50.0
0.0 0.009355618811 180.0
2500.0 0.009791189037 -128.158483633392
5000.0 0.021949473854 -106.571442757466
7500.0 0.031345375506 -104.913352873423
10000.0 0.039351933297 -103.55730388024
12500.0 0.05000524285 -107.183340813092
15000.0 0.057522099547 -109.85024791637
17500.0 0.061712489243 -110.496557314648
20000.0 0.06513713544 -116.914156509129
22500.0 0.068294662706 -113.419108162298
25000.0 0.067356358737 -114.825273699925
27500.0 0.067261433091 -114.616733851879
30000.0 0.066502454405 -115.158023051298
32500.0 0.062325498765 -114.145677151445
35000.0 0.050968652423 -115.046928113151
37500.0 0.050103787983 -108.28329411698
40000.0 0.047948884944 -96.368744669496
42500.0 0.04182547894 -95.908906119368
45000.0 0.041882810016 -68.125804829652
47500.0 0.056191398579 -58.024657851276
50000.0 0.04796788228 -43.524758760286
52500.0 0.065160445977 -38.698639526418
55000.0 0.058579638816 -51.13551342279
57500.0 0.082494197223 -45.523038046355
60000.0 0.080814479376 -32.984993333581
62500.0 0.086234143478 -36.317568719796
65000.0 0.07736417435 8.216922665058
