! File created by SignalIntegrity v1.5.1: Signal and Power Integrity Tools
! https://github.com/Nubis-Communications/SignalIntegrity
# MHz S MA R 50.0
0.0 0.013129812333 180.0
2500.0 0.015737323593 -141.437905162717
5000.0 0.024301386564 -122.116996248744
7500.0 0.033618677025 -114.75872238147
10000.0 0.043051868051 -111.669876320799
12500.0 0.052030142545 -110.458945209092
15000.0 0.059865236014 -110.351521019877
17500.0 0.066392104772 -110.021789869401
20000.0 0.072980169629 -110.065201642996
22500.0 0.077220568749 -110.661221590816
25000.0 0.080923320149 -110.270068157632
27500.0 0.083619617025 -110.323625344194
30000.0 0.085747536491 -110.410082802135
32500.0 0.086647313704 -109.672965659624
35000.0 0.086989510417 -109.45625310357
37500.0 0.085765416768 -107.874818655068
40000.0 0.085308047583 -106.598791240961
42500.0 0.08381088434 -104.879466736969
45000.0 0.081144458518 -102.521905824775
47500.0 0.07986853734 -98.832938053025
50000.0 0.077405644849 -96.048403565703
52500.0 0.075878540737 -91.69528706823
55000.0 0.073928729621 -86.422127603535
57500.0 0.072165399995 -79.337943503746
60000.0 0.07416951088 -75.238622193757
62500.0 0.075156560354 -64.554187282696
65000.0 0.077622985746 -61.556528979942
