! File created by SignalIntegrity v1.5.1: Signal and Power Integrity Tools
! https://github.com/Nubis-Communications/SignalIntegrity
# MHz S MA R 50.0
0.0 0.005822211262 180.0
2500.0 0.009595229577 -124.552141044671
5000.0 0.018185351461 -104.855414091779
7500.0 0.029956787585 -104.727566445056
10000.0 0.039555919081 -98.830319464799
12500.0 0.048780266541 -105.643260010273
15000.0 0.053277669342 -107.464251333167
17500.0 0.06170672364 -110.433619586423
20000.0 0.066625725058 -111.665274363827
22500.0 0.067057531985 -112.990157683606
25000.0 0.064309380112 -114.809909762172
27500.0 0.067071604647 -115.198958615419
30000.0 0.064298080523 -115.577292631256
32500.0 0.062079652072 -115.413530969669
35000.0 0.052400975743 -112.406795824928
37500.0 0.048485282696 -112.943077974229
40000.0 0.045942033106 -99.655482435278
42500.0 0.043593093688 -96.77496780597
45000.0 0.037670769536 -84.623731099767
47500.0 0.041264409445 -71.031611666002
50000.0 0.046619562218 -51.131462039414
52500.0 0.045065632256 -42.006647637009
55000.0 0.055748682464 -51.990956256417
57500.0 0.075322661051 -55.710136612512
60000.0 0.063413057328 -37.616971783073
62500.0 0.060115990008 -39.051635602608
65000.0 0.044946316829 -10.32289217399
