! File created by SignalIntegrity v1.5.1: Signal and Power Integrity Tools
! https://github.com/Nubis-Communications/SignalIntegrity
# MHz S MA R 50.0
0.0 0.006825594159 180.0
2500.0 0.007700340873 -124.380930993289
5000.0 0.017728568443 -104.990950985333
7500.0 0.026653199051 -102.545465872127
10000.0 0.036906071076 -101.221550064601
12500.0 0.043195901935 -105.930747758583
15000.0 0.047843149663 -106.680466918202
17500.0 0.05393605397 -111.096082309909
20000.0 0.057181051772 -113.95478303069
22500.0 0.057415923534 -115.178735561409
25000.0 0.053242679767 -110.986273793998
27500.0 0.053796824937 -111.576344769998
30000.0 0.048932039856 -110.432000687397
32500.0 0.045221434315 -112.030563146296
35000.0 0.040578864462 -102.621147941318
37500.0 0.031503653272 -95.358118876112
40000.0 0.039176723203 -80.339105886351
42500.0 0.035305896016 -60.855304520019
45000.0 0.051027923961 -49.856362890885
47500.0 0.060013271301 -45.150546442504
50000.0 0.068478312106 -27.7633809606
52500.0 0.08111878078 -31.481027309835
55000.0 0.083475966219 -38.762665512125
57500.0 0.09777192994 -32.248651998355
60000.0 0.121104359316 -30.092392988229
62500.0 0.106769399728 -29.195721896317
65000.0 0.120980727276 -30.615371308117
