! File created by SignalIntegrity v1.5.1: Signal and Power Integrity Tools
! https://github.com/Nubis-Communications/SignalIntegrity
# MHz S MA R 50.0
0.0 0.012174767001 180.0
2500.0 0.014629771029 -139.42386387678
5000.0 0.023420101955 -120.125945398995
7500.0 0.032730441993 -113.185816920776
10000.0 0.042124729094 -110.71598531881
12500.0 0.050896041365 -109.602421815003
15000.0 0.05847563212 -109.881504134377
17500.0 0.064657781446 -109.604756661688
20000.0 0.070794077277 -109.858894455737
22500.0 0.074573166736 -110.429045320565
25000.0 0.077711547637 -110.05590781353
27500.0 0.079776114668 -110.013453091006
30000.0 0.08112103329 -110.046537407725
32500.0 0.081269097083 -109.054744417677
35000.0 0.081082927604 -108.460172179376
37500.0 0.079344798961 -106.354130307079
40000.0 0.078022479259 -104.526917982588
42500.0 0.07624478706 -101.58363227598
45000.0 0.073706310123 -98.372111239949
47500.0 0.072152747366 -93.209327795785
50000.0 0.070416457119 -89.388777683757
52500.0 0.069293811159 -83.204607393245
55000.0 0.069542053223 -76.887228589584
57500.0 0.069349958677 -67.838459226828
60000.0 0.073722362175 -63.857078839086
62500.0 0.07802068509 -52.383016289284
65000.0 0.084071080216 -52.606600469438
