! File created by SignalIntegrity v1.5.1: Signal and Power Integrity Tools
! https://github.com/Nubis-Communications/SignalIntegrity
# MHz S MA R 50.0
0.0 0.997074941586 0.0
2500.0 0.995017290254 -7.652021765365
5000.0 0.98851288602 -14.74984706315
7500.0 0.982442742935 -21.745009170496
10000.0 0.976759597298 -28.443839243816
12500.0 0.971642399281 -34.921240851069
15000.0 0.967401663545 -41.124281175103
17500.0 0.965516763995 -46.981147595613
20000.0 0.961380701037 -52.636661091358
22500.0 0.958715127022 -58.414315960351
25000.0 0.954467478382 -63.596671758808
27500.0 0.952651912595 -68.559551312407
30000.0 0.946114537017 -73.561097061366
32500.0 0.945208710529 -78.180984722257
35000.0 0.946910241977 -82.637703536799
37500.0 0.94436151929 -86.91716324317
40000.0 0.941949532888 -91.594574300737
42500.0 0.944975941188 -95.67761597924
45000.0 0.942614090097 -99.743068609996
47500.0 0.939328903264 -103.694597320929
50000.0 0.939789268829 -108.022692714739
52500.0 0.952443615604 -112.277104455145
55000.0 0.943416902935 -115.29975261516
57500.0 0.950732194195 -119.615964245608
60000.0 0.961105315968 -124.71434005683
62500.0 0.969213588032 -129.176302686289
65000.0 0.955740513644 -131.027168633592
