! File created by SignalIntegrity v1.5.1: Signal and Power Integrity Tools
! https://github.com/Nubis-Communications/SignalIntegrity
# MHz S MA R 50.0
0.0 0.997507727197 0.0
2500.0 0.994589194213 -9.002854470892
5000.0 0.988166118022 -17.442797046447
7500.0 0.980698508159 -25.74351133346
10000.0 0.974801831528 -33.677141385296
12500.0 0.968223916093 -41.343211553457
15000.0 0.963924704523 -48.673254169084
17500.0 0.960644198462 -55.642845950521
20000.0 0.956976563662 -62.305344517198
22500.0 0.952290264625 -69.145286422112
25000.0 0.947743642526 -75.281938320856
27500.0 0.944557478684 -81.349872635212
30000.0 0.937949963953 -87.247014091199
32500.0 0.936083140317 -93.014182008741
35000.0 0.937237927809 -98.582120358077
37500.0 0.933187461187 -104.11610521161
40000.0 0.92888757692 -109.88172179586
42500.0 0.929137638056 -115.471953442817
45000.0 0.926808683367 -120.930707991987
47500.0 0.920535708403 -126.499712887995
50000.0 0.917713284728 -132.63165445481
52500.0 0.923226716377 -139.123912099668
55000.0 0.91880890919 -144.167004916074
57500.0 0.916498665621 -151.374238485224
60000.0 0.914020339133 -158.882787404877
62500.0 0.913421681301 -166.894398127075
65000.0 0.891305505958 -170.938150382407
