! File created by SignalIntegrity v1.5.1: Signal and Power Integrity Tools
! https://github.com/Nubis-Communications/SignalIntegrity
# MHz S MA R 50.0
0.0 0.997542697913 0.0
2500.0 0.995001275112 -8.3277389372
5000.0 0.988549635123 -16.104539969071
7500.0 0.981893699266 -23.754690409429
10000.0 0.976508722014 -31.071587726254
12500.0 0.970795841585 -38.157164881968
15000.0 0.966847510192 -44.933379362141
17500.0 0.964586002533 -51.354573412405
20000.0 0.961011169192 -57.520457732519
22500.0 0.957591137953 -63.847218456001
25000.0 0.953545123506 -69.504467936537
27500.0 0.951377205748 -75.038789500733
30000.0 0.94509505738 -80.477503485592
32500.0 0.944229354758 -85.664944289055
35000.0 0.945971656626 -90.673021330708
37500.0 0.943028570348 -95.563349992358
40000.0 0.9399685171 -100.765677546477
42500.0 0.942516397985 -105.577636460234
45000.0 0.940586165862 -110.268926039911
47500.0 0.936202850412 -114.961644888244
50000.0 0.935475405124 -120.125367475909
52500.0 0.945670333306 -125.447702169412
55000.0 0.940157235156 -129.300234553116
57500.0 0.943605310042 -134.942790804852
60000.0 0.947713766788 -141.111334323363
62500.0 0.952901402267 -147.263653128674
65000.0 0.933837402821 -149.870250864978
