! File created by SignalIntegrity v1.5.1: Signal and Power Integrity Tools
! https://github.com/Nubis-Communications/SignalIntegrity
# MHz S MA R 50.0
0.0 0.999504862806 0.0
2500.0 0.990479222022 -11.365362646012
5000.0 0.988817676232 -21.911399905006
7500.0 0.978572011792 -32.421857670837
10000.0 0.975056425839 -42.306421370909
12500.0 0.965075339476 -52.077800101863
15000.0 0.959054809814 -61.008392264712
17500.0 0.952332101317 -70.300739862822
20000.0 0.948467571495 -78.613119908481
22500.0 0.942432339478 -87.174367393161
25000.0 0.931680031697 -94.794951727295
27500.0 0.934323378516 -102.825748152398
30000.0 0.927441006918 -110.598644874479
32500.0 0.926324735441 -118.706344394994
35000.0 0.911376257062 -126.322456465294
37500.0 0.910111197445 -134.303529121838
40000.0 0.89701022155 -141.627812056775
42500.0 0.903079084421 -149.907924800119
45000.0 0.890679753555 -158.36260905477
47500.0 0.886109187568 -166.664613070862
50000.0 0.868146015406 -175.709744372693
52500.0 0.865838735948 174.875450548503
55000.0 0.865203468836 166.064258947765
57500.0 0.864295567084 155.343351959799
60000.0 0.843522098365 143.851638673095
62500.0 0.864423911065 135.552898723847
65000.0 0.82706159175 115.203989620349
