! File created by SignalIntegrity v1.5.1: Signal and Power Integrity Tools
! https://github.com/Nubis-Communications/SignalIntegrity
# MHz S MA R 50.0
0.0 0.978504320027 180.0
2500.0 0.972257350539 175.484933484435
5000.0 0.967077779936 171.80237093357
7500.0 0.961814741992 167.89854453745
10000.0 0.959613903111 164.1998154974
12500.0 0.960762856949 160.149357004899
15000.0 0.960665324239 155.931986459344
17500.0 0.959152641443 151.63612997579
20000.0 0.960710415826 147.13672029544
22500.0 0.956272475327 142.490057908563
25000.0 0.95454981801 137.577821456451
27500.0 0.949774568422 132.485179456167
30000.0 0.949978269513 127.374095169333
32500.0 0.944350992211 121.834599530849
35000.0 0.940343711092 116.416830839784
37500.0 0.933718220657 110.609062650538
40000.0 0.933151443694 104.95623570949
42500.0 0.922963735867 99.059423247683
45000.0 0.921163693347 92.812318803534
47500.0 0.912424410887 86.859108280839
50000.0 0.904930761215 80.793199681011
52500.0 0.892197633124 74.880915801823
55000.0 0.892531679895 68.561174076001
57500.0 0.877657257924 62.808165496054
60000.0 0.866993059835 57.805744675172
62500.0 0.865758001156 51.911925940311
65000.0 0.861263318051 49.010376199656
