! File created by SignalIntegrity v1.5.1: Signal and Power Integrity Tools
! https://github.com/Nubis-Communications/SignalIntegrity
# MHz S MA R 50.0
0.0 0.902501646005 180.0
2500.0 0.893169960044 171.394675147851
5000.0 0.880950913452 164.023383205992
7500.0 0.879320286824 156.70104146337
10000.0 0.869983822841 148.838954092405
12500.0 0.87654706192 141.241383594921
15000.0 0.869378060461 132.93550330487
17500.0 0.872801600606 124.644842331129
20000.0 0.874981620324 116.140955398846
22500.0 0.871071314392 107.171857778195
25000.0 0.873855733974 97.797682220064
27500.0 0.869700159741 88.689278436101
30000.0 0.873896743346 79.197996810416
32500.0 0.872296861622 70.050369807579
35000.0 0.874216303975 60.640330407589
37500.0 0.872319782725 51.469492498917
40000.0 0.879078813484 42.283727683786
42500.0 0.877151781704 33.415080212644
45000.0 0.873002486274 25.483822367647
47500.0 0.877024809773 16.47773587981
50000.0 0.883700761839 9.049378957414
52500.0 0.875027205689 1.86778711259
55000.0 0.860295110878 -5.945037310536
57500.0 0.862530236274 -13.456442625943
60000.0 0.848949052054 -17.826702788882
62500.0 0.833141393567 -26.747189489561
65000.0 0.857074396044 -24.042671248911
