! File created by SignalIntegrity v1.5.1: Signal and Power Integrity Tools
! https://github.com/Nubis-Communications/SignalIntegrity
# MHz S MA R 50.0
0.0 0.95197248373 180.0
2500.0 0.942977825491 170.546247915634
5000.0 0.927029292844 162.483678431748
7500.0 0.922621362654 154.366705199576
10000.0 0.9116637504 145.808895777795
12500.0 0.913838860978 137.57893012437
15000.0 0.907449108156 128.328118235837
17500.0 0.905184745922 119.419241974139
20000.0 0.901551375791 109.849828200041
22500.0 0.895474779783 100.348847389399
25000.0 0.896271584834 89.825627654978
27500.0 0.884356013661 79.988252192318
30000.0 0.887278695168 69.454930136851
32500.0 0.875026761185 59.903708837388
35000.0 0.878640780025 49.868146055706
37500.0 0.869346804444 39.874994009404
40000.0 0.874000981188 30.030436384976
42500.0 0.870931080494 21.204868358806
45000.0 0.881860812121 12.745401298472
47500.0 0.868494482978 3.782768642451
50000.0 0.882742297946 -3.335081513911
52500.0 0.868637938465 -10.978633596309
55000.0 0.867930345744 -18.793163446038
57500.0 0.870962707264 -26.913968859809
60000.0 0.878289509434 -30.890514725419
62500.0 0.852969516733 -38.791805880019
65000.0 0.874064116946 -40.957133307352
