! File created by SignalIntegrity v1.5.1: Signal and Power Integrity Tools
! https://github.com/Nubis-Communications/SignalIntegrity
# MHz S MA R 50.0
0.0 0.943057094203 180.0
2500.0 0.928312091084 169.787363171769
5000.0 0.915814030242 161.074573260598
7500.0 0.909114261473 151.904871010712
10000.0 0.903031215878 142.963126659949
12500.0 0.900992262794 133.415608846852
15000.0 0.895258001637 123.591763642437
17500.0 0.88889749294 113.600539764593
20000.0 0.889611288382 103.282774623267
22500.0 0.883280824308 92.659115680263
25000.0 0.882547062482 81.811095220386
27500.0 0.876020077368 70.875178277267
30000.0 0.877723292746 59.92058848339
32500.0 0.870987451898 49.373452234443
35000.0 0.876816701822 38.941537846044
37500.0 0.870864850852 28.670094357481
40000.0 0.874886165996 18.54752958261
42500.0 0.873011130271 9.266820399138
45000.0 0.8611064027 0.878308997115
47500.0 0.87353778815 -7.999829151799
50000.0 0.880554897412 -16.637303835374
52500.0 0.869350304193 -23.106633677914
55000.0 0.878149120439 -31.56460031843
57500.0 0.884199514962 -39.047928343379
60000.0 0.868176187541 -44.322350228556
62500.0 0.864804967388 -52.343824355926
65000.0 0.910825592747 -54.470692309304
