! File created by SignalIntegrity v1.5.1: Signal and Power Integrity Tools
! https://github.com/Nubis-Communications/SignalIntegrity
# MHz S MA R 50.0
0.0 0.019920267042 0.0 0.986479320593 0.0 0.985466408482 0.0 0.017197112127 0.0
2500.0 0.029556155391 -48.476962769828 0.966708773677 -8.469170412472 0.964817936899 -8.442671694568 0.030206458275 -41.783388743959
5000.0 0.048027811296 -74.309568371246 0.971678182847 -15.735321957308 0.971150495922 -15.857413568025 0.044590192146 -80.972841815776
7500.0 0.064839482118 -91.090415708343 0.951681729811 -23.610369111996 0.950035679945 -23.565014525471 0.057572388732 -91.281829250162
10000.0 0.079406161469 -102.099119373438 0.956291752799 -30.432467376558 0.956728445375 -30.592837596209 0.071445286582 -106.32566343478
12500.0 0.090037943192 -112.619919881418 0.941028378406 -38.326876907337 0.939057234561 -38.241751764506 0.076067364703 -116.922228679568
15000.0 0.095018655625 -120.043787588953 0.945949679984 -44.899989609989 0.94708394586 -45.100269885837 0.081919065078 -130.607544021501
17500.0 0.097333421132 -127.148506955967 0.93495695643 -52.897320615434 0.929485482535 -52.868374745064 0.073733957358 -139.603773666843
20000.0 0.094136693 -132.386896429968 0.936562791305 -59.179946391341 0.938817698728 -59.463139180849 0.080020352419 -154.011902813356
22500.0 0.08869073759 -137.577516065646 0.929351567983 -67.427513553525 0.923625707822 -67.445857628454 0.064958131149 -156.629138318089
25000.0 0.076742838378 -140.128814493343 0.927663284859 -73.64547744568 0.930770347083 -73.82846941208 0.054773170705 -170.216285646653
27500.0 0.065005255034 -139.595467134024 0.924353273032 -81.943232419301 0.918616359054 -81.940088762902 0.029749426795 -179.355742778296
30000.0 0.051295588192 -134.26957830431 0.918631536545 -88.126912630983 0.923821139476 -88.205219131263 0.019577102418 148.411228162819
32500.0 0.042198063672 -118.486339041061 0.919451829406 -96.394504523192 0.91224032496 -96.522900072866 0.012226923224 53.752397162978
35000.0 0.040970721003 -95.368353478499 0.907316678398 -102.453260921038 0.915061702453 -102.531000042133 0.030528916024 20.39950229198
37500.0 0.050285711851 -77.053161654971 0.914616967424 -110.767146850756 0.905226033326 -110.983821406249 0.051147188901 -1.197255699453
40000.0 0.065604619647 -67.519946410618 0.896838984369 -116.865542053915 0.905371096146 -116.704615510768 0.067969892207 -16.510670065627
42500.0 0.08359907464 -66.439714453103 0.908606970981 -124.722152270154 0.89581932744 -125.30980103264 0.082755682157 -19.382167952432
45000.0 0.098251279557 -66.590157373613 0.883499781643 -131.168872607676 0.892698356628 -130.584687578173 0.098562251963 -34.640156018817
47500.0 0.115204531488 -69.730343843422 0.902945987311 -138.319604118022 0.89002047106 -139.235417911307 0.141236494427 -43.74361051341
50000.0 0.124868090415 -74.572240641697 0.865835179765 -144.790230031174 0.880672141407 -144.238319927239 0.131243672726 -50.784097955267
52500.0 0.132529378779 -79.998322568379 0.900241428483 -151.602308361213 0.88343455939 -153.115763852912 0.143864379861 -52.076942075054
55000.0 0.133419171643 -85.149625639982 0.860571732759 -158.43516455953 0.86996663176 -157.214103649306 0.147756676002 -76.773955365685
57500.0 0.130460176966 -90.420093776663 0.903905069002 -164.371225174377 0.887595554989 -166.545283665044 0.154204539096 -79.212528477286
60000.0 0.121244841185 -97.695849813425 0.847299619559 -172.167529148027 0.86106892151 -169.842124008416 0.128189523156 -94.151900482349
62500.0 0.108989774395 -102.589116260476 0.909777414966 -176.35219563566 0.897020998943 179.74858111519 0.079702636759 -80.577127739645
65000.0 0.084676342462 -109.91899285596 0.825107277001 172.994115202167 0.846822433964 178.56871272133 0.09817206871 -129.196987627807
