! File created by SignalIntegrity v1.5.1: Signal and Power Integrity Tools
! https://github.com/Nubis-Communications/SignalIntegrity
# MHz S MA R 50.0
0.0 0.037045998568 0.0 0.968549756273 0.0 0.971010806487 0.0 0.034952152795 0.0
2500.0 0.044470728523 -36.233831846753 0.949638486931 -9.232687486973 0.945144532263 -9.266966018671 0.043831770556 -25.613167723842
5000.0 0.060252573295 -63.885818918281 0.952918041418 -17.240873388571 0.954936899039 -17.311779808372 0.04795979689 -55.527107548154
7500.0 0.074816349669 -83.715808232098 0.933866995426 -25.851612121924 0.929413165895 -25.896054327849 0.055210408049 -72.53917487888
10000.0 0.088146807032 -97.759672977486 0.936603418428 -33.40842884731 0.939572975832 -33.397952316706 0.061906038743 -90.492189604799
12500.0 0.096649927501 -110.503392322527 0.922522540048 -41.932871593503 0.918210208258 -42.032032489433 0.0614757666 -102.613946698843
15000.0 0.100002634656 -119.902170766593 0.925753064986 -49.322246661244 0.928348500946 -49.29185296365 0.059094079459 -117.457640264974
17500.0 0.099387079924 -129.031581629246 0.914501309373 -57.887239850257 0.909250560993 -58.094861454015 0.052827872101 -128.005671910582
20000.0 0.093400586993 -135.837576987513 0.91600097762 -64.986564903352 0.919038055615 -64.948467487037 0.04872263279 -146.077381815872
22500.0 0.083847083868 -142.907426903563 0.909819790589 -73.850965185036 0.904457902001 -74.095079693224 0.030140912175 -140.820116981358
25000.0 0.067997757665 -146.595549657953 0.908205270125 -80.778857761884 0.909912410712 -80.728385446149 0.00866475162 -149.792468511585
27500.0 0.051631472978 -146.386636353405 0.90434086207 -89.699023687293 0.900680858773 -90.044149590737 0.008762194008 6.91184475182
30000.0 0.03490313639 -136.04124237884 0.89856602323 -96.754135048308 0.901276261624 -96.489267710039 0.025198043589 1.047039470901
32500.0 0.026614168045 -102.2534378836 0.899678922487 -105.776964305323 0.896273950018 -106.051801708585 0.048277049344 -6.277413900358
35000.0 0.036328150847 -69.251401214181 0.887182483984 -112.499269870884 0.889469579067 -112.285622946162 0.067300628624 -12.807327264145
37500.0 0.053205093719 -57.979870156694 0.893029895729 -121.41041535612 0.890107039214 -121.903333562856 0.083856042269 -22.627408383994
40000.0 0.073790929103 -56.920105102302 0.876842880296 -128.084879227076 0.876369707622 -127.831907716687 0.102740349291 -31.30679197111
42500.0 0.090918805892 -59.975042547034 0.886178430236 -136.87423886935 0.884106239944 -137.567671357917 0.119792933217 -35.924783526527
45000.0 0.105669541213 -64.22472637262 0.860010435527 -143.826674837248 0.862598116416 -143.126973079897 0.116272190213 -42.907869014709
47500.0 0.116658359407 -69.87896740375 0.880926093163 -151.726414762988 0.880075412692 -152.581619755076 0.153479490071 -51.601447960761
50000.0 0.122092143271 -76.210047149649 0.85293912017 -159.193782359908 0.848745494533 -158.328603395916 0.147672883382 -60.597692283524
52500.0 0.120463402877 -83.046746849621 0.877039997078 -166.501589382054 0.878115394692 -167.590697048579 0.134718236665 -60.801427912335
55000.0 0.113517573204 -89.038820561624 0.840423337666 -173.994279924285 0.833114896596 -173.083108732964 0.117816237943 -84.314641375562
57500.0 0.096934441456 -94.456889071234 0.882861580733 179.347638077592 0.888080014623 177.856014031933 0.105631020033 -80.342201156457
60000.0 0.080882381925 -101.281554709092 0.832439936584 170.16585077955 0.815989786183 172.167639491821 0.08650473547 -96.810062447979
62500.0 0.049548870671 -103.895457696362 0.891689338751 164.756986180324 0.908690626231 163.206295393719 0.043056843323 -72.597516980897
65000.0 0.022265807224 -92.12293778406 0.808975056857 154.299601900594 0.77837070437 157.455524457881 0.021901292365 -32.458938495077
