! File created by SignalIntegrity v1.5.1: Signal and Power Integrity Tools
! https://github.com/Nubis-Communications/SignalIntegrity
# MHz S MA R 50.0
0.0 0.065742034957 0.0 0.928051404822 0.0 0.939975475717 0.0 0.063905675866 0.0
2500.0 0.074759177567 -28.985649075188 0.930014625721 -9.83537915951 0.915979477148 -10.002157559682 0.07090760371 -14.208525478841
5000.0 0.085683432064 -56.807705069857 0.911542556724 -18.946979750826 0.922690411661 -18.758493097895 0.071729195305 -32.892091684289
7500.0 0.099148111851 -76.748112924411 0.911904793405 -27.63687976813 0.899442062781 -28.01719861442 0.07043499155 -45.675594821641
10000.0 0.109947786986 -95.071176081176 0.896202312318 -36.670762829487 0.906088449135 -36.206935064312 0.065209663587 -62.823577871816
12500.0 0.115752529983 -108.797017008331 0.897453667492 -44.879862038253 0.887385315805 -45.452662874152 0.062638739633 -71.358524406686
15000.0 0.117059631908 -122.323484856755 0.887595096193 -54.022433780876 0.894618199945 -53.3574448136 0.050312693989 -79.717602239693
17500.0 0.111128606958 -132.794241169869 0.887776213432 -61.909372365632 0.879374249838 -62.746219217187 0.040051677011 -74.026605012132
20000.0 0.102177064068 -143.850741044515 0.882854352989 -71.078450198883 0.886567753199 -70.352878454512 0.030212246153 -83.275142797523
22500.0 0.084892012517 -152.811727541144 0.879919790606 -79.133271509446 0.876098573314 -80.070852189438 0.029347044627 -41.52449272322
25000.0 0.065014628166 -162.453253815787 0.879006168713 -88.328409341887 0.878922145907 -87.442279780188 0.035259206096 -15.906669702025
27500.0 0.038566281828 -165.443889736496 0.872526169443 -96.418216675556 0.873984624971 -97.38349887406 0.055826067699 -9.891005088929
30000.0 0.015718674868 -159.851382492179 0.876292842717 -105.685369038372 0.871731960047 -104.714138241038 0.072217360452 -16.852822379268
32500.0 0.019186949285 -42.05649181296 0.862990458331 -113.88655902735 0.869819738348 -114.743016226413 0.092526583034 -16.052109135994
35000.0 0.041788110558 -37.845540983422 0.868072725391 -122.767151769503 0.860018818567 -121.842758882928 0.108594822436 -20.194815651826
37500.0 0.069935421138 -40.43724613037 0.852444139968 -131.051819286356 0.863751064708 -131.868517108073 0.121453500473 -29.842933308677
40000.0 0.08946914195 -48.927346238405 0.862642176901 -139.587834594108 0.848000870624 -138.893233932308 0.140934529714 -38.120976660915
42500.0 0.110380150741 -55.555001022579 0.84211902332 -147.871556371367 0.858595336811 -148.71596074701 0.144342457475 -39.808185475034
45000.0 0.11914124508 -63.878175774186 0.851890011273 -156.343151298497 0.833448291193 -155.47291300345 0.139482164771 -47.270120292127
47500.0 0.129239273913 -70.493109709452 0.832584916696 -164.526252462822 0.853359680303 -165.114178001856 0.149226249882 -55.624892786533
50000.0 0.123504554237 -80.25487222713 0.846152922401 -172.506535419514 0.82038606612 -172.150396297394 0.138058711167 -58.562040689377
52500.0 0.118069319358 -85.165032248351 0.828200405444 178.461474647596 0.854146424549 178.578024641112 0.129423015505 -57.236934288124
55000.0 0.09651216278 -93.718591635817 0.846710617474 171.799307539175 0.810255457 171.642601155815 0.099196959453 -71.470025723569
57500.0 0.073716732703 -92.198231826181 0.824171173714 161.828745713965 0.861891195716 162.686618746859 0.067854308153 -57.861782996093
60000.0 0.040423844034 -97.961609828915 0.838415751048 155.687799672738 0.798587038438 154.818910433874 0.072694680156 -39.682573286127
62500.0 0.029833788536 -23.449932544255 0.826188860122 145.049032060178 0.875137551335 147.112374600618 0.055170503099 6.037518746981
65000.0 0.049631005128 28.962482369737 0.812708866083 140.568999387975 0.753840924669 137.571272097127 0.093161066283 32.774991412436
